54
Lattice="10.26719046282867 0.0 0.0 0.0 7.700392847121503 0.0 0.0 0.0 27.347850919999996" Properties=species:S:1:pos:R:3:initial_magmoms:R:1:MACE_forces:R:3:forces:R:3:DFT_forces:R:3 MACE_energy=-218.55623316696747 energy=-218.98327494312278 stress="0.009287364640864227 -1.5923009327785505e-06 -0.00017830864227997187 -1.5923009327785505e-06 0.009170261350542941 2.2090300955904382e-06 -0.00017830864227997187 2.2090300955904382e-06 0.0012520742766357438" free_energy=-218.98327494312278 DFT_energy=-222.16819328 pbc="T T T"
Cu       1.28339881       1.28339881      11.83696273       0.00000000       0.00000000       0.00000000       0.00000000      -0.00120965       0.00039388       0.18392100       0.02696112       0.01265360       0.44844965
Cu       3.85019642       1.28339881      11.83696273       0.00000000       0.00000000       0.00000000       0.00000000       0.00128287       0.00015339       0.18431546      -0.00273012       0.00272366       0.41703134
Cu       6.41699404       1.28339881      11.83696273       0.00000000       0.00000000       0.00000000       0.00000000      -0.00031603      -0.00033761       0.18287886       0.00820682       0.01765397       0.43795918
Cu       8.98379165       1.28339881      11.83696273       0.00000000       0.00000000       0.00000000       0.00000000       0.00017719      -0.00010624       0.18293831      -0.03129401       0.02351425       0.41508839
Cu       1.28339881       3.85019642      11.83696273       0.00000000       0.00000000       0.00000000       0.00000000      -0.00120926      -0.00040733       0.18391551       0.02632108      -0.01035686       0.44996542
Cu       3.85019642       3.85019642      11.83696273       0.00000000       0.00000000       0.00000000       0.00000000       0.00128485      -0.00016393       0.18431795      -0.00366839      -0.00279606       0.41217968
Cu       6.41699404       3.85019642      11.83696273       0.00000000       0.00000000       0.00000000       0.00000000      -0.00030343       0.00034271       0.18290542       0.01209949      -0.01647198       0.43824037
Cu       8.98379165       3.85019642      11.83696273       0.00000000       0.00000000       0.00000000       0.00000000       0.00016245       0.00010908       0.18296359      -0.03252444      -0.01871297       0.41347206
Cu       1.28339881       6.41699404      11.83696273       0.00000000       0.00000000       0.00000000       0.00000000      -0.00070100       0.00001588       0.18332908       0.02292563      -0.00188667       0.43151544
Cu       3.85019642       6.41699404      11.83696273       0.00000000       0.00000000       0.00000000       0.00000000       0.00098015       0.00001367       0.18358238      -0.00179789       0.00010788       0.42899135
Cu       6.41699404       6.41699404      11.83696273       0.00000000       0.00000000       0.00000000       0.00000000       0.00108623      -0.00000256       0.18582392       0.00454533      -0.00135060       0.41503724
Cu       8.98379165       6.41699404      11.83696273       0.00000000       0.00000000       0.00000000       0.00000000      -0.00134704      -0.00000103       0.18582947      -0.02507715      -0.00449907       0.44941038
Cu       7.70039285      -0.00000000      13.67392546       0.00000000       0.00000000       0.00000000       0.00000000       0.00020225       0.00018413      -0.09069413      -0.01860777      -0.01581164      -0.16701522
Cu       5.13359523      -0.00000000      13.67392546       0.00000000       0.00000000       0.00000000       0.00000000      -0.00107453      -0.00412450      -0.09565267       0.02222696      -0.00579183      -0.16474918
Cu       2.56679762      -0.00000000      13.67392546       0.00000000       0.00000000       0.00000000       0.00000000      -0.00031407       0.00083016      -0.08955175      -0.02606511       0.00247122      -0.17096467
Cu       0.00000000      -0.00000000      13.67392546       0.00000000       0.00000000       0.00000000       0.00000000       0.00098417      -0.00260718      -0.09477591       0.02380752       0.02291963      -0.15847717
Cu       0.00000000       2.56679762      13.67392546       0.00000000       0.00000000       0.00000000       0.00000000      -0.00011745       0.00002732      -0.08852795       0.01109325       0.00006179      -0.13668815
Cu       2.56679762       2.56679762      13.67392546       0.00000000       0.00000000       0.00000000       0.00000000      -0.00174949       0.00001176      -0.09408713      -0.01170893       0.00275761      -0.16579543
Cu       5.13359523       2.56679762      13.67392546       0.00000000       0.00000000       0.00000000       0.00000000       0.00088671       0.00003161      -0.08734403       0.00084529       0.00276839      -0.12498702
Cu       7.70039285       2.56679762      13.67392546       0.00000000       0.00000000       0.00000000       0.00000000       0.00012617      -0.00007291      -0.09778330       0.00414167       0.00343251      -0.14547743
Cu       0.00000000       5.13359523      13.67392546       0.00000000       0.00000000       0.00000000       0.00000000       0.00089782       0.00259221      -0.09471485       0.02440334      -0.02214485      -0.16583172
Cu       2.56679762       5.13359523      13.67392546       0.00000000       0.00000000       0.00000000       0.00000000      -0.00030684      -0.00078099      -0.08935936      -0.02902381      -0.00656248      -0.17821942
Cu       5.13359523       5.13359523      13.67392546       0.00000000       0.00000000       0.00000000       0.00000000      -0.00099217       0.00411663      -0.09560446       0.02555795       0.00193567      -0.15716983
Cu       7.70039285       5.13359523      13.67392546       0.00000000       0.00000000       0.00000000       0.00000000       0.00020439      -0.00011159      -0.09099546      -0.01859375       0.01415393      -0.18152900
Cu       1.28339881       1.28339881      15.51088819       0.00000000       0.00000000       0.00000000       0.00000000       0.01813899      -0.02508138      -0.26806105      -0.00698833       0.25381238      -0.04520367
Cu       3.85019642       1.28339881      15.51088819       0.00000000       0.00000000       0.00000000       0.00000000      -0.06124003      -0.04797976      -0.28371043      -0.07590231       0.04728500      -0.29348971
Cu       6.41699404       1.28339881      15.51088819       0.00000000       0.00000000       0.00000000       0.00000000       0.09460901       0.07366018      -0.16189073       0.10910464       0.09378340      -0.30891436
Cu       8.98379165       1.28339881      15.51088819       0.00000000       0.00000000       0.00000000       0.00000000      -0.09532938       0.08743023      -0.14525148      -0.00880068       0.07370814      -0.24622561
Cu       1.28339881       3.85019642      15.51088819       0.00000000       0.00000000       0.00000000       0.00000000       0.01902852       0.02580518      -0.26766635      -0.01395215      -0.23331383      -0.04885524
Cu       3.85019642       3.85019642      15.51088819       0.00000000       0.00000000       0.00000000       0.00000000      -0.06222723       0.04913279      -0.28351134      -0.09229599      -0.04817242      -0.31340789
Cu       6.41699404       3.85019642      15.51088819       0.00000000       0.00000000       0.00000000       0.00000000       0.09425217      -0.07303536      -0.16207057       0.14030104      -0.08996071      -0.32130974
Cu       8.98379165       3.85019642      15.51088819       0.00000000       0.00000000       0.00000000       0.00000000      -0.09479353      -0.08683845      -0.14565459      -0.02327601      -0.03513628      -0.26189714
Cu       1.28339881       6.41699404      15.51088819       0.00000000       0.00000000       0.00000000       0.00000000       0.00168629       0.00032955      -0.25051510      -0.00202250       0.01805648      -0.39530024
Cu       3.85019642       6.41699404      15.51088819       0.00000000       0.00000000       0.00000000       0.00000000      -0.01039868       0.00045043      -0.26911907       0.10228577      -0.01802490      -0.14485475
Cu       6.41699404       6.41699404      15.51088819       0.00000000       0.00000000       0.00000000       0.00000000      -0.03781942       0.00006594      -0.30888129      -0.14586250      -0.01502909      -0.23817578
Cu       8.98379165       6.41699404      15.51088819       0.00000000       0.00000000       0.00000000       0.00000000       0.05092765      -0.00020704      -0.30365416      -0.00138032       0.01071542      -0.24306859
Cu       7.68778500       7.68172395      17.23396499       0.00000000       0.00313833      -0.01189548       0.13936447       0.00316674      -0.00995416       0.13918419       0.00182846      -0.05483638      -0.09203458
Cu       5.12607521       7.70386861      17.26253306       0.00000000       0.00005988      -0.01353926       0.13688448      -0.00062640      -0.01251039       0.13425749       0.05343641      -0.12488829      -0.15779983
Cu       2.55976996       7.68371141      17.23112120       0.00000000      -0.00530783      -0.00891789       0.14123083      -0.00372270      -0.00882101       0.13794574      -0.02745121      -0.03150221      -0.06129554
Cu      10.27437737       7.69086513      17.23284062       0.00000000       0.00263673      -0.00900551       0.14379388       0.00105285      -0.00590156       0.14367554       0.00029921      -0.04650433      -0.08968606
Cu      10.26972643       2.58101801      17.33508477       0.00000000      -0.00425266      -0.00069256       0.14814312       0.00229826       0.00010727       0.13446549       0.09957098       0.02021913      -0.06504862
Cu       2.51499031       2.56450290      17.31019113       0.00000000       0.02061416       0.00151929       0.17492227      -0.00576306      -0.00021905       0.13448776      -0.08850489      -0.01674574      -0.06970822
Cu       5.20336250       2.56217342      17.22026231       0.00000000      -0.00908725      -0.00060024       0.14499928      -0.00024754       0.00026336       0.12558678      -0.06977132       0.01404675       0.23620557
Cu       7.68327902       2.56167949      17.30658780       0.00000000       0.01157673       0.00081049       0.13781032       0.00764127       0.00213767       0.13600353      -0.10191851       0.01932670      -0.15461648
Cu      10.27691746       5.16481750      17.22821100       0.00000000       0.00085800       0.00481572       0.14407179       0.00061308       0.00597787       0.14366813      -0.01580885       0.02927787      -0.04825886
Cu       2.55742230       5.15241821      17.22930337       0.00000000      -0.00674571       0.01029772       0.14117565      -0.00373460       0.00916066       0.13745396      -0.01892666       0.03708141      -0.06295528
Cu       5.12282532       5.10946484      17.27271077       0.00000000       0.00027005       0.00897829       0.13946354      -0.00000401       0.01267987       0.13425899       0.03971474       0.15767893      -0.17785583
Cu       7.68172318       5.15891787      17.22933045       0.00000000       0.00536096       0.00974064       0.13927175       0.00318659       0.00947467       0.14002141       0.01869720       0.04863710      -0.06771780
O        5.34055721       2.66895306      20.08222228       0.00000000       0.01079063       0.01400743       0.03835318       0.01337001       0.00327398       0.02054973       0.23756627       0.05414876       0.39515578
C        4.51500885       2.64668097      19.01946779       0.00000000      -0.00886305       0.01379803       0.06295947       0.02046340      -0.00020592       0.03457344      -0.19301432       0.03997294       0.40290172
H        6.28719667       2.70438096      19.78220280       0.00000000       0.00891803       0.01236886       0.02335159       0.00907560       0.00599038       0.00772785       0.02607183      -0.13218347      -0.00952032
O        3.28629252       2.60691859      19.22703852       0.00000000       0.01013395       0.01012951       0.03611655       0.02075500      -0.00303672       0.00566561       0.64568551      -0.08428113      -0.46375971
O        8.92451669       2.66601448      18.81364837       0.50000000      -0.00039398      -0.03233013       0.05632082       0.01019524      -0.03139931       0.03486485      -0.64623305       0.00384382      -0.05695261
H        8.95776889       1.77941376      19.22083661       0.50000000      -0.00568098      -0.04384259       0.00948789       0.00681161       0.01914352       0.00796572       0.04550344       0.00821547       0.16321311
54
Lattice="10.26719046282867 0.0 0.0 0.0 7.700392847121503 0.0 0.0 0.0 27.347850919999996" Properties=species:S:1:pos:R:3:initial_magmoms:R:1:MACE_forces:R:3:forces:R:3:DFT_forces:R:3 MACE_energy=-218.55510673705578 energy=-218.98327494312278 stress="0.009287364640864227 -1.5923009327785505e-06 -0.00017830864227997187 -1.5923009327785505e-06 0.009170261350542941 2.2090300955904382e-06 -0.00017830864227997187 2.2090300955904382e-06 0.0012520742766357438" free_energy=-218.98327494312278 DFT_energy=-222.15595893 pbc="T T T"
Cu       1.28339881       1.28339881      11.83696273       0.00000000       0.00000000       0.00000000       0.00000000      -0.00120965       0.00039388       0.18392100       0.02588737       0.01206811       0.44803713
Cu       3.85019642       1.28339881      11.83696273       0.00000000       0.00000000       0.00000000       0.00000000       0.00128287       0.00015339       0.18431546      -0.00076200       0.00245611       0.41656971
Cu       6.41699404       1.28339881      11.83696273       0.00000000       0.00000000       0.00000000       0.00000000      -0.00031603      -0.00033761       0.18287886       0.00786621       0.01738720       0.43756415
Cu       8.98379165       1.28339881      11.83696273       0.00000000       0.00000000       0.00000000       0.00000000       0.00017719      -0.00010624       0.18293831      -0.03144270       0.02263049       0.41575651
Cu       1.28339881       3.85019642      11.83696273       0.00000000       0.00000000       0.00000000       0.00000000      -0.00120926      -0.00040733       0.18391551       0.02585565      -0.00984405       0.44987561
Cu       3.85019642       3.85019642      11.83696273       0.00000000       0.00000000       0.00000000       0.00000000       0.00128485      -0.00016393       0.18431795      -0.00241689      -0.00262493       0.41258500
Cu       6.41699404       3.85019642      11.83696273       0.00000000       0.00000000       0.00000000       0.00000000      -0.00030343       0.00034271       0.18290542       0.01213589      -0.01667458       0.43751757
Cu       8.98379165       3.85019642      11.83696273       0.00000000       0.00000000       0.00000000       0.00000000       0.00016245       0.00010908       0.18296359      -0.03314538      -0.01817135       0.41395883
Cu       1.28339881       6.41699404      11.83696273       0.00000000       0.00000000       0.00000000       0.00000000      -0.00070100       0.00001588       0.18332908       0.02319647      -0.00214602       0.43125861
Cu       3.85019642       6.41699404      11.83696273       0.00000000       0.00000000       0.00000000       0.00000000       0.00098015       0.00001367       0.18358238      -0.00175241      -0.00008734       0.42959979
Cu       6.41699404       6.41699404      11.83696273       0.00000000       0.00000000       0.00000000       0.00000000       0.00108623      -0.00000256       0.18582392       0.00501372      -0.00121619       0.41421728
Cu       8.98379165       6.41699404      11.83696273       0.00000000       0.00000000       0.00000000       0.00000000      -0.00134704      -0.00000103       0.18582947      -0.02577452      -0.00435037       0.44864146
Cu       7.70039285      -0.00000000      13.67392546       0.00000000       0.00000000       0.00000000       0.00000000       0.00020225       0.00018413      -0.09069413      -0.01755322      -0.01705651      -0.16829263
Cu       5.13359523      -0.00000000      13.67392546       0.00000000       0.00000000       0.00000000       0.00000000      -0.00107453      -0.00412450      -0.09565267       0.02234476      -0.00662224      -0.16499886
Cu       2.56679762      -0.00000000      13.67392546       0.00000000       0.00000000       0.00000000       0.00000000      -0.00031407       0.00083016      -0.08955175      -0.02600322       0.00308221      -0.17010155
Cu       0.00000000      -0.00000000      13.67392546       0.00000000       0.00000000       0.00000000       0.00000000       0.00098417      -0.00260718      -0.09477591       0.02288120       0.02412884      -0.15821142
Cu       0.00000000       2.56679762      13.67392546       0.00000000       0.00000000       0.00000000       0.00000000      -0.00011745       0.00002732      -0.08852795       0.01139585      -0.00005666      -0.13893882
Cu       2.56679762       2.56679762      13.67392546       0.00000000       0.00000000       0.00000000       0.00000000      -0.00174949       0.00001176      -0.09408713      -0.01433251       0.00272561      -0.16160915
Cu       5.13359523       2.56679762      13.67392546       0.00000000       0.00000000       0.00000000       0.00000000       0.00088671       0.00003161      -0.08734403       0.00085687       0.00211344      -0.12688076
Cu       7.70039285       2.56679762      13.67392546       0.00000000       0.00000000       0.00000000       0.00000000       0.00012617      -0.00007291      -0.09778330       0.00473554       0.00341646      -0.14528867
Cu       0.00000000       5.13359523      13.67392546       0.00000000       0.00000000       0.00000000       0.00000000       0.00089782       0.00259221      -0.09471485       0.02445415      -0.02358336      -0.16505582
Cu       2.56679762       5.13359523      13.67392546       0.00000000       0.00000000       0.00000000       0.00000000      -0.00030684      -0.00078099      -0.08935936      -0.02785246      -0.00729225      -0.17824721
Cu       5.13359523       5.13359523      13.67392546       0.00000000       0.00000000       0.00000000       0.00000000      -0.00099217       0.00411663      -0.09560446       0.02392065       0.00315965      -0.15755716
Cu       7.70039285       5.13359523      13.67392546       0.00000000       0.00000000       0.00000000       0.00000000       0.00020439      -0.00011159      -0.09099546      -0.01734606       0.01498771      -0.18247594
Cu       1.28339881       1.28339881      15.51088819       0.00000000       0.00000000       0.00000000       0.00000000       0.01813899      -0.02508138      -0.26806105      -0.03110590       0.27124119      -0.00971278
Cu       3.85019642       1.28339881      15.51088819       0.00000000       0.00000000       0.00000000       0.00000000      -0.06124003      -0.04797976      -0.28371043      -0.08579130       0.04524238      -0.29497462
Cu       6.41699404       1.28339881      15.51088819       0.00000000       0.00000000       0.00000000       0.00000000       0.09460901       0.07366018      -0.16189073       0.10133592       0.08335755      -0.32954895
Cu       8.98379165       1.28339881      15.51088819       0.00000000       0.00000000       0.00000000       0.00000000      -0.09532938       0.08743023      -0.14525148       0.00083496       0.07868504      -0.24002070
Cu       1.28339881       3.85019642      15.51088819       0.00000000       0.00000000       0.00000000       0.00000000       0.01902852       0.02580518      -0.26766635      -0.03646405      -0.25204736      -0.01500709
Cu       3.85019642       3.85019642      15.51088819       0.00000000       0.00000000       0.00000000       0.00000000      -0.06222723       0.04913279      -0.28351134      -0.10202945      -0.04618705      -0.31407871
Cu       6.41699404       3.85019642      15.51088819       0.00000000       0.00000000       0.00000000       0.00000000       0.09425217      -0.07303536      -0.16207057       0.13468265      -0.08025352      -0.33836427
Cu       8.98379165       3.85019642      15.51088819       0.00000000       0.00000000       0.00000000       0.00000000      -0.09479353      -0.08683845      -0.14565459      -0.01668214      -0.04178402      -0.25414783
Cu       1.28339881       6.41699404      15.51088819       0.00000000       0.00000000       0.00000000       0.00000000       0.00168629       0.00032955      -0.25051510      -0.00683319       0.01868856      -0.38965349
Cu       3.85019642       6.41699404      15.51088819       0.00000000       0.00000000       0.00000000       0.00000000      -0.01039868       0.00045043      -0.26911907       0.09917370      -0.01732021      -0.14410381
Cu       6.41699404       6.41699404      15.51088819       0.00000000       0.00000000       0.00000000       0.00000000      -0.03781942       0.00006594      -0.30888129      -0.14221310      -0.01489450      -0.23351807
Cu       8.98379165       6.41699404      15.51088819       0.00000000       0.00000000       0.00000000       0.00000000       0.05092765      -0.00020704      -0.30365416       0.00423328       0.01035924      -0.24183058
Cu       7.68881361       7.68240238      17.23398528       0.00000000       0.00348039      -0.01689109       0.13891025       0.00316674      -0.00995416       0.13918419       0.00174882      -0.06175312      -0.09300615
Cu       5.12621964       7.70400563      17.26245818       0.00000000       0.00027677      -0.01355628       0.13772363      -0.00062640      -0.01251039       0.13425749       0.05350831      -0.12652905      -0.15754310
Cu       2.55925115       7.68400925      17.23117943       0.00000000      -0.00496278      -0.00909060       0.14083143      -0.00372270      -0.00882101       0.13794574      -0.02698195      -0.03125929      -0.06103314
Cu      10.27343215       7.69280306      17.23398449       0.00000000       0.00568451      -0.00572974       0.14165017       0.00105285      -0.00590156       0.14367554       0.00404260      -0.04370162      -0.08633234
Cu      10.24535285       2.58136740      17.35573937       0.00000000       0.01296619      -0.00330932       0.15468601       0.00229826       0.00010727       0.13446549       0.11095346       0.02311305      -0.06342009
Cu       2.50940881       2.56506743      17.31366505       0.00000000      -0.00919010       0.00089248       0.17628216      -0.00576306      -0.00021905       0.13448776      -0.12359919      -0.01773113      -0.07497409
Cu       5.19824182       2.56194675      17.21580696       0.00000000      -0.02808214       0.00199980       0.17060227      -0.00024754       0.00026336       0.12558678      -0.09264897       0.01661610       0.25806807
Cu       7.67519769       2.55864017      17.29896209       0.00000000       0.00133191       0.00326000       0.13952994       0.00764127       0.00213767       0.13600353      -0.12379439       0.01818239      -0.14849563
Cu      10.27678084       5.16220656      17.22902097       0.00000000       0.00491954       0.01056350       0.14157136       0.00061308       0.00597787       0.14366813      -0.00965759       0.03617505      -0.05126226
Cu       2.55723936       5.15260698      17.22942988       0.00000000      -0.00564107       0.01019613       0.14069502      -0.00373460       0.00916066       0.13745396      -0.01874649       0.03584085      -0.06329667
Cu       5.12326181       5.10959951      17.27209223       0.00000000      -0.00025619       0.00789597       0.14163598      -0.00000401       0.01267987       0.13425899       0.03828122       0.15737281      -0.17639322
Cu       7.68312012       5.15935412      17.22904946       0.00000000       0.00394567       0.00814080       0.13919911       0.00318659       0.00947467       0.14002141       0.01563819       0.04839180      -0.06668706
O        5.35154403       2.66629125      20.07549411       0.00000000       0.04285560       0.02194862       0.00430294       0.01337001       0.00327398       0.02054973       0.28497682       0.06707764       0.36546050
C        4.51725616       2.64555966      19.01916314       0.00000000       0.01868766       0.01607842       0.02681679       0.02046340      -0.00020592       0.03457344      -0.15272583       0.03487625       0.42597571
H        6.29919796       2.70910867      19.76953515       0.00000000      -0.07765818       0.00603137       0.04376017       0.00907560       0.00599038       0.00772785       0.11325552      -0.10957545      -0.06352832
O        3.28892066       2.60650502      19.22969445       0.00000000       0.05314491       0.00834859       0.05805340       0.02075500      -0.00303672       0.00566561       0.68134835      -0.07461419      -0.49569624
O        8.86433626       2.68194070      18.83734612       0.50000000       0.06566039      -0.01434135       0.00839480       0.01019524      -0.03139931       0.03486485      -0.74684289      -0.00706875      -0.03474298
H        8.89501364       1.80218784      19.25779835       0.50000000       0.00293029      -0.06327958      -0.00476648       0.00681161       0.01914352       0.00796572       0.05993969      -0.01893063       0.15394423
54
Lattice="10.26719046282867 0.0 0.0 0.0 7.700392847121503 0.0 0.0 0.0 27.347850919999996" Properties=species:S:1:pos:R:3:initial_magmoms:R:1:MACE_forces:R:3:forces:R:3:DFT_forces:R:3 MACE_energy=-218.5507396534388 energy=-218.98327494312278 stress="0.009287364640864227 -1.5923009327785505e-06 -0.00017830864227997187 -1.5923009327785505e-06 0.009170261350542941 2.2090300955904382e-06 -0.00017830864227997187 2.2090300955904382e-06 0.0012520742766357438" free_energy=-218.98327494312278 DFT_energy=-222.14912392 pbc="T T T"
Cu       1.28339881       1.28339881      11.83696273       0.00000000       0.00000000       0.00000000       0.00000000      -0.00120965       0.00039388       0.18392100       0.02535343       0.01159733       0.44717472
Cu       3.85019642       1.28339881      11.83696273       0.00000000       0.00000000       0.00000000       0.00000000       0.00128287       0.00015339       0.18431546       0.00012688       0.00193736       0.41613574
Cu       6.41699404       1.28339881      11.83696273       0.00000000       0.00000000       0.00000000       0.00000000      -0.00031603      -0.00033761       0.18287886       0.00760485       0.01727331       0.43752718
Cu       8.98379165       1.28339881      11.83696273       0.00000000       0.00000000       0.00000000       0.00000000       0.00017719      -0.00010624       0.18293831      -0.03263297       0.02209025       0.41558593
Cu       1.28339881       3.85019642      11.83696273       0.00000000       0.00000000       0.00000000       0.00000000      -0.00120926      -0.00040733       0.18391551       0.02496786      -0.00880421       0.44923498
Cu       3.85019642       3.85019642      11.83696273       0.00000000       0.00000000       0.00000000       0.00000000       0.00128485      -0.00016393       0.18431795      -0.00084984      -0.00190666       0.41264550
Cu       6.41699404       3.85019642      11.83696273       0.00000000       0.00000000       0.00000000       0.00000000      -0.00030343       0.00034271       0.18290542       0.01115521      -0.01660439       0.43741728
Cu       8.98379165       3.85019642      11.83696273       0.00000000       0.00000000       0.00000000       0.00000000       0.00016245       0.00010908       0.18296359      -0.03437348      -0.01775407       0.41346676
Cu       1.28339881       6.41699404      11.83696273       0.00000000       0.00000000       0.00000000       0.00000000      -0.00070100       0.00001588       0.18332908       0.02300716      -0.00226810       0.43050702
Cu       3.85019642       6.41699404      11.83696273       0.00000000       0.00000000       0.00000000       0.00000000       0.00098015       0.00001367       0.18358238      -0.00183158      -0.00002635       0.42960934
Cu       6.41699404       6.41699404      11.83696273       0.00000000       0.00000000       0.00000000       0.00000000       0.00108623      -0.00000256       0.18582392       0.00506906      -0.00140445       0.41264630
Cu       8.98379165       6.41699404      11.83696273       0.00000000       0.00000000       0.00000000       0.00000000      -0.00134704      -0.00000103       0.18582947      -0.02711933      -0.00429039       0.44748575
Cu       7.70039285      -0.00000000      13.67392546       0.00000000       0.00000000       0.00000000       0.00000000       0.00020225       0.00018413      -0.09069413      -0.01782576      -0.01806365      -0.16994708
Cu       5.13359523      -0.00000000      13.67392546       0.00000000       0.00000000       0.00000000       0.00000000      -0.00107453      -0.00412450      -0.09565267       0.02258775      -0.00783966      -0.16626920
Cu       2.56679762      -0.00000000      13.67392546       0.00000000       0.00000000       0.00000000       0.00000000      -0.00031407       0.00083016      -0.08955175      -0.02621307       0.00398262      -0.17001293
Cu       0.00000000      -0.00000000      13.67392546       0.00000000       0.00000000       0.00000000       0.00000000       0.00098417      -0.00260718      -0.09477591       0.02219275       0.02540226      -0.15788609
Cu       0.00000000       2.56679762      13.67392546       0.00000000       0.00000000       0.00000000       0.00000000      -0.00011745       0.00002732      -0.08852795       0.01141148      -0.00019829      -0.14121097
Cu       2.56679762       2.56679762      13.67392546       0.00000000       0.00000000       0.00000000       0.00000000      -0.00174949       0.00001176      -0.09408713      -0.01627917       0.00319387      -0.15977646
Cu       5.13359523       2.56679762      13.67392546       0.00000000       0.00000000       0.00000000       0.00000000       0.00088671       0.00003161      -0.08734403      -0.00079811       0.00174625      -0.12778915
Cu       7.70039285       2.56679762      13.67392546       0.00000000       0.00000000       0.00000000       0.00000000       0.00012617      -0.00007291      -0.09778330       0.00504465       0.00318017      -0.14473583
Cu       0.00000000       5.13359523      13.67392546       0.00000000       0.00000000       0.00000000       0.00000000       0.00089782       0.00259221      -0.09471485       0.02457521      -0.02462662      -0.16496812
Cu       2.56679762       5.13359523      13.67392546       0.00000000       0.00000000       0.00000000       0.00000000      -0.00030684      -0.00078099      -0.08935936      -0.02806811      -0.00807459      -0.17777534
Cu       5.13359523       5.13359523      13.67392546       0.00000000       0.00000000       0.00000000       0.00000000      -0.00099217       0.00411663      -0.09560446       0.02274434       0.00479825      -0.15985486
Cu       7.70039285       5.13359523      13.67392546       0.00000000       0.00000000       0.00000000       0.00000000       0.00020439      -0.00011159      -0.09099546      -0.01687235       0.01599028      -0.18353247
Cu       1.28339881       1.28339881      15.51088819       0.00000000       0.00000000       0.00000000       0.00000000       0.01813899      -0.02508138      -0.26806105      -0.04230244       0.28533882       0.00778172
Cu       3.85019642       1.28339881      15.51088819       0.00000000       0.00000000       0.00000000       0.00000000      -0.06124003      -0.04797976      -0.28371043      -0.11009424       0.04236316      -0.29714040
Cu       6.41699404       1.28339881      15.51088819       0.00000000       0.00000000       0.00000000       0.00000000       0.09460901       0.07366018      -0.16189073       0.09377158       0.06593248      -0.35255157
Cu       8.98379165       1.28339881      15.51088819       0.00000000       0.00000000       0.00000000       0.00000000      -0.09532938       0.08743023      -0.14525148       0.00201633       0.08581144      -0.23269048
Cu       1.28339881       3.85019642      15.51088819       0.00000000       0.00000000       0.00000000       0.00000000       0.01902852       0.02580518      -0.26766635      -0.05122737      -0.26511447       0.00835863
Cu       3.85019642       3.85019642      15.51088819       0.00000000       0.00000000       0.00000000       0.00000000      -0.06222723       0.04913279      -0.28351134      -0.12761667      -0.04291664      -0.31775260
Cu       6.41699404       3.85019642      15.51088819       0.00000000       0.00000000       0.00000000       0.00000000       0.09425217      -0.07303536      -0.16207057       0.12506656      -0.06170536      -0.36888637
Cu       8.98379165       3.85019642      15.51088819       0.00000000       0.00000000       0.00000000       0.00000000      -0.09479353      -0.08683845      -0.14565459      -0.00714078      -0.04818217      -0.24519255
Cu       1.28339881       6.41699404      15.51088819       0.00000000       0.00000000       0.00000000       0.00000000       0.00168629       0.00032955      -0.25051510      -0.00505573       0.02237812      -0.39015095
Cu       3.85019642       6.41699404      15.51088819       0.00000000       0.00000000       0.00000000       0.00000000      -0.01039868       0.00045043      -0.26911907       0.09814731      -0.01801629      -0.14097338
Cu       6.41699404       6.41699404      15.51088819       0.00000000       0.00000000       0.00000000       0.00000000      -0.03781942       0.00006594      -0.30888129      -0.14088313      -0.01959082      -0.23060026
Cu       8.98379165       6.41699404      15.51088819       0.00000000       0.00000000       0.00000000       0.00000000       0.05092765      -0.00020704      -0.30365416       0.01228831       0.01017416      -0.24167344
Cu       7.69055555       7.67978114      17.23384225       0.00000000       0.00364812      -0.00865135       0.13917487       0.00316674      -0.00995416       0.13918419      -0.00131815      -0.05228683      -0.09553904
Cu       5.12722167       7.70372501      17.26245561       0.00000000       0.00024268      -0.01484400       0.13642967      -0.00062640      -0.01251039       0.13425749       0.05322180      -0.12860054      -0.15857895
Cu       2.55968236       7.68472161      17.23112451       0.00000000      -0.00453690      -0.00944876       0.14160310      -0.00372270      -0.00882101       0.13794574      -0.02521088      -0.03184848      -0.05895199
Cu      10.27469579       7.69691665      17.23398951       0.00000000       0.00412118      -0.01390995       0.14289761       0.00105285      -0.00590156       0.14367554       0.00129797      -0.05138914      -0.07924889
Cu      10.23009907       2.57985602      17.37385112       0.00000000       0.00810650      -0.00380269       0.12932183       0.00229826       0.00010727       0.13446549       0.11042340       0.02490290      -0.10001615
Cu       2.49064048       2.56512990      17.32523755       0.00000000       0.03394531       0.00066694       0.16948873      -0.00576306      -0.00021905       0.13448776      -0.08524899      -0.01779424      -0.09034363
Cu       5.18681057       2.56203524      17.20560063       0.00000000      -0.00240320      -0.00097740       0.14824949      -0.00024754       0.00026336       0.12558678      -0.06832297       0.01384089       0.24979411
Cu       7.66198353       2.55878629      17.28995880       0.00000000       0.01662014       0.00622913       0.13813590       0.00764127       0.00213767       0.13600353      -0.10431544       0.01543252      -0.14652386
Cu      10.27889790       5.16290250      17.22851934       0.00000000       0.00123112       0.00507664       0.14407604       0.00061308       0.00597787       0.14366813      -0.01256047       0.02934647      -0.04656895
Cu       2.55830058       5.15235731      17.22937348       0.00000000      -0.00641065       0.01000826       0.14117359      -0.00373460       0.00916066       0.13745396      -0.02043865       0.03481108      -0.06197785
Cu       5.12420493       5.10859403      17.27301209       0.00000000       0.00008995       0.00900192       0.13983522      -0.00000401       0.01267987       0.13425899       0.03624510       0.16255571      -0.17958951
Cu       7.68432698       5.15840422      17.22884836       0.00000000       0.00482312       0.01300694       0.13925230       0.00318659       0.00947467       0.14002141       0.01713991       0.05386697      -0.06521864
O        5.36953228       2.67344483      20.06162113       0.00000000       0.00139287       0.01908540       0.04244467       0.01337001       0.00327398       0.02054973       0.22469107       0.06364580       0.40396527
C        4.52862020       2.65111923      19.01101217       0.00000000      -0.00950020       0.01704445       0.06634388       0.02046340      -0.00020592       0.03457344      -0.22278845       0.03973879       0.40638899
H        6.31390347       2.71918328      19.75231134       0.00000000       0.00720550       0.01526780       0.02774991       0.00907560       0.00599038       0.00772785       0.11696322      -0.12921924      -0.03323971
O        3.30300117       2.60699193      19.23198302       0.00000000      -0.00521310       0.01052187       0.03135029       0.02075500      -0.00303672       0.00566561       0.68255234      -0.07745002      -0.44276531
O        8.82660567       2.69250948      18.84185604       0.50000000       0.05135547      -0.03441026       0.03035788       0.01019524      -0.03139931       0.03486485      -0.65926673       0.00341204      -0.06402977
H        8.82450937       1.81727124      19.27343888       0.50000000       0.04499284      -0.04885169      -0.02096762       0.00681161       0.01914352       0.00796572       0.10698937      -0.00876761       0.13823754
54
Lattice="10.26719046282867 0.0 0.0 0.0 7.700392847121503 0.0 0.0 0.0 27.347850919999996" Properties=species:S:1:pos:R:3:initial_magmoms:R:1:MACE_forces:R:3:forces:R:3:DFT_forces:R:3 MACE_energy=-218.54317091305074 energy=-218.98327494312278 stress="0.009287364640864227 -1.5923009327785505e-06 -0.00017830864227997187 -1.5923009327785505e-06 0.009170261350542941 2.2090300955904382e-06 -0.00017830864227997187 2.2090300955904382e-06 0.0012520742766357438" free_energy=-218.98327494312278 DFT_energy=-222.12403656 pbc="T T T"
Cu       1.28339881       1.28339881      11.83696273       0.00000000       0.00000000       0.00000000       0.00000000      -0.00120965       0.00039388       0.18392100       0.02589796       0.01178024       0.44579654
Cu       3.85019642       1.28339881      11.83696273       0.00000000       0.00000000       0.00000000       0.00000000       0.00128287       0.00015339       0.18431546       0.00171291       0.00090724       0.41507350
Cu       6.41699404       1.28339881      11.83696273       0.00000000       0.00000000       0.00000000       0.00000000      -0.00031603      -0.00033761       0.18287886       0.00775062       0.01726964       0.43625693
Cu       8.98379165       1.28339881      11.83696273       0.00000000       0.00000000       0.00000000       0.00000000       0.00017719      -0.00010624       0.18293831      -0.03442659       0.02284174       0.41566984
Cu       1.28339881       3.85019642      11.83696273       0.00000000       0.00000000       0.00000000       0.00000000      -0.00120926      -0.00040733       0.18391551       0.02440851      -0.00775025       0.44784855
Cu       3.85019642       3.85019642      11.83696273       0.00000000       0.00000000       0.00000000       0.00000000       0.00128485      -0.00016393       0.18431795       0.00116179      -0.00102804       0.41188589
Cu       6.41699404       3.85019642      11.83696273       0.00000000       0.00000000       0.00000000       0.00000000      -0.00030343       0.00034271       0.18290542       0.01135535      -0.01641684       0.43605800
Cu       8.98379165       3.85019642      11.83696273       0.00000000       0.00000000       0.00000000       0.00000000       0.00016245       0.00010908       0.18296359      -0.03568806      -0.01728439       0.41279281
Cu       1.28339881       6.41699404      11.83696273       0.00000000       0.00000000       0.00000000       0.00000000      -0.00070100       0.00001588       0.18332908       0.02385123      -0.00293777       0.42993277
Cu       3.85019642       6.41699404      11.83696273       0.00000000       0.00000000       0.00000000       0.00000000       0.00098015       0.00001367       0.18358238      -0.00182531       0.00052065       0.42880460
Cu       6.41699404       6.41699404      11.83696273       0.00000000       0.00000000       0.00000000       0.00000000       0.00108623      -0.00000256       0.18582392       0.00584059      -0.00163429       0.41071473
Cu       8.98379165       6.41699404      11.83696273       0.00000000       0.00000000       0.00000000       0.00000000      -0.00134704      -0.00000103       0.18582947      -0.02865984      -0.00513832       0.44519625
Cu       7.70039285      -0.00000000      13.67392546       0.00000000       0.00000000       0.00000000       0.00000000       0.00020225       0.00018413      -0.09069413      -0.01746495      -0.02031012      -0.17075770
Cu       5.13359523      -0.00000000      13.67392546       0.00000000       0.00000000       0.00000000       0.00000000      -0.00107453      -0.00412450      -0.09565267       0.02152404      -0.00982948      -0.16923447
Cu       2.56679762      -0.00000000      13.67392546       0.00000000       0.00000000       0.00000000       0.00000000      -0.00031407       0.00083016      -0.08955175      -0.02442824       0.00525104      -0.16951510
Cu       0.00000000      -0.00000000      13.67392546       0.00000000       0.00000000       0.00000000       0.00000000       0.00098417      -0.00260718      -0.09477591       0.02245942       0.02771434      -0.15703369
Cu       0.00000000       2.56679762      13.67392546       0.00000000       0.00000000       0.00000000       0.00000000      -0.00011745       0.00002732      -0.08852795       0.01246430      -0.00159600      -0.14237490
Cu       2.56679762       2.56679762      13.67392546       0.00000000       0.00000000       0.00000000       0.00000000      -0.00174949       0.00001176      -0.09408713      -0.01738602       0.00390464      -0.15765233
Cu       5.13359523       2.56679762      13.67392546       0.00000000       0.00000000       0.00000000       0.00000000       0.00088671       0.00003161      -0.08734403      -0.00208139       0.00235473      -0.12881297
Cu       7.70039285       2.56679762      13.67392546       0.00000000       0.00000000       0.00000000       0.00000000       0.00012617      -0.00007291      -0.09778330       0.00607935       0.00246739      -0.14413005
Cu       0.00000000       5.13359523      13.67392546       0.00000000       0.00000000       0.00000000       0.00000000       0.00089782       0.00259221      -0.09471485       0.02392832      -0.02535167      -0.16407647
Cu       2.56679762       5.13359523      13.67392546       0.00000000       0.00000000       0.00000000       0.00000000      -0.00030684      -0.00078099      -0.08935936      -0.02897309      -0.00916683      -0.17777166
Cu       5.13359523       5.13359523      13.67392546       0.00000000       0.00000000       0.00000000       0.00000000      -0.00099217       0.00411663      -0.09560446       0.02312131       0.00596091      -0.15952910
Cu       7.70039285       5.13359523      13.67392546       0.00000000       0.00000000       0.00000000       0.00000000       0.00020439      -0.00011159      -0.09099546      -0.01422359       0.01913566      -0.18580980
Cu       1.28339881       1.28339881      15.51088819       0.00000000       0.00000000       0.00000000       0.00000000       0.01813899      -0.02508138      -0.26806105      -0.03943966       0.30206021       0.03978459
Cu       3.85019642       1.28339881      15.51088819       0.00000000       0.00000000       0.00000000       0.00000000      -0.06124003      -0.04797976      -0.28371043      -0.12981760       0.03253033      -0.30435179
Cu       6.41699404       1.28339881      15.51088819       0.00000000       0.00000000       0.00000000       0.00000000       0.09460901       0.07366018      -0.16189073       0.08967794       0.02989012      -0.40491904
Cu       8.98379165       1.28339881      15.51088819       0.00000000       0.00000000       0.00000000       0.00000000      -0.09532938       0.08743023      -0.14525148       0.01562890       0.08063239      -0.23905236
Cu       1.28339881       3.85019642      15.51088819       0.00000000       0.00000000       0.00000000       0.00000000       0.01902852       0.02580518      -0.26766635      -0.05098228      -0.28234894       0.04116012
Cu       3.85019642       3.85019642      15.51088819       0.00000000       0.00000000       0.00000000       0.00000000      -0.06222723       0.04913279      -0.28351134      -0.15232271      -0.03200619      -0.33137776
Cu       6.41699404       3.85019642      15.51088819       0.00000000       0.00000000       0.00000000       0.00000000       0.09425217      -0.07303536      -0.16207057       0.12577083      -0.02034484      -0.42720283
Cu       8.98379165       3.85019642      15.51088819       0.00000000       0.00000000       0.00000000       0.00000000      -0.09479353      -0.08683845      -0.14565459       0.00764674      -0.04050653      -0.25200067
Cu       1.28339881       6.41699404      15.51088819       0.00000000       0.00000000       0.00000000       0.00000000       0.00168629       0.00032955      -0.25051510      -0.00196102       0.02351449      -0.38866141
Cu       3.85019642       6.41699404      15.51088819       0.00000000       0.00000000       0.00000000       0.00000000      -0.01039868       0.00045043      -0.26911907       0.09620378      -0.02602829      -0.13784649
Cu       6.41699404       6.41699404      15.51088819       0.00000000       0.00000000       0.00000000       0.00000000      -0.03781942       0.00006594      -0.30888129      -0.13991397      -0.02625192      -0.22953745
Cu       8.98379165       6.41699404      15.51088819       0.00000000       0.00000000       0.00000000       0.00000000       0.05092765      -0.00020704      -0.30365416       0.02147604       0.01399451      -0.24390906
Cu       7.69223752       7.68019770      17.23338014       0.00000000       0.00187940      -0.00975684       0.13913731       0.00316674      -0.00995416       0.13918419      -0.00371346      -0.05305010      -0.09988049
Cu       5.12868345       7.70008837      17.26091929       0.00000000      -0.00202194      -0.01626084       0.13621836      -0.00062640      -0.01251039       0.13425749       0.04901543      -0.12674041      -0.15696893
Cu       2.56099865       7.68625336      17.23168148       0.00000000      -0.00632819      -0.00839923       0.14158707      -0.00372270      -0.00882101       0.13794574      -0.02576747      -0.03132850      -0.05813824
Cu      10.27657166       7.69785388      17.23433560       0.00000000       0.00307737      -0.01453817       0.14264307       0.00105285      -0.00590156       0.14367554      -0.00002373      -0.05083964      -0.07539136
Cu      10.21663085       2.58034796      17.38576880       0.00000000       0.02309771      -0.00635646       0.12985418       0.00229826       0.00010727       0.13446549       0.12640214       0.01714869      -0.09871355
Cu       2.49080279       2.56514900      17.33925740       0.00000000       0.02916200       0.00221052       0.16931885      -0.00576306      -0.00021905       0.13448776      -0.10443618      -0.02025801      -0.11207501
Cu       5.18252924       2.55975049      17.18987030       0.00000000      -0.00225914      -0.00181666       0.15212839      -0.00024754       0.00026336       0.12558678      -0.06180601       0.01756173       0.26014136
Cu       7.65511756       2.56372483      17.27048306       0.00000000       0.02144251       0.00489729       0.15023852       0.00764127       0.00213767       0.13600353      -0.10867900       0.01453576      -0.11527666
Cu      10.27960268       5.16157266      17.22884125       0.00000000       0.00057806       0.00436913       0.14348968       0.00061308       0.00597787       0.14366813      -0.01157065       0.02863759      -0.04555053
Cu       2.55847382       5.15212267      17.22938581       0.00000000      -0.00784176       0.01144532       0.14114979      -0.00373460       0.00916066       0.13745396      -0.02357723       0.03605009      -0.06051881
Cu       5.12546751       5.10454696      17.27492169       0.00000000      -0.00197988       0.00752325       0.14068696      -0.00000401       0.01267987       0.13425899       0.03063989       0.16829338      -0.18250536
Cu       7.68621559       5.16105914      17.22859153       0.00000000       0.00392704       0.01142518       0.13906081       0.00318659       0.00947467       0.14002141       0.01868814       0.05221176      -0.06394555
O        5.42572420       2.70519799      20.03450786       0.00000000      -0.00427480       0.02277588       0.04950245       0.01337001       0.00327398       0.02054973       0.22740281       0.07579296       0.40446173
C        4.56301867       2.67896231      19.00211854       0.00000000      -0.01275781       0.02237114       0.06820389       0.02046340      -0.00020592       0.03457344      -0.24241487       0.06100516       0.41889082
H        6.36676259       2.75650832      19.70955602       0.00000000      -0.01335566       0.01446175       0.04123992       0.00907560       0.00599038       0.00772785       0.13698532      -0.13252847      -0.00643784
O        3.34175424       2.62217692      19.24083356       0.00000000      -0.01002048       0.01635464       0.02764701       0.02075500      -0.00303672       0.00566561       0.70706649      -0.11209114      -0.43649607
O        8.77986709       2.67667375      18.84615782       0.50000000       0.06502907      -0.03762933       0.03691281       0.01019524      -0.03139931       0.03486485      -0.69768000       0.00329757      -0.05053931
H        8.75896941       1.78979171      19.25371526       0.50000000       0.06639185      -0.04785350      -0.00585328       0.00681161       0.01914352       0.00796572       0.13510281      -0.00449796       0.14752580
54
Lattice="10.26719046282867 0.0 0.0 0.0 7.700392847121503 0.0 0.0 0.0 27.347850919999996" Properties=species:S:1:pos:R:3:initial_magmoms:R:1:MACE_forces:R:3:forces:R:3:DFT_forces:R:3 MACE_energy=-218.5327617865638 energy=-218.98327494312278 stress="0.009287364640864227 -1.5923009327785505e-06 -0.00017830864227997187 -1.5923009327785505e-06 0.009170261350542941 2.2090300955904382e-06 -0.00017830864227997187 2.2090300955904382e-06 0.0012520742766357438" free_energy=-218.98327494312278 DFT_energy=-222.09277187 pbc="T T T"
Cu       1.28339881       1.28339881      11.83696273       0.00000000       0.00000000       0.00000000       0.00000000      -0.00120965       0.00039388       0.18392100       0.02547495       0.01145879       0.44483153
Cu       3.85019642       1.28339881      11.83696273       0.00000000       0.00000000       0.00000000       0.00000000       0.00128287       0.00015339       0.18431546       0.00357065      -0.00049081       0.41465985
Cu       6.41699404       1.28339881      11.83696273       0.00000000       0.00000000       0.00000000       0.00000000      -0.00031603      -0.00033761       0.18287886       0.00841023       0.01681999       0.43435540
Cu       8.98379165       1.28339881      11.83696273       0.00000000       0.00000000       0.00000000       0.00000000       0.00017719      -0.00010624       0.18293831      -0.03596496       0.02275885       0.41630786
Cu       1.28339881       3.85019642      11.83696273       0.00000000       0.00000000       0.00000000       0.00000000      -0.00120926      -0.00040733       0.18391551       0.02343211      -0.00710150       0.44616852
Cu       3.85019642       3.85019642      11.83696273       0.00000000       0.00000000       0.00000000       0.00000000       0.00128485      -0.00016393       0.18431795       0.00310258      -0.00038444       0.41120497
Cu       6.41699404       3.85019642      11.83696273       0.00000000       0.00000000       0.00000000       0.00000000      -0.00030343       0.00034271       0.18290542       0.01210186      -0.01624920       0.43469350
Cu       8.98379165       3.85019642      11.83696273       0.00000000       0.00000000       0.00000000       0.00000000       0.00016245       0.00010908       0.18296359      -0.03676102      -0.01658884       0.41311363
Cu       1.28339881       6.41699404      11.83696273       0.00000000       0.00000000       0.00000000       0.00000000      -0.00070100       0.00001588       0.18332908       0.02430172      -0.00366145       0.43011477
Cu       3.85019642       6.41699404      11.83696273       0.00000000       0.00000000       0.00000000       0.00000000       0.00098015       0.00001367       0.18358238      -0.00183075       0.00079599       0.42843405
Cu       6.41699404       6.41699404      11.83696273       0.00000000       0.00000000       0.00000000       0.00000000       0.00108623      -0.00000256       0.18582392       0.00676450      -0.00177098       0.40904659
Cu       8.98379165       6.41699404      11.83696273       0.00000000       0.00000000       0.00000000       0.00000000      -0.00134704      -0.00000103       0.18582947      -0.02981977      -0.00598089       0.44310254
Cu       7.70039285      -0.00000000      13.67392546       0.00000000       0.00000000       0.00000000       0.00000000       0.00020225       0.00018413      -0.09069413      -0.01605861      -0.02310396      -0.17131698
Cu       5.13359523      -0.00000000      13.67392546       0.00000000       0.00000000       0.00000000       0.00000000      -0.00107453      -0.00412450      -0.09565267       0.01960962      -0.01232422      -0.17077508
Cu       2.56679762      -0.00000000      13.67392546       0.00000000       0.00000000       0.00000000       0.00000000      -0.00031407       0.00083016      -0.08955175      -0.02229611       0.00635840      -0.16811363
Cu       0.00000000      -0.00000000      13.67392546       0.00000000       0.00000000       0.00000000       0.00000000       0.00098417      -0.00260718      -0.09477591       0.02188234       0.03020520      -0.15463773
Cu       0.00000000       2.56679762      13.67392546       0.00000000       0.00000000       0.00000000       0.00000000      -0.00011745       0.00002732      -0.08852795       0.01371139      -0.00284746      -0.14275257
Cu       2.56679762       2.56679762      13.67392546       0.00000000       0.00000000       0.00000000       0.00000000      -0.00174949       0.00001176      -0.09408713      -0.01999107       0.00383735      -0.15374649
Cu       5.13359523       2.56679762      13.67392546       0.00000000       0.00000000       0.00000000       0.00000000       0.00088671       0.00003161      -0.08734403      -0.00260769       0.00288505      -0.12834076
Cu       7.70039285       2.56679762      13.67392546       0.00000000       0.00000000       0.00000000       0.00000000       0.00012617      -0.00007291      -0.09778330       0.00744627       0.00195562      -0.14246094
Cu       0.00000000       5.13359523      13.67392546       0.00000000       0.00000000       0.00000000       0.00000000       0.00089782       0.00259221      -0.09471485       0.02216079      -0.02700298      -0.16260583
Cu       2.56679762       5.13359523      13.67392546       0.00000000       0.00000000       0.00000000       0.00000000      -0.00030684      -0.00078099      -0.08935936      -0.02888258      -0.01037250      -0.17629636
Cu       5.13359523       5.13359523      13.67392546       0.00000000       0.00000000       0.00000000       0.00000000      -0.00099217       0.00411663      -0.09560446       0.02310360       0.00719622      -0.15831938
Cu       7.70039285       5.13359523      13.67392546       0.00000000       0.00000000       0.00000000       0.00000000       0.00020439      -0.00011159      -0.09099546      -0.01185760       0.02219252      -0.18667081
Cu       1.28339881       1.28339881      15.51088819       0.00000000       0.00000000       0.00000000       0.00000000       0.01813899      -0.02508138      -0.26806105      -0.04121088       0.32428073       0.07628348
Cu       3.85019642       1.28339881      15.51088819       0.00000000       0.00000000       0.00000000       0.00000000      -0.06124003      -0.04797976      -0.28371043      -0.14804275       0.02831054      -0.30611996
Cu       6.41699404       1.28339881      15.51088819       0.00000000       0.00000000       0.00000000       0.00000000       0.09460901       0.07366018      -0.16189073       0.08904081      -0.00455592      -0.45177325
Cu       8.98379165       1.28339881      15.51088819       0.00000000       0.00000000       0.00000000       0.00000000      -0.09532938       0.08743023      -0.14525148       0.03025918       0.08252219      -0.23707069
Cu       1.28339881       3.85019642      15.51088819       0.00000000       0.00000000       0.00000000       0.00000000       0.01902852       0.02580518      -0.26766635      -0.05596292      -0.30176697       0.08046602
Cu       3.85019642       3.85019642      15.51088819       0.00000000       0.00000000       0.00000000       0.00000000      -0.06222723       0.04913279      -0.28351134      -0.17249503      -0.02619092      -0.33655643
Cu       6.41699404       3.85019642      15.51088819       0.00000000       0.00000000       0.00000000       0.00000000       0.09425217      -0.07303536      -0.16207057       0.13049351       0.00961438      -0.47274052
Cu       8.98379165       3.85019642      15.51088819       0.00000000       0.00000000       0.00000000       0.00000000      -0.09479353      -0.08683845      -0.14565459       0.02228100      -0.04418039      -0.24721382
Cu       1.28339881       6.41699404      15.51088819       0.00000000       0.00000000       0.00000000       0.00000000       0.00168629       0.00032955      -0.25051510      -0.00350965       0.02612066      -0.38382116
Cu       3.85019642       6.41699404      15.51088819       0.00000000       0.00000000       0.00000000       0.00000000      -0.01039868       0.00045043      -0.26911907       0.09325479      -0.03112343      -0.13354579
Cu       6.41699404       6.41699404      15.51088819       0.00000000       0.00000000       0.00000000       0.00000000      -0.03781942       0.00006594      -0.30888129      -0.13904413      -0.03234468      -0.22695021
Cu       8.98379165       6.41699404      15.51088819       0.00000000       0.00000000       0.00000000       0.00000000       0.05092765      -0.00020704      -0.30365416       0.02948496       0.01589555      -0.24558214
Cu       7.69305252       7.67890611      17.23300426       0.00000000       0.00211102      -0.01080143       0.13881634       0.00316674      -0.00995416       0.13918419      -0.00486759      -0.05427871      -0.10292206
Cu       5.12898158       7.69778211      17.25998863       0.00000000      -0.00224129      -0.01717351       0.13598675      -0.00062640      -0.01251039       0.13425749       0.04798797      -0.12651913      -0.15628893
Cu       2.56088080       7.68825720      17.23215582       0.00000000      -0.00585397      -0.00813301       0.14147327      -0.00372270      -0.00882101       0.13794574      -0.02432855      -0.03085133      -0.05685844
Cu      10.27687960       7.70127843      17.23486234       0.00000000       0.00457788      -0.01707212       0.14191212       0.00105285      -0.00590156       0.14367554       0.00333856      -0.05112862      -0.07125471
Cu      10.19824174       2.58363080      17.40741139       0.00000000       0.03364913      -0.01252957       0.12473056       0.00229826       0.00010727       0.13446549       0.14584852       0.01404028      -0.11843139
Cu       2.49099305       2.56628180      17.35468417       0.00000000       0.02362263       0.00276501       0.16955818      -0.00576306      -0.00021905       0.13448776      -0.12319045      -0.02069816      -0.13806459
Cu       5.18043099       2.55812688      17.17722502       0.00000000      -0.00469132      -0.00244613       0.15218794      -0.00024754       0.00026336       0.12558678      -0.06684519       0.01706055       0.25790396
Cu       7.65141037       2.56304516      17.25714102       0.00000000       0.01788568       0.00626102       0.15132734       0.00764127       0.00213767       0.13600353      -0.12205256       0.01552767      -0.10772107
Cu      10.27932874       5.16045735      17.22954865       0.00000000       0.00184154       0.00401387       0.14270428       0.00061308       0.00597787       0.14366813      -0.00741066       0.02832773      -0.04393556
Cu       2.55795096       5.15207155      17.22957448       0.00000000      -0.00732750       0.01202904       0.14086328      -0.00373460       0.00916066       0.13745396      -0.02405227       0.03510106      -0.05818367
Cu       5.12628907       5.10164464      17.27624293       0.00000000      -0.00244401       0.00623779       0.14157471      -0.00000401       0.01267987       0.13425899       0.02707750       0.17188907      -0.18370681
Cu       7.68797535       5.16068379      17.22809972       0.00000000       0.00372146       0.01152860       0.13875499       0.00318659       0.00947467       0.14002141       0.01961374       0.05450155      -0.06170669
O        5.48407947       2.72212727      20.01228931       0.00000000      -0.07372513       0.02166488       0.06523953       0.01337001       0.00327398       0.02054973       0.15012210       0.07808436       0.40309490
C        4.60129890       2.69680518      18.99681347       0.00000000      -0.00914148       0.02704283       0.06648037       0.02046340      -0.00020592       0.03457344      -0.25463763       0.07337627       0.43026554
H        6.42183747       2.77406357      19.67528137       0.00000000       0.01689655       0.01806851       0.03263493       0.00907560       0.00599038       0.00772785       0.16931857      -0.13453234       0.00410927
O        3.38380132       2.63388448      19.25056112       0.00000000      -0.00854316       0.01944710       0.02764594       0.02075500      -0.00303672       0.00566561       0.74079971      -0.12818070      -0.40302649
O        8.72247344       2.66228262      18.86464455       0.50000000       0.09717976      -0.03848795       0.02553660       0.01019524      -0.03139931       0.03486485      -0.67232371       0.01185747      -0.06078902
H        8.69533696       1.76820189      19.25675473       0.50000000       0.07545692      -0.03985189      -0.01079642       0.00681161       0.01914352       0.00796572       0.15205059       0.00125651       0.14214357
54
Lattice="10.26719046282867 0.0 0.0 0.0 7.700392847121503 0.0 0.0 0.0 27.347850919999996" Properties=species:S:1:pos:R:3:initial_magmoms:R:1:MACE_forces:R:3:forces:R:3:DFT_forces:R:3 MACE_energy=-218.51219121226552 energy=-218.98327494312278 stress="0.009287364640864227 -1.5923009327785505e-06 -0.00017830864227997187 -1.5923009327785505e-06 0.009170261350542941 2.2090300955904382e-06 -0.00017830864227997187 2.2090300955904382e-06 0.0012520742766357438" free_energy=-218.98327494312278 DFT_energy=-222.04861214 pbc="T T T"
Cu       1.28339881       1.28339881      11.83696273       0.00000000       0.00000000       0.00000000       0.00000000      -0.00120965       0.00039388       0.18392100       0.02471011       0.01094390       0.44412235
Cu       3.85019642       1.28339881      11.83696273       0.00000000       0.00000000       0.00000000       0.00000000       0.00128287       0.00015339       0.18431546       0.00554892      -0.00116539       0.41467739
Cu       6.41699404       1.28339881      11.83696273       0.00000000       0.00000000       0.00000000       0.00000000      -0.00031603      -0.00033761       0.18287886       0.00892246       0.01676228       0.43257562
Cu       8.98379165       1.28339881      11.83696273       0.00000000       0.00000000       0.00000000       0.00000000       0.00017719      -0.00010624       0.18293831      -0.03759352       0.02192760       0.41711742
Cu       1.28339881       3.85019642      11.83696273       0.00000000       0.00000000       0.00000000       0.00000000      -0.00120926      -0.00040733       0.18391551       0.02227518      -0.00636919       0.44452299
Cu       3.85019642       3.85019642      11.83696273       0.00000000       0.00000000       0.00000000       0.00000000       0.00128485      -0.00016393       0.18431795       0.00536049       0.00038440       0.41047034
Cu       6.41699404       3.85019642      11.83696273       0.00000000       0.00000000       0.00000000       0.00000000      -0.00030343       0.00034271       0.18290542       0.01192598      -0.01623913       0.43363361
Cu       8.98379165       3.85019642      11.83696273       0.00000000       0.00000000       0.00000000       0.00000000       0.00016245       0.00010908       0.18296359      -0.03724605      -0.01588377       0.41429913
Cu       1.28339881       6.41699404      11.83696273       0.00000000       0.00000000       0.00000000       0.00000000      -0.00070100       0.00001588       0.18332908       0.02468666      -0.00387693       0.43038244
Cu       3.85019642       6.41699404      11.83696273       0.00000000       0.00000000       0.00000000       0.00000000       0.00098015       0.00001367       0.18358238      -0.00212361       0.00073723       0.42838209
Cu       6.41699404       6.41699404      11.83696273       0.00000000       0.00000000       0.00000000       0.00000000       0.00108623      -0.00000256       0.18582392       0.00775584      -0.00182223       0.40816587
Cu       8.98379165       6.41699404      11.83696273       0.00000000       0.00000000       0.00000000       0.00000000      -0.00134704      -0.00000103       0.18582947      -0.03097650      -0.00593267       0.44091206
Cu       7.70039285      -0.00000000      13.67392546       0.00000000       0.00000000       0.00000000       0.00000000       0.00020225       0.00018413      -0.09069413      -0.01405031      -0.02597314      -0.17335616
Cu       5.13359523      -0.00000000      13.67392546       0.00000000       0.00000000       0.00000000       0.00000000      -0.00107453      -0.00412450      -0.09565267       0.01841060      -0.01401476      -0.17102515
Cu       2.56679762      -0.00000000      13.67392546       0.00000000       0.00000000       0.00000000       0.00000000      -0.00031407       0.00083016      -0.08955175      -0.02081828       0.00723957      -0.16702401
Cu       0.00000000      -0.00000000      13.67392546       0.00000000       0.00000000       0.00000000       0.00000000       0.00098417      -0.00260718      -0.09477591       0.02081468       0.03246333      -0.15231897
Cu       0.00000000       2.56679762      13.67392546       0.00000000       0.00000000       0.00000000       0.00000000      -0.00011745       0.00002732      -0.08852795       0.01457908      -0.00350458      -0.14429344
Cu       2.56679762       2.56679762      13.67392546       0.00000000       0.00000000       0.00000000       0.00000000      -0.00174949       0.00001176      -0.09408713      -0.02273576       0.00346089      -0.14858837
Cu       5.13359523       2.56679762      13.67392546       0.00000000       0.00000000       0.00000000       0.00000000       0.00088671       0.00003161      -0.08734403      -0.00323042       0.00295440      -0.12817287
Cu       7.70039285       2.56679762      13.67392546       0.00000000       0.00000000       0.00000000       0.00000000       0.00012617      -0.00007291      -0.09778330       0.00883029       0.00231749      -0.14007783
Cu       0.00000000       5.13359523      13.67392546       0.00000000       0.00000000       0.00000000       0.00000000       0.00089782       0.00259221      -0.09471485       0.02069296      -0.02860959      -0.16117705
Cu       2.56679762       5.13359523      13.67392546       0.00000000       0.00000000       0.00000000       0.00000000      -0.00030684      -0.00078099      -0.08935936      -0.02728537      -0.01080230      -0.17483949
Cu       5.13359523       5.13359523      13.67392546       0.00000000       0.00000000       0.00000000       0.00000000      -0.00099217       0.00411663      -0.09560446       0.02219409       0.00885281      -0.15863504
Cu       7.70039285       5.13359523      13.67392546       0.00000000       0.00000000       0.00000000       0.00000000       0.00020439      -0.00011159      -0.09099546      -0.01084399       0.02443464      -0.18728934
Cu       1.28339881       1.28339881      15.51088819       0.00000000       0.00000000       0.00000000       0.00000000       0.01813899      -0.02508138      -0.26806105      -0.04667520       0.34069172       0.10467011
Cu       3.85019642       1.28339881      15.51088819       0.00000000       0.00000000       0.00000000       0.00000000      -0.06124003      -0.04797976      -0.28371043      -0.16531359       0.02384815      -0.30983971
Cu       6.41699404       1.28339881      15.51088819       0.00000000       0.00000000       0.00000000       0.00000000       0.09460901       0.07366018      -0.16189073       0.08225294      -0.03847190      -0.49877913
Cu       8.98379165       1.28339881      15.51088819       0.00000000       0.00000000       0.00000000       0.00000000      -0.09532938       0.08743023      -0.14525148       0.04212681       0.08451419      -0.23544323
Cu       1.28339881       3.85019642      15.51088819       0.00000000       0.00000000       0.00000000       0.00000000       0.01902852       0.02580518      -0.26766635      -0.06407377      -0.31292067       0.11186087
Cu       3.85019642       3.85019642      15.51088819       0.00000000       0.00000000       0.00000000       0.00000000      -0.06222723       0.04913279      -0.28351134      -0.18864936      -0.02105294      -0.34016948
Cu       6.41699404       3.85019642      15.51088819       0.00000000       0.00000000       0.00000000       0.00000000       0.09425217      -0.07303536      -0.16207057       0.12757520       0.03464600      -0.51269187
Cu       8.98379165       3.85019642      15.51088819       0.00000000       0.00000000       0.00000000       0.00000000      -0.09479353      -0.08683845      -0.14565459       0.03195500      -0.04631734      -0.24347342
Cu       1.28339881       6.41699404      15.51088819       0.00000000       0.00000000       0.00000000       0.00000000       0.00168629       0.00032955      -0.25051510      -0.00739722       0.02994887      -0.37685098
Cu       3.85019642       6.41699404      15.51088819       0.00000000       0.00000000       0.00000000       0.00000000      -0.01039868       0.00045043      -0.26911907       0.08997135      -0.03152199      -0.13030424
Cu       6.41699404       6.41699404      15.51088819       0.00000000       0.00000000       0.00000000       0.00000000      -0.03781942       0.00006594      -0.30888129      -0.13570925      -0.03498938      -0.22196646
Cu       8.98379165       6.41699404      15.51088819       0.00000000       0.00000000       0.00000000       0.00000000       0.05092765      -0.00020704      -0.30365416       0.03889395       0.01675150      -0.24672307
Cu       7.69449942       7.67656506      17.23291673       0.00000000       0.00245367      -0.01084221       0.13827333       0.00316674      -0.00995416       0.13918419      -0.00441435      -0.05421775      -0.10262782
Cu       5.12949320       7.69774239      17.25981113       0.00000000      -0.00233121      -0.01768880       0.13590105      -0.00062640      -0.01251039       0.13425749       0.04613639      -0.12937833      -0.15688732
Cu       2.56052284       7.68920168      17.23232790       0.00000000      -0.00537312      -0.00777591       0.14159561      -0.00372270      -0.00882101       0.13794574      -0.02330513      -0.02974908      -0.05460520
Cu      10.27650634       7.70731195      17.23595512       0.00000000       0.00642966      -0.01808752       0.14088768       0.00105285      -0.00590156       0.14367554       0.00738026      -0.05050632      -0.06765986
Cu      10.17246057       2.59059758      17.42749941       0.00000000       0.02829836      -0.01590528       0.14380474       0.00229826       0.00010727       0.13446549       0.16878052       0.00783278      -0.14379197
Cu       2.48742675       2.56708805      17.36689098       0.00000000       0.01791952       0.00304130       0.17557077      -0.00576306      -0.00021905       0.13448776      -0.13742331      -0.02069865      -0.15475713
Cu       5.17654092       2.55788365      17.16731938       0.00000000      -0.00804408      -0.00286835       0.14863290      -0.00024754       0.00026336       0.12558678      -0.07629506       0.01438631       0.25449333
Cu       7.64570426       2.55763993      17.24398126       0.00000000       0.01005757       0.01017329       0.15201691       0.00764127       0.00213767       0.13600353      -0.13215044       0.01836318      -0.10135104
Cu      10.27941899       5.16056621      17.23060552       0.00000000       0.00366197       0.00445722       0.14150945       0.00061308       0.00597787       0.14366813      -0.00277144       0.02867709      -0.04363492
Cu       2.55790393       5.15171486      17.22978779       0.00000000      -0.00689360       0.01181656       0.14093451      -0.00373460       0.00916066       0.13745396      -0.02464403       0.03350579      -0.05495332
Cu       5.12742158       5.10125183      17.27622382       0.00000000      -0.00286593       0.00526040       0.14217508      -0.00000401       0.01267987       0.13425899       0.02379965       0.17273481      -0.18302799
Cu       7.69002688       5.15888427      17.22743179       0.00000000       0.00333425       0.01291408       0.13809505       0.00318659       0.00947467       0.14002141       0.01874829       0.05762606      -0.05867943
O        5.52664497       2.72344915      19.99498769       0.00000000       0.01115842       0.02528197       0.04918908       0.01337001       0.00327398       0.02054973       0.21421874       0.08081673       0.36485331
C        4.63098940       2.69981490      18.99282251       0.00000000      -0.02080987       0.02918196       0.06696058       0.02046340      -0.00020592       0.03457344      -0.27552273       0.07279939       0.42718895
H        6.46638196       2.77406756      19.64933110       0.00000000      -0.04672547       0.01957287       0.05555776       0.00907560       0.00599038       0.00772785       0.21998503      -0.13145694       0.02111731
O        3.41579211       2.63636336      19.25675005       0.00000000      -0.02173052       0.01953429       0.01613054       0.02075500      -0.00303672       0.00566561       0.75129747      -0.12837105      -0.36891802
O        8.64183856       2.66803242      18.88995747       0.50000000       0.14867407      -0.04027003       0.00300377       0.01019524      -0.03139931       0.03486485      -0.74546079       0.01981508      -0.02972690
H        8.62605194       1.77091089      19.27566621       0.50000000       0.07177698      -0.04321745      -0.01291327       0.00681161       0.01914352       0.00796572       0.15688051      -0.00559014       0.14021504
54
Lattice="10.26719046282867 0.0 0.0 0.0 7.700392847121503 0.0 0.0 0.0 27.347850919999996" Properties=species:S:1:pos:R:3:initial_magmoms:R:1:MACE_forces:R:3:forces:R:3:DFT_forces:R:3 MACE_energy=-218.48899671862063 energy=-218.98327494312278 stress="0.009287364640864227 -1.5923009327785505e-06 -0.00017830864227997187 -1.5923009327785505e-06 0.009170261350542941 2.2090300955904382e-06 -0.00017830864227997187 2.2090300955904382e-06 0.0012520742766357438" free_energy=-218.98327494312278 DFT_energy=-222.00771102 pbc="T T T"
Cu       1.28339881       1.28339881      11.83696273       0.00000000       0.00000000       0.00000000       0.00000000      -0.00120965       0.00039388       0.18392100       0.02315434       0.01073097       0.44304027
Cu       3.85019642       1.28339881      11.83696273       0.00000000       0.00000000       0.00000000       0.00000000       0.00128287       0.00015339       0.18431546       0.00718036      -0.00045924       0.41434960
Cu       6.41699404       1.28339881      11.83696273       0.00000000       0.00000000       0.00000000       0.00000000      -0.00031603      -0.00033761       0.18287886       0.00845341       0.01690411       0.43133925
Cu       8.98379165       1.28339881      11.83696273       0.00000000       0.00000000       0.00000000       0.00000000       0.00017719      -0.00010624       0.18293831      -0.03828659       0.02116665       0.41841474
Cu       1.28339881       3.85019642      11.83696273       0.00000000       0.00000000       0.00000000       0.00000000      -0.00120926      -0.00040733       0.18391551       0.02114034      -0.00550027       0.44309992
Cu       3.85019642       3.85019642      11.83696273       0.00000000       0.00000000       0.00000000       0.00000000       0.00128485      -0.00016393       0.18431795       0.00637412       0.00009276       0.41070564
Cu       6.41699404       3.85019642      11.83696273       0.00000000       0.00000000       0.00000000       0.00000000      -0.00030343       0.00034271       0.18290542       0.01199929      -0.01615223       0.43221189
Cu       8.98379165       3.85019642      11.83696273       0.00000000       0.00000000       0.00000000       0.00000000       0.00016245       0.00010908       0.18296359      -0.03808038      -0.01464769       0.41542384
Cu       1.28339881       6.41699404      11.83696273       0.00000000       0.00000000       0.00000000       0.00000000      -0.00070100       0.00001588       0.18332908       0.02483882      -0.00384414       0.43019613
Cu       3.85019642       6.41699404      11.83696273       0.00000000       0.00000000       0.00000000       0.00000000       0.00098015       0.00001367       0.18358238      -0.00337413       0.00097010       0.42867701
Cu       6.41699404       6.41699404      11.83696273       0.00000000       0.00000000       0.00000000       0.00000000       0.00108623      -0.00000256       0.18582392       0.00917253      -0.00147637       0.40749037
Cu       8.98379165       6.41699404      11.83696273       0.00000000       0.00000000       0.00000000       0.00000000      -0.00134704      -0.00000103       0.18582947      -0.03228437      -0.00555699       0.43872012
Cu       7.70039285      -0.00000000      13.67392546       0.00000000       0.00000000       0.00000000       0.00000000       0.00020225       0.00018413      -0.09069413      -0.01239542      -0.02842278      -0.17598916
Cu       5.13359523      -0.00000000      13.67392546       0.00000000       0.00000000       0.00000000       0.00000000      -0.00107453      -0.00412450      -0.09565267       0.01732681      -0.01510923      -0.17135970
Cu       2.56679762      -0.00000000      13.67392546       0.00000000       0.00000000       0.00000000       0.00000000      -0.00031407       0.00083016      -0.08955175      -0.02013786       0.00803928      -0.16643736
Cu       0.00000000      -0.00000000      13.67392546       0.00000000       0.00000000       0.00000000       0.00000000       0.00098417      -0.00260718      -0.09477591       0.01920486       0.03422619      -0.15174058
Cu       0.00000000       2.56679762      13.67392546       0.00000000       0.00000000       0.00000000       0.00000000      -0.00011745       0.00002732      -0.08852795       0.01474573      -0.00371185      -0.14804973
Cu       2.56679762       2.56679762      13.67392546       0.00000000       0.00000000       0.00000000       0.00000000      -0.00174949       0.00001176      -0.09408713      -0.02498877       0.00330758      -0.14464571
Cu       5.13359523       2.56679762      13.67392546       0.00000000       0.00000000       0.00000000       0.00000000       0.00088671       0.00003161      -0.08734403      -0.00373546       0.00320481      -0.12892715
Cu       7.70039285       2.56679762      13.67392546       0.00000000       0.00000000       0.00000000       0.00000000       0.00012617      -0.00007291      -0.09778330       0.00983674       0.00292034      -0.13852218
Cu       0.00000000       5.13359523      13.67392546       0.00000000       0.00000000       0.00000000       0.00000000       0.00089782       0.00259221      -0.09471485       0.01908068      -0.02955255      -0.16018144
Cu       2.56679762       5.13359523      13.67392546       0.00000000       0.00000000       0.00000000       0.00000000      -0.00030684      -0.00078099      -0.08935936      -0.02571207      -0.01068475      -0.17523245
Cu       5.13359523       5.13359523      13.67392546       0.00000000       0.00000000       0.00000000       0.00000000      -0.00099217       0.00411663      -0.09560446       0.02070743       0.01070561      -0.15905287
Cu       7.70039285       5.13359523      13.67392546       0.00000000       0.00000000       0.00000000       0.00000000       0.00020439      -0.00011159      -0.09099546      -0.01006874       0.02655825      -0.18894791
Cu       1.28339881       1.28339881      15.51088819       0.00000000       0.00000000       0.00000000       0.00000000       0.01813899      -0.02508138      -0.26806105      -0.04640008       0.34489922       0.11823755
Cu       3.85019642       1.28339881      15.51088819       0.00000000       0.00000000       0.00000000       0.00000000      -0.06124003      -0.04797976      -0.28371043      -0.17215035       0.02137089      -0.31251494
Cu       6.41699404       1.28339881      15.51088819       0.00000000       0.00000000       0.00000000       0.00000000       0.09460901       0.07366018      -0.16189073       0.07717100      -0.06138713      -0.53277162
Cu       8.98379165       1.28339881      15.51088819       0.00000000       0.00000000       0.00000000       0.00000000      -0.09532938       0.08743023      -0.14525148       0.04968953       0.08062884      -0.24117062
Cu       1.28339881       3.85019642      15.51088819       0.00000000       0.00000000       0.00000000       0.00000000       0.01902852       0.02580518      -0.26766635      -0.06356264      -0.31198334       0.12560911
Cu       3.85019642       3.85019642      15.51088819       0.00000000       0.00000000       0.00000000       0.00000000      -0.06222723       0.04913279      -0.28351134      -0.19435996      -0.01761950      -0.34191078
Cu       6.41699404       3.85019642      15.51088819       0.00000000       0.00000000       0.00000000       0.00000000       0.09425217      -0.07303536      -0.16207057       0.12660402       0.04987083      -0.53683703
Cu       8.98379165       3.85019642      15.51088819       0.00000000       0.00000000       0.00000000       0.00000000      -0.09479353      -0.08683845      -0.14565459       0.03323466      -0.04258741      -0.24834944
Cu       1.28339881       6.41699404      15.51088819       0.00000000       0.00000000       0.00000000       0.00000000       0.00168629       0.00032955      -0.25051510      -0.01265216       0.03256704      -0.36980882
Cu       3.85019642       6.41699404      15.51088819       0.00000000       0.00000000       0.00000000       0.00000000      -0.01039868       0.00045043      -0.26911907       0.08588532      -0.03057245      -0.12861926
Cu       6.41699404       6.41699404      15.51088819       0.00000000       0.00000000       0.00000000       0.00000000      -0.03781942       0.00006594      -0.30888129      -0.13115343      -0.03568179      -0.21632565
Cu       8.98379165       6.41699404      15.51088819       0.00000000       0.00000000       0.00000000       0.00000000       0.05092765      -0.00020704      -0.30365416       0.04360163       0.01727183      -0.24781238
Cu       7.69560323       7.67505919      17.23307411       0.00000000       0.00287636      -0.01199679       0.13764402       0.00316674      -0.00995416       0.13918419      -0.00281361      -0.05491724      -0.10152374
Cu       5.12967911       7.69815302      17.25969482       0.00000000      -0.00239204      -0.01771395       0.13599003      -0.00062640      -0.01251039       0.13425749       0.04317856      -0.13145105      -0.15728638
Cu       2.55987656       7.68946683      17.23245382       0.00000000      -0.00513986      -0.00744725       0.14155842      -0.00372270      -0.00882101       0.13794574      -0.02334339      -0.02858136      -0.05302661
Cu      10.27525551       7.71215768      17.23734335       0.00000000       0.00806177      -0.01613964       0.14011277       0.00105285      -0.00590156       0.14367554       0.01362122      -0.04790311      -0.06706264
Cu      10.15780396       2.59751064      17.43075407       0.00000000      -0.00923312      -0.01238767       0.19026612       0.00229826       0.00010727       0.13446549       0.17534225      -0.00016282      -0.14088396
Cu       2.48964844       2.56751690      17.37305278       0.00000000       0.00820527       0.00325936       0.17972551      -0.00576306      -0.00021905       0.13448776      -0.15554880      -0.02041892      -0.15962101
Cu       5.17574435       2.55803010      17.16202824       0.00000000      -0.01478216      -0.00260069       0.15019835      -0.00024754       0.00026336       0.12558678      -0.08806536       0.01322248       0.25034997
Cu       7.64616413       2.55179623      17.23457993       0.00000000      -0.00595278       0.00942833       0.14495585       0.00764127       0.00213767       0.13600353      -0.14650673       0.01647702      -0.09729841
Cu      10.27873190       5.16057457      17.23199605       0.00000000       0.00569244       0.00561055       0.14032953       0.00061308       0.00597787       0.14366813       0.00351699       0.03093907      -0.04504518
Cu       2.55758016       5.15147447      17.23000885       0.00000000      -0.00656172       0.01156988       0.14091543      -0.00373460       0.00916066       0.13745396      -0.02484651       0.03271499      -0.05331946
Cu       5.12816675       5.10189767      17.27554072       0.00000000      -0.00316572       0.00469785       0.14266481      -0.00000401       0.01267987       0.13425899       0.02028251       0.17134697      -0.18107492
Cu       7.69181077       5.15702919      17.22710544       0.00000000       0.00306941       0.01392436       0.13691319       0.00318659       0.00947467       0.14002141       0.01601869       0.06083918      -0.05652179
O        5.55501434       2.72234637      19.98401935       0.00000000      -0.02990380       0.02085870       0.05236523       0.01337001       0.00327398       0.02054973       0.14025257       0.07171228       0.34630485
C        4.65065087       2.69845655      18.99177243       0.00000000      -0.00848703       0.03019115       0.06385088       0.02046340      -0.00020592       0.03457344      -0.26103896       0.07316980       0.43085813
H        6.49633637       2.76877252      19.63451924       0.00000000       0.00134233       0.02571619       0.03052326       0.00907560       0.00599038       0.00772785       0.26247066      -0.14446560       0.04242002
O        3.43558736       2.63633769      19.25916798       0.00000000       0.00216215       0.02052344       0.02521652       0.02075500      -0.00303672       0.00566561       0.79056288      -0.12347190      -0.32926282
O        8.55488068       2.67868191      18.91901925       0.50000000       0.19987076      -0.05052181      -0.02043687       0.01019524      -0.03139931       0.03486485      -0.69890865       0.03244671      -0.04123981
H        8.57806359       1.77644625      19.29244661       0.50000000       0.04835622      -0.04103718      -0.01259001       0.00681161       0.01914352       0.00796572       0.13576646      -0.00198213       0.14092506
54
Lattice="10.26719046282867 0.0 0.0 0.0 7.700392847121503 0.0 0.0 0.0 27.347850919999996" Properties=species:S:1:pos:R:3:initial_magmoms:R:1:MACE_forces:R:3:forces:R:3:DFT_forces:R:3 MACE_energy=-218.46330244844677 energy=-218.98327494312278 stress="0.009287364640864227 -1.5923009327785505e-06 -0.00017830864227997187 -1.5923009327785505e-06 0.009170261350542941 2.2090300955904382e-06 -0.00017830864227997187 2.2090300955904382e-06 0.0012520742766357438" free_energy=-218.98327494312278 DFT_energy=-221.97593838 pbc="T T T"
Cu       1.28339881       1.28339881      11.83696273       0.00000000       0.00000000       0.00000000       0.00000000      -0.00120965       0.00039388       0.18392100       0.02124624       0.01020456       0.44185076
Cu       3.85019642       1.28339881      11.83696273       0.00000000       0.00000000       0.00000000       0.00000000       0.00128287       0.00015339       0.18431546       0.00908035      -0.00014532       0.41380749
Cu       6.41699404       1.28339881      11.83696273       0.00000000       0.00000000       0.00000000       0.00000000      -0.00031603      -0.00033761       0.18287886       0.00803651       0.01659832       0.42989359
Cu       8.98379165       1.28339881      11.83696273       0.00000000       0.00000000       0.00000000       0.00000000       0.00017719      -0.00010624       0.18293831      -0.03796648       0.02016150       0.42004312
Cu       1.28339881       3.85019642      11.83696273       0.00000000       0.00000000       0.00000000       0.00000000      -0.00120926      -0.00040733       0.18391551       0.01983753      -0.00469252       0.44165911
Cu       3.85019642       3.85019642      11.83696273       0.00000000       0.00000000       0.00000000       0.00000000       0.00128485      -0.00016393       0.18431795       0.00743460      -0.00058740       0.41081700
Cu       6.41699404       3.85019642      11.83696273       0.00000000       0.00000000       0.00000000       0.00000000      -0.00030343       0.00034271       0.18290542       0.01264258      -0.01605331       0.43041789
Cu       8.98379165       3.85019642      11.83696273       0.00000000       0.00000000       0.00000000       0.00000000       0.00016245       0.00010908       0.18296359      -0.03835638      -0.01339617       0.41651280
Cu       1.28339881       6.41699404      11.83696273       0.00000000       0.00000000       0.00000000       0.00000000      -0.00070100       0.00001588       0.18332908       0.02495878      -0.00426311       0.42998760
Cu       3.85019642       6.41699404      11.83696273       0.00000000       0.00000000       0.00000000       0.00000000       0.00098015       0.00001367       0.18358238      -0.00473768       0.00107837       0.42841346
Cu       6.41699404       6.41699404      11.83696273       0.00000000       0.00000000       0.00000000       0.00000000       0.00108623      -0.00000256       0.18582392       0.01133836      -0.00150547       0.40656614
Cu       8.98379165       6.41699404      11.83696273       0.00000000       0.00000000       0.00000000       0.00000000      -0.00134704      -0.00000103       0.18582947      -0.03286147      -0.00565409       0.43620115
Cu       7.70039285      -0.00000000      13.67392546       0.00000000       0.00000000       0.00000000       0.00000000       0.00020225       0.00018413      -0.09069413      -0.01083067      -0.03095817      -0.17825995
Cu       5.13359523      -0.00000000      13.67392546       0.00000000       0.00000000       0.00000000       0.00000000      -0.00107453      -0.00412450      -0.09565267       0.01617100      -0.01612496      -0.17189605
Cu       2.56679762      -0.00000000      13.67392546       0.00000000       0.00000000       0.00000000       0.00000000      -0.00031407       0.00083016      -0.08955175      -0.01888172       0.00870978      -0.16573142
Cu       0.00000000      -0.00000000      13.67392546       0.00000000       0.00000000       0.00000000       0.00000000       0.00098417      -0.00260718      -0.09477591       0.01805995       0.03493869      -0.15217507
Cu       0.00000000       2.56679762      13.67392546       0.00000000       0.00000000       0.00000000       0.00000000      -0.00011745       0.00002732      -0.08852795       0.01538961      -0.00463137      -0.15442493
Cu       2.56679762       2.56679762      13.67392546       0.00000000       0.00000000       0.00000000       0.00000000      -0.00174949       0.00001176      -0.09408713      -0.02580715       0.00301062      -0.14189142
Cu       5.13359523       2.56679762      13.67392546       0.00000000       0.00000000       0.00000000       0.00000000       0.00088671       0.00003161      -0.08734403      -0.00347561       0.00333227      -0.12926745
Cu       7.70039285       2.56679762      13.67392546       0.00000000       0.00000000       0.00000000       0.00000000       0.00012617      -0.00007291      -0.09778330       0.01047040       0.00301828      -0.13696210
Cu       0.00000000       5.13359523      13.67392546       0.00000000       0.00000000       0.00000000       0.00000000       0.00089782       0.00259221      -0.09471485       0.01756403      -0.02983115      -0.15945681
Cu       2.56679762       5.13359523      13.67392546       0.00000000       0.00000000       0.00000000       0.00000000      -0.00030684      -0.00078099      -0.08935936      -0.02371013      -0.01108836      -0.17649744
Cu       5.13359523       5.13359523      13.67392546       0.00000000       0.00000000       0.00000000       0.00000000      -0.00099217       0.00411663      -0.09560446       0.01950497       0.01181697      -0.15877485
Cu       7.70039285       5.13359523      13.67392546       0.00000000       0.00000000       0.00000000       0.00000000       0.00020439      -0.00011159      -0.09099546      -0.00917286       0.02859245      -0.19120933
Cu       1.28339881       1.28339881      15.51088819       0.00000000       0.00000000       0.00000000       0.00000000       0.01813899      -0.02508138      -0.26806105      -0.03324569       0.33395292       0.11784760
Cu       3.85019642       1.28339881      15.51088819       0.00000000       0.00000000       0.00000000       0.00000000      -0.06124003      -0.04797976      -0.28371043      -0.16642160       0.02089765      -0.31247490
Cu       6.41699404       1.28339881      15.51088819       0.00000000       0.00000000       0.00000000       0.00000000       0.09460901       0.07366018      -0.16189073       0.08038503      -0.07078799      -0.54880278
Cu       8.98379165       1.28339881      15.51088819       0.00000000       0.00000000       0.00000000       0.00000000      -0.09532938       0.08743023      -0.14525148       0.05138535       0.06614251      -0.25839789
Cu       1.28339881       3.85019642      15.51088819       0.00000000       0.00000000       0.00000000       0.00000000       0.01902852       0.02580518      -0.26766635      -0.04554703      -0.29804454       0.11845568
Cu       3.85019642       3.85019642      15.51088819       0.00000000       0.00000000       0.00000000       0.00000000      -0.06222723       0.04913279      -0.28351134      -0.18879646      -0.01635185      -0.34212237
Cu       6.41699404       3.85019642      15.51088819       0.00000000       0.00000000       0.00000000       0.00000000       0.09425217      -0.07303536      -0.16207057       0.13281976       0.05532303      -0.54562759
Cu       8.98379165       3.85019642      15.51088819       0.00000000       0.00000000       0.00000000       0.00000000      -0.09479353      -0.08683845      -0.14565459       0.02659849      -0.03281339      -0.26462557
Cu       1.28339881       6.41699404      15.51088819       0.00000000       0.00000000       0.00000000       0.00000000       0.00168629       0.00032955      -0.25051510      -0.01811872       0.03065485      -0.36284225
Cu       3.85019642       6.41699404      15.51088819       0.00000000       0.00000000       0.00000000       0.00000000      -0.01039868       0.00045043      -0.26911907       0.08116836      -0.03170397      -0.12791702
Cu       6.41699404       6.41699404      15.51088819       0.00000000       0.00000000       0.00000000       0.00000000      -0.03781942       0.00006594      -0.30888129      -0.12497801      -0.03671990      -0.20962345
Cu       8.98379165       6.41699404      15.51088819       0.00000000       0.00000000       0.00000000       0.00000000       0.05092765      -0.00020704      -0.30365416       0.04404503       0.01555451      -0.24935118
Cu       7.69619272       7.67543419      17.23326133       0.00000000       0.00370170      -0.01385322       0.13753369       0.00316674      -0.00995416       0.13918419      -0.00116473      -0.05824337      -0.09775799
Cu       5.12946220       7.69740303      17.25916454       0.00000000      -0.00267005      -0.01748187       0.13581829      -0.00062640      -0.01251039       0.13425749       0.03988619      -0.13154199      -0.15691994
Cu       2.55922851       7.68994984      17.23275300       0.00000000      -0.00587280      -0.00710598       0.14174821      -0.00372270      -0.00882101       0.13794574      -0.02397712      -0.02962140      -0.05139459
Cu      10.27352165       7.71294230      17.23869540       0.00000000       0.00733312      -0.01249709       0.14101708       0.00105285      -0.00590156       0.14367554       0.01743310      -0.04324155      -0.06842183
Cu      10.16752898       2.59828434      17.40847435       0.00000000      -0.03653345      -0.00357276       0.20746340       0.00229826       0.00010727       0.13446549       0.15080213       0.00022640      -0.12503471
Cu       2.50054427       2.56809394      17.37584261       0.00000000       0.00694467       0.00371689       0.18026628      -0.00576306      -0.00021905       0.13448776      -0.17042996      -0.02093114      -0.15780572
Cu       5.17906517       2.55756173      17.16042855       0.00000000      -0.01399826      -0.00290592       0.14336956      -0.00024754       0.00026336       0.12558678      -0.09140538       0.01195298       0.23175326
Cu       7.65660057       2.54903188      17.22959255       0.00000000      -0.01143815       0.00343709       0.13581599       0.00764127       0.00213767       0.13600353      -0.14197952       0.01414027      -0.08688231
Cu      10.27687587       5.15831598      17.23361170       0.00000000       0.00586175       0.00624598       0.14089111       0.00061308       0.00597787       0.14366813       0.01083222       0.03428359      -0.04677135
Cu       2.55685355       5.15168492      17.23021746       0.00000000      -0.00714935       0.01155644       0.14109559      -0.00373460       0.00916066       0.13745396      -0.02636761       0.03344834      -0.05140445
Cu       5.12848164       5.10177303      17.27517188       0.00000000      -0.00297982       0.00508266       0.14209539      -0.00000401       0.01267987       0.13425899       0.01866126       0.16998644      -0.18009465
Cu       7.69333124       5.15589901      17.22740774       0.00000000       0.00388172       0.01312733       0.13601429       0.00318659       0.00947467       0.14002141       0.01156574       0.06543434      -0.05578930
O        5.57381308       2.72661899      19.97686848       0.00000000      -0.03389578       0.01966237       0.04924549       0.01337001       0.00327398       0.02054973       0.11344325       0.06835539       0.32407708
C        4.66617927       2.70138904      18.99273697       0.00000000       0.01238284       0.03086037       0.06645252       0.02046340      -0.00020592       0.03457344      -0.24854293       0.07893666       0.42783210
H        6.52045178       2.76497993      19.62670607       0.00000000       0.03120371       0.02250877       0.01640154       0.00907560       0.00599038       0.00772785       0.22912814      -0.13742355       0.08192705
O        3.44954002       2.63998786      19.25851822       0.00000000       0.01679473       0.02158694       0.03349566       0.02075500      -0.00303672       0.00566561       0.81440471      -0.12767912      -0.30301319
O        8.46305320       2.68313787      18.95401278       0.50000000       0.17138523      -0.04056726      -0.01647935       0.01019524      -0.03139931       0.03486485      -0.64412302       0.03511433      -0.04239487
H        8.55306778       1.77410630      19.29946652       0.50000000       0.01342814      -0.04483791      -0.00126456       0.00681161       0.01914352       0.00796572       0.09660422      -0.00183086       0.15395385
54
Lattice="10.26719046282867 0.0 0.0 0.0 7.700392847121503 0.0 0.0 0.0 27.347850919999996" Properties=species:S:1:pos:R:3:initial_magmoms:R:1:MACE_forces:R:3:forces:R:3:DFT_forces:R:3 MACE_energy=-218.4455634836873 energy=-218.98327494312278 stress="0.009287364640864227 -1.5923009327785505e-06 -0.00017830864227997187 -1.5923009327785505e-06 0.009170261350542941 2.2090300955904382e-06 -0.00017830864227997187 2.2090300955904382e-06 0.0012520742766357438" free_energy=-218.98327494312278 DFT_energy=-221.96220578 pbc="T T T"
Cu       1.28339881       1.28339881      11.83696273       0.00000000       0.00000000       0.00000000       0.00000000      -0.00120965       0.00039388       0.18392100       0.01910093       0.00930427       0.44142206
Cu       3.85019642       1.28339881      11.83696273       0.00000000       0.00000000       0.00000000       0.00000000       0.00128287       0.00015339       0.18431546       0.01077966       0.00036182       0.41375440
Cu       6.41699404       1.28339881      11.83696273       0.00000000       0.00000000       0.00000000       0.00000000      -0.00031603      -0.00033761       0.18287886       0.00772602       0.01617812       0.42931134
Cu       8.98379165       1.28339881      11.83696273       0.00000000       0.00000000       0.00000000       0.00000000       0.00017719      -0.00010624       0.18293831      -0.03656771       0.01839333       0.42173986
Cu       1.28339881       3.85019642      11.83696273       0.00000000       0.00000000       0.00000000       0.00000000      -0.00120926      -0.00040733       0.18391551       0.01865010      -0.00397140       0.44093310
Cu       3.85019642       3.85019642      11.83696273       0.00000000       0.00000000       0.00000000       0.00000000       0.00128485      -0.00016393       0.18431795       0.00841307      -0.00120512       0.41146468
Cu       6.41699404       3.85019642      11.83696273       0.00000000       0.00000000       0.00000000       0.00000000      -0.00030343       0.00034271       0.18290542       0.01337270      -0.01586091       0.42909779
Cu       8.98379165       3.85019642      11.83696273       0.00000000       0.00000000       0.00000000       0.00000000       0.00016245       0.00010908       0.18296359      -0.03773903      -0.01241500       0.41825750
Cu       1.28339881       6.41699404      11.83696273       0.00000000       0.00000000       0.00000000       0.00000000      -0.00070100       0.00001588       0.18332908       0.02501012      -0.00447784       0.43028319
Cu       3.85019642       6.41699404      11.83696273       0.00000000       0.00000000       0.00000000       0.00000000       0.00098015       0.00001367       0.18358238      -0.00599230       0.00063901       0.42837872
Cu       6.41699404       6.41699404      11.83696273       0.00000000       0.00000000       0.00000000       0.00000000       0.00108623      -0.00000256       0.18582392       0.01380492      -0.00191850       0.40622117
Cu       8.98379165       6.41699404      11.83696273       0.00000000       0.00000000       0.00000000       0.00000000      -0.00134704      -0.00000103       0.18582947      -0.03266999      -0.00512589       0.43474558
Cu       7.70039285      -0.00000000      13.67392546       0.00000000       0.00000000       0.00000000       0.00000000       0.00020225       0.00018413      -0.09069413      -0.00935076      -0.03321372      -0.18043596
Cu       5.13359523      -0.00000000      13.67392546       0.00000000       0.00000000       0.00000000       0.00000000      -0.00107453      -0.00412450      -0.09565267       0.01566094      -0.01665740      -0.17037271
Cu       2.56679762      -0.00000000      13.67392546       0.00000000       0.00000000       0.00000000       0.00000000      -0.00031407       0.00083016      -0.08955175      -0.01748911       0.00879173      -0.16533238
Cu       0.00000000      -0.00000000      13.67392546       0.00000000       0.00000000       0.00000000       0.00000000       0.00098417      -0.00260718      -0.09477591       0.01724386       0.03451921      -0.15261793
Cu       0.00000000       2.56679762      13.67392546       0.00000000       0.00000000       0.00000000       0.00000000      -0.00011745       0.00002732      -0.08852795       0.01621518      -0.00498567      -0.16185401
Cu       2.56679762       2.56679762      13.67392546       0.00000000       0.00000000       0.00000000       0.00000000      -0.00174949       0.00001176      -0.09408713      -0.02567292       0.00212809      -0.13923860
Cu       5.13359523       2.56679762      13.67392546       0.00000000       0.00000000       0.00000000       0.00000000       0.00088671       0.00003161      -0.08734403      -0.00276096       0.00320008      -0.12881174
Cu       7.70039285       2.56679762      13.67392546       0.00000000       0.00000000       0.00000000       0.00000000       0.00012617      -0.00007291      -0.09778330       0.01076825       0.00332687      -0.13528270
Cu       0.00000000       5.13359523      13.67392546       0.00000000       0.00000000       0.00000000       0.00000000       0.00089782       0.00259221      -0.09471485       0.01679654      -0.02983854      -0.15864845
Cu       2.56679762       5.13359523      13.67392546       0.00000000       0.00000000       0.00000000       0.00000000      -0.00030684      -0.00078099      -0.08935936      -0.02039767      -0.01072416      -0.17756798
Cu       5.13359523       5.13359523      13.67392546       0.00000000       0.00000000       0.00000000       0.00000000      -0.00099217       0.00411663      -0.09560446       0.01794672       0.01285181      -0.15930690
Cu       7.70039285       5.13359523      13.67392546       0.00000000       0.00000000       0.00000000       0.00000000       0.00020439      -0.00011159      -0.09099546      -0.00914076       0.02944517      -0.19211553
Cu       1.28339881       1.28339881      15.51088819       0.00000000       0.00000000       0.00000000       0.00000000       0.01813899      -0.02508138      -0.26806105      -0.01478776       0.30932584       0.09509569
Cu       3.85019642       1.28339881      15.51088819       0.00000000       0.00000000       0.00000000       0.00000000      -0.06124003      -0.04797976      -0.28371043      -0.15791117       0.02025936      -0.31304334
Cu       6.41699404       1.28339881      15.51088819       0.00000000       0.00000000       0.00000000       0.00000000       0.09460901       0.07366018      -0.16189073       0.08552004      -0.06738505      -0.54505415
Cu       8.98379165       1.28339881      15.51088819       0.00000000       0.00000000       0.00000000       0.00000000      -0.09532938       0.08743023      -0.14525148       0.04210616       0.05115004      -0.27703077
Cu       1.28339881       3.85019642      15.51088819       0.00000000       0.00000000       0.00000000       0.00000000       0.01902852       0.02580518      -0.26766635      -0.02164163      -0.26860771       0.08992444
Cu       3.85019642       3.85019642      15.51088819       0.00000000       0.00000000       0.00000000       0.00000000      -0.06222723       0.04913279      -0.28351134      -0.17816469      -0.01636380      -0.34098519
Cu       6.41699404       3.85019642      15.51088819       0.00000000       0.00000000       0.00000000       0.00000000       0.09425217      -0.07303536      -0.16207057       0.13467865       0.05043258      -0.53808897
Cu       8.98379165       3.85019642      15.51088819       0.00000000       0.00000000       0.00000000       0.00000000      -0.09479353      -0.08683845      -0.14565459       0.01115913      -0.02097286      -0.28411371
Cu       1.28339881       6.41699404      15.51088819       0.00000000       0.00000000       0.00000000       0.00000000       0.00168629       0.00032955      -0.25051510      -0.02425786       0.02953957      -0.35573319
Cu       3.85019642       6.41699404      15.51088819       0.00000000       0.00000000       0.00000000       0.00000000      -0.01039868       0.00045043      -0.26911907       0.07822139      -0.02900785      -0.12793848
Cu       6.41699404       6.41699404      15.51088819       0.00000000       0.00000000       0.00000000       0.00000000      -0.03781942       0.00006594      -0.30888129      -0.11591402      -0.03635113      -0.19951864
Cu       8.98379165       6.41699404      15.51088819       0.00000000       0.00000000       0.00000000       0.00000000       0.05092765      -0.00020704      -0.30365416       0.04312400       0.01346589      -0.24896891
Cu       7.69703044       7.67487378      17.23393688       0.00000000       0.00496230      -0.00986287       0.13821229       0.00316674      -0.00995416       0.13918419       0.00157962      -0.05694863      -0.08971096
Cu       5.12950531       7.69899020      17.25945592       0.00000000      -0.00314367      -0.01788603       0.13530752      -0.00062640      -0.01251039       0.13425749       0.03597290      -0.13483716      -0.15782456
Cu       2.55860585       7.68897806      17.23272028       0.00000000      -0.00672612      -0.00674760       0.14249894      -0.00372270      -0.00882101       0.13794574      -0.02484454      -0.03139874      -0.04862395
Cu      10.27164805       7.71548911      17.24021049       0.00000000       0.00422470      -0.01194939       0.14339319       0.00105285      -0.00590156       0.14367554       0.02000709      -0.04068192      -0.06866559
Cu      10.18687553       2.60032794      17.37376986       0.00000000       0.00342682      -0.00608523       0.14881823       0.00229826       0.00010727       0.13446549       0.14477758      -0.00707185      -0.16404841
Cu       2.50530505       2.56743955      17.37407200       0.00000000       0.02914316       0.00361650       0.18546976      -0.00576306      -0.00021905       0.13448776      -0.15660733      -0.02043316      -0.14158943
Cu       5.18025857       2.55866537      17.16208777       0.00000000      -0.00973632      -0.00203461       0.15262936      -0.00024754       0.00026336       0.12558678      -0.08908721       0.01209944       0.22914176
Cu       7.66785540       2.54495124      17.22962223       0.00000000       0.01424960       0.00271445       0.13459292       0.00764127       0.00213767       0.13600353      -0.10926665       0.01813615      -0.05531041
Cu      10.27544321       5.15821060      17.23539976       0.00000000       0.00225219       0.00265174       0.14386397       0.00061308       0.00597787       0.14366813       0.01864791       0.03469709      -0.04873444
Cu       2.55665212       5.15119610      17.23042453       0.00000000      -0.00810078       0.01086912       0.14189503      -0.00373460       0.00916066       0.13745396      -0.02677081       0.03385557      -0.04909354
Cu       5.12877168       5.10407329      17.27379299       0.00000000      -0.00303073       0.00635551       0.14077692      -0.00000401       0.01267987       0.13425899       0.01830697       0.16709080      -0.17875340
Cu       7.69516984       5.15312090      17.22828849       0.00000000       0.00610910       0.01256933       0.13723898       0.00318659       0.00947467       0.14002141       0.00462126       0.07154368      -0.05382262
O        5.56526075       2.71853222      19.97817755       0.00000000       0.03804220       0.02489161       0.03654754       0.01337001       0.00327398       0.02054973       0.16726259       0.06959472       0.30981315
C        4.66396671       2.69062321      18.99635800       0.00000000       0.00160945       0.02643608       0.06009002       0.02046340      -0.00020592       0.03457344      -0.23041322       0.07545488       0.39995047
H        6.52115718       2.75393102      19.63240461       0.00000000       0.02710588       0.01152104       0.02565377       0.00907560       0.00599038       0.00772785       0.08740843      -0.14953672       0.14280945
O        3.44342415       2.63223126      19.25372969       0.00000000       0.02797291       0.02188846       0.02123775       0.02075500      -0.00303672       0.00566561       0.78573946      -0.10735783      -0.29904803
O        8.36404263       2.70316418      18.99207571       0.50000000       0.01317363      -0.03672127       0.05255358       0.01019524      -0.03139931       0.03486485      -0.59579197       0.01921113      -0.03420682
H        8.54746135       1.79869138      19.31159719       0.50000000      -0.01487190      -0.03918399       0.01327069       0.00681161       0.01914352       0.00796572       0.05261794       0.01235233       0.16914807
54
Lattice="10.26719046282867 0.0 0.0 0.0 7.700392847121503 0.0 0.0 0.0 27.347850919999996" Properties=species:S:1:pos:R:3:initial_magmoms:R:1:MACE_forces:R:3:forces:R:3:DFT_forces:R:3 MACE_energy=-218.45563442141406 energy=-218.98327494312278 stress="0.009287364640864227 -1.5923009327785505e-06 -0.00017830864227997187 -1.5923009327785505e-06 0.009170261350542941 2.2090300955904382e-06 -0.00017830864227997187 2.2090300955904382e-06 0.0012520742766357438" free_energy=-218.98327494312278 DFT_energy=-221.96890728 pbc="T T T"
Cu       1.28339881       1.28339881      11.83696273       0.00000000       0.00000000       0.00000000       0.00000000      -0.00120965       0.00039388       0.18392100       0.01686331       0.00869863       0.44053696
Cu       3.85019642       1.28339881      11.83696273       0.00000000       0.00000000       0.00000000       0.00000000       0.00128287       0.00015339       0.18431546       0.01145106       0.00072614       0.41378576
Cu       6.41699404       1.28339881      11.83696273       0.00000000       0.00000000       0.00000000       0.00000000      -0.00031603      -0.00033761       0.18287886       0.00731616       0.01606241       0.42823215
Cu       8.98379165       1.28339881      11.83696273       0.00000000       0.00000000       0.00000000       0.00000000       0.00017719      -0.00010624       0.18293831      -0.03525148       0.01745698       0.42339357
Cu       1.28339881       3.85019642      11.83696273       0.00000000       0.00000000       0.00000000       0.00000000      -0.00120926      -0.00040733       0.18391551       0.01688897      -0.00300905       0.43989173
Cu       3.85019642       3.85019642      11.83696273       0.00000000       0.00000000       0.00000000       0.00000000       0.00128485      -0.00016393       0.18431795       0.00852216      -0.00167568       0.41215048
Cu       6.41699404       3.85019642      11.83696273       0.00000000       0.00000000       0.00000000       0.00000000      -0.00030343       0.00034271       0.18290542       0.01395478      -0.01537235       0.42773569
Cu       8.98379165       3.85019642      11.83696273       0.00000000       0.00000000       0.00000000       0.00000000       0.00016245       0.00010908       0.18296359      -0.03710982      -0.01108021       0.41966372
Cu       1.28339881       6.41699404      11.83696273       0.00000000       0.00000000       0.00000000       0.00000000      -0.00070100       0.00001588       0.18332908       0.02469190      -0.00448255       0.43055757
Cu       3.85019642       6.41699404      11.83696273       0.00000000       0.00000000       0.00000000       0.00000000       0.00098015       0.00001367       0.18358238      -0.00796341       0.00091851       0.42817471
Cu       6.41699404       6.41699404      11.83696273       0.00000000       0.00000000       0.00000000       0.00000000       0.00108623      -0.00000256       0.18582392       0.01606062      -0.00211624       0.40622820
Cu       8.98379165       6.41699404      11.83696273       0.00000000       0.00000000       0.00000000       0.00000000      -0.00134704      -0.00000103       0.18582947      -0.03266217      -0.00497092       0.43295081
Cu       7.70039285      -0.00000000      13.67392546       0.00000000       0.00000000       0.00000000       0.00000000       0.00020225       0.00018413      -0.09069413      -0.00876818      -0.03471815      -0.18211672
Cu       5.13359523      -0.00000000      13.67392546       0.00000000       0.00000000       0.00000000       0.00000000      -0.00107453      -0.00412450      -0.09565267       0.01428842      -0.01716767      -0.17006016
Cu       2.56679762      -0.00000000      13.67392546       0.00000000       0.00000000       0.00000000       0.00000000      -0.00031407       0.00083016      -0.08955175      -0.01543061       0.00866794      -0.16597284
Cu       0.00000000      -0.00000000      13.67392546       0.00000000       0.00000000       0.00000000       0.00000000       0.00098417      -0.00260718      -0.09477591       0.01582539       0.03441530      -0.15355231
Cu       0.00000000       2.56679762      13.67392546       0.00000000       0.00000000       0.00000000       0.00000000      -0.00011745       0.00002732      -0.08852795       0.01695453      -0.00516509      -0.16863874
Cu       2.56679762       2.56679762      13.67392546       0.00000000       0.00000000       0.00000000       0.00000000      -0.00174949       0.00001176      -0.09408713      -0.02572739       0.00183384      -0.13806591
Cu       5.13359523       2.56679762      13.67392546       0.00000000       0.00000000       0.00000000       0.00000000       0.00088671       0.00003161      -0.08734403      -0.00262706       0.00369217      -0.12826957
Cu       7.70039285       2.56679762      13.67392546       0.00000000       0.00000000       0.00000000       0.00000000       0.00012617      -0.00007291      -0.09778330       0.01099218       0.00332743      -0.13411599
Cu       0.00000000       5.13359523      13.67392546       0.00000000       0.00000000       0.00000000       0.00000000       0.00089782       0.00259221      -0.09471485       0.01483439      -0.02946921      -0.15839197
Cu       2.56679762       5.13359523      13.67392546       0.00000000       0.00000000       0.00000000       0.00000000      -0.00030684      -0.00078099      -0.08935936      -0.01816024      -0.00984321      -0.17916101
Cu       5.13359523       5.13359523      13.67392546       0.00000000       0.00000000       0.00000000       0.00000000      -0.00099217       0.00411663      -0.09560446       0.01667835       0.01363821      -0.15943257
Cu       7.70039285       5.13359523      13.67392546       0.00000000       0.00000000       0.00000000       0.00000000       0.00020439      -0.00011159      -0.09099546      -0.00867253       0.03100511      -0.19369609
Cu       1.28339881       1.28339881      15.51088819       0.00000000       0.00000000       0.00000000       0.00000000       0.01813899      -0.02508138      -0.26806105       0.01244372       0.28350893       0.07246792
Cu       3.85019642       1.28339881      15.51088819       0.00000000       0.00000000       0.00000000       0.00000000      -0.06124003      -0.04797976      -0.28371043      -0.14822107       0.02043942      -0.31263757
Cu       6.41699404       1.28339881      15.51088819       0.00000000       0.00000000       0.00000000       0.00000000       0.09460901       0.07366018      -0.16189073       0.09678779      -0.06545628      -0.54054769
Cu       8.98379165       1.28339881      15.51088819       0.00000000       0.00000000       0.00000000       0.00000000      -0.09532938       0.08743023      -0.14525148       0.03453183       0.03748601      -0.29472480
Cu       1.28339881       3.85019642      15.51088819       0.00000000       0.00000000       0.00000000       0.00000000       0.01902852       0.02580518      -0.26766635       0.01020234      -0.24131680       0.06137508
Cu       3.85019642       3.85019642      15.51088819       0.00000000       0.00000000       0.00000000       0.00000000      -0.06222723       0.04913279      -0.28351134      -0.16823449      -0.01576902      -0.34076210
Cu       6.41699404       3.85019642      15.51088819       0.00000000       0.00000000       0.00000000       0.00000000       0.09425217      -0.07303536      -0.16207057       0.14181300       0.05146290      -0.53472961
Cu       8.98379165       3.85019642      15.51088819       0.00000000       0.00000000       0.00000000       0.00000000      -0.09479353      -0.08683845      -0.14565459       0.00156142      -0.01298524      -0.30006131
Cu       1.28339881       6.41699404      15.51088819       0.00000000       0.00000000       0.00000000       0.00000000       0.00168629       0.00032955      -0.25051510      -0.02992394       0.02648482      -0.34838516
Cu       3.85019642       6.41699404      15.51088819       0.00000000       0.00000000       0.00000000       0.00000000      -0.01039868       0.00045043      -0.26911907       0.07486218      -0.02984152      -0.12740736
Cu       6.41699404       6.41699404      15.51088819       0.00000000       0.00000000       0.00000000       0.00000000      -0.03781942       0.00006594      -0.30888129      -0.10843929      -0.03667149      -0.19119937
Cu       8.98379165       6.41699404      15.51088819       0.00000000       0.00000000       0.00000000       0.00000000       0.05092765      -0.00020704      -0.30365416       0.04006437       0.01182172      -0.24859308
Cu       7.69740073       7.67644317      17.23434170       0.00000000       0.00580071      -0.00885267       0.13916010       0.00316674      -0.00995416       0.13918419       0.00243556      -0.05872254      -0.08513810
Cu       5.12929437       7.69833595      17.25908115       0.00000000      -0.00362135      -0.01814747       0.13499105      -0.00062640      -0.01251039       0.13425749       0.03212437      -0.13493229      -0.15799124
Cu       2.55817048       7.68936020      17.23300953       0.00000000      -0.00786081      -0.00646307       0.14298058      -0.00372270      -0.00882101       0.13794574      -0.02569832      -0.03255942      -0.04751703
Cu      10.27017347       7.71449582      17.24126474       0.00000000       0.00136655      -0.01222620       0.14555976       0.00105285      -0.00590156       0.14367554       0.02064260      -0.03629969      -0.06937500
Cu      10.21168924       2.59632535      17.34185974       0.00000000       0.04714513      -0.01034847       0.08971834       0.00229826       0.00010727       0.13446549       0.16092908      -0.01813249      -0.18556457
Cu       2.51717782       2.56779745      17.37546123       0.00000000       0.04439140       0.00380517       0.18294076      -0.00576306      -0.00021905       0.13448776      -0.15424913      -0.01959442      -0.13894434
Cu       5.18422224       2.55820017      17.16236115       0.00000000      -0.00486980      -0.00194223       0.15846656      -0.00024754       0.00026336       0.12558678      -0.08644463       0.01248152       0.22345549
Cu       7.68257259       2.54658750      17.23016065       0.00000000       0.03933754       0.00376470       0.13663930       0.00764127       0.00213767       0.13600353      -0.07638189       0.02381503      -0.02174673
Cu      10.27335679       5.15534401      17.23700442       0.00000000      -0.00113675      -0.00120926       0.14683209       0.00061308       0.00597787       0.14366813       0.02528934       0.03351200      -0.05187668
Cu       2.55608541       5.15137826      17.23060584       0.00000000      -0.00923963       0.01091920       0.14231765      -0.00373460       0.00916066       0.13745396      -0.02784476       0.03537676      -0.04743221
Cu       5.12903024       5.10409174      17.27342794       0.00000000      -0.00263585       0.00749511       0.13965520      -0.00000401       0.01267987       0.13425899       0.01782503       0.16534563      -0.17897995
Cu       7.69651685       5.15212837      17.22942828       0.00000000       0.00869553       0.00979432       0.13925722       0.00318659       0.00947467       0.14002141       0.00173342       0.07600989      -0.05197520
O        5.57201430       2.72195105      19.97479304       0.00000000       0.02552015       0.02606531       0.03373697       0.01337001       0.00327398       0.02054973       0.15567898       0.06804419       0.30772861
C        4.67319010       2.69213536      18.99956848       0.00000000       0.00282887       0.02318394       0.07062195       0.02046340      -0.00020592       0.03457344      -0.19901678       0.08122616       0.37847945
H        6.53756730       2.74768782      19.63014786       0.00000000       0.04847230      -0.00350328       0.02737019       0.00907560       0.00599038       0.00772785      -0.09018947      -0.14032156       0.19811190
O        3.44892609       2.63500284      19.25054939       0.00000000       0.04651345       0.02297197       0.01379541       0.02075500      -0.00303672       0.00566561       0.74004537      -0.11872142      -0.28480984
O        8.27405873       2.70189920      19.02755445       0.50000000      -0.15197382      -0.01151532       0.10669960       0.01019524      -0.03139931       0.03486485      -0.49567191       0.00573089      -0.03613037
H        8.53359930       1.80633739      19.31795862       0.50000000      -0.02735782      -0.03571352       0.03311446       0.00681161       0.01914352       0.00796572       0.02839595       0.02720596       0.18308338
54
Lattice="10.26719046282867 0.0 0.0 0.0 7.700392847121503 0.0 0.0 0.0 27.347850919999996" Properties=species:S:1:pos:R:3:initial_magmoms:R:1:MACE_forces:R:3:forces:R:3:DFT_forces:R:3 MACE_energy=-218.4891352156124 energy=-218.98327494312278 stress="0.009287364640864227 -1.5923009327785505e-06 -0.00017830864227997187 -1.5923009327785505e-06 0.009170261350542941 2.2090300955904382e-06 -0.00017830864227997187 2.2090300955904382e-06 0.0012520742766357438" free_energy=-218.98327494312278 DFT_energy=-221.98853786 pbc="T T T"
Cu       1.28339881       1.28339881      11.83696273       0.00000000       0.00000000       0.00000000       0.00000000      -0.00120965       0.00039388       0.18392100       0.01454034       0.00759899       0.43989350
Cu       3.85019642       1.28339881      11.83696273       0.00000000       0.00000000       0.00000000       0.00000000       0.00128287       0.00015339       0.18431546       0.01114684       0.00058686       0.41444403
Cu       6.41699404       1.28339881      11.83696273       0.00000000       0.00000000       0.00000000       0.00000000      -0.00031603      -0.00033761       0.18287886       0.00685118       0.01541040       0.42713208
Cu       8.98379165       1.28339881      11.83696273       0.00000000       0.00000000       0.00000000       0.00000000       0.00017719      -0.00010624       0.18293831      -0.03314146       0.01611116       0.42544091
Cu       1.28339881       3.85019642      11.83696273       0.00000000       0.00000000       0.00000000       0.00000000      -0.00120926      -0.00040733       0.18391551       0.01489281      -0.00240786       0.43893196
Cu       3.85019642       3.85019642      11.83696273       0.00000000       0.00000000       0.00000000       0.00000000       0.00128485      -0.00016393       0.18431795       0.00794185      -0.00253178       0.41323162
Cu       6.41699404       3.85019642      11.83696273       0.00000000       0.00000000       0.00000000       0.00000000      -0.00030343       0.00034271       0.18290542       0.01449996      -0.01471692       0.42651129
Cu       8.98379165       3.85019642      11.83696273       0.00000000       0.00000000       0.00000000       0.00000000       0.00016245       0.00010908       0.18296359      -0.03570027      -0.00978736       0.42165000
Cu       1.28339881       6.41699404      11.83696273       0.00000000       0.00000000       0.00000000       0.00000000      -0.00070100       0.00001588       0.18332908       0.02444509      -0.00478231       0.43121732
Cu       3.85019642       6.41699404      11.83696273       0.00000000       0.00000000       0.00000000       0.00000000       0.00098015       0.00001367       0.18358238      -0.01074288       0.00073269       0.42814130
Cu       6.41699404       6.41699404      11.83696273       0.00000000       0.00000000       0.00000000       0.00000000       0.00108623      -0.00000256       0.18582392       0.01878277      -0.00252878       0.40715283
Cu       8.98379165       6.41699404      11.83696273       0.00000000       0.00000000       0.00000000       0.00000000      -0.00134704      -0.00000103       0.18582947      -0.03256213      -0.00476201       0.43131511
Cu       7.70039285      -0.00000000      13.67392546       0.00000000       0.00000000       0.00000000       0.00000000       0.00020225       0.00018413      -0.09069413      -0.00772931      -0.03602309      -0.18265018
Cu       5.13359523      -0.00000000      13.67392546       0.00000000       0.00000000       0.00000000       0.00000000      -0.00107453      -0.00412450      -0.09565267       0.01256327      -0.01811360      -0.16812657
Cu       2.56679762      -0.00000000      13.67392546       0.00000000       0.00000000       0.00000000       0.00000000      -0.00031407       0.00083016      -0.08955175      -0.01290903       0.00741499      -0.16682282
Cu       0.00000000      -0.00000000      13.67392546       0.00000000       0.00000000       0.00000000       0.00000000       0.00098417      -0.00260718      -0.09477591       0.01372804       0.03340965      -0.15340601
Cu       0.00000000       2.56679762      13.67392546       0.00000000       0.00000000       0.00000000       0.00000000      -0.00011745       0.00002732      -0.08852795       0.01809080      -0.00483584      -0.17524248
Cu       2.56679762       2.56679762      13.67392546       0.00000000       0.00000000       0.00000000       0.00000000      -0.00174949       0.00001176      -0.09408713      -0.02595724       0.00072232      -0.13579534
Cu       5.13359523       2.56679762      13.67392546       0.00000000       0.00000000       0.00000000       0.00000000       0.00088671       0.00003161      -0.08734403      -0.00243294       0.00380546      -0.12662947
Cu       7.70039285       2.56679762      13.67392546       0.00000000       0.00000000       0.00000000       0.00000000       0.00012617      -0.00007291      -0.09778330       0.01181410       0.00315168      -0.13244975
Cu       0.00000000       5.13359523      13.67392546       0.00000000       0.00000000       0.00000000       0.00000000       0.00089782       0.00259221      -0.09471485       0.01233582      -0.02936257      -0.15755656
Cu       2.56679762       5.13359523      13.67392546       0.00000000       0.00000000       0.00000000       0.00000000      -0.00030684      -0.00078099      -0.08935936      -0.01550634      -0.00880400      -0.18024759
Cu       5.13359523       5.13359523      13.67392546       0.00000000       0.00000000       0.00000000       0.00000000      -0.00099217       0.00411663      -0.09560446       0.01516998       0.01407717      -0.15822942
Cu       7.70039285       5.13359523      13.67392546       0.00000000       0.00000000       0.00000000       0.00000000       0.00020439      -0.00011159      -0.09099546      -0.00780369       0.03246623      -0.19394668
Cu       1.28339881       1.28339881      15.51088819       0.00000000       0.00000000       0.00000000       0.00000000       0.01813899      -0.02508138      -0.26806105       0.04909414       0.24867052       0.03683259
Cu       3.85019642       1.28339881      15.51088819       0.00000000       0.00000000       0.00000000       0.00000000      -0.06124003      -0.04797976      -0.28371043      -0.13687293       0.02137897      -0.31213226
Cu       6.41699404       1.28339881      15.51088819       0.00000000       0.00000000       0.00000000       0.00000000       0.09460901       0.07366018      -0.16189073       0.11005554      -0.06205267      -0.52914765
Cu       8.98379165       1.28339881      15.51088819       0.00000000       0.00000000       0.00000000       0.00000000      -0.09532938       0.08743023      -0.14525148       0.02307619       0.02566613      -0.30940093
Cu       1.28339881       3.85019642      15.51088819       0.00000000       0.00000000       0.00000000       0.00000000       0.01902852       0.02580518      -0.26766635       0.05035079      -0.20669586       0.02183199
Cu       3.85019642       3.85019642      15.51088819       0.00000000       0.00000000       0.00000000       0.00000000      -0.06222723       0.04913279      -0.28351134      -0.15569711      -0.01604312      -0.33978570
Cu       6.41699404       3.85019642      15.51088819       0.00000000       0.00000000       0.00000000       0.00000000       0.09425217      -0.07303536      -0.16207057       0.14760890       0.05154417      -0.52732795
Cu       8.98379165       3.85019642      15.51088819       0.00000000       0.00000000       0.00000000       0.00000000      -0.09479353      -0.08683845      -0.14565459      -0.00816767      -0.00805154      -0.31441782
Cu       1.28339881       6.41699404      15.51088819       0.00000000       0.00000000       0.00000000       0.00000000       0.00168629       0.00032955      -0.25051510      -0.03645116       0.02262910      -0.33980297
Cu       3.85019642       6.41699404      15.51088819       0.00000000       0.00000000       0.00000000       0.00000000      -0.01039868       0.00045043      -0.26911907       0.07261901      -0.03028488      -0.12762528
Cu       6.41699404       6.41699404      15.51088819       0.00000000       0.00000000       0.00000000       0.00000000      -0.03781942       0.00006594      -0.30888129      -0.10034816      -0.03667439      -0.18278861
Cu       8.98379165       6.41699404      15.51088819       0.00000000       0.00000000       0.00000000       0.00000000       0.05092765      -0.00020704      -0.30365416       0.03429827       0.00934659      -0.24757130
Cu       7.69767972       7.67846152      17.23495951       0.00000000       0.00611667      -0.00783713       0.14027602       0.00316674      -0.00995416       0.13918419       0.00241067      -0.06083173      -0.08100133
Cu       5.12908923       7.69772119      17.25881207       0.00000000      -0.00376776      -0.01805534       0.13508211      -0.00062640      -0.01251039       0.13425749       0.02782913      -0.13387953      -0.15753773
Cu       2.55761111       7.68975681      17.23328898       0.00000000      -0.00906535      -0.00647840       0.14318995      -0.00372270      -0.00882101       0.13794574      -0.02577372      -0.03522745      -0.04547338
Cu      10.26849465       7.71285616      17.24233687       0.00000000      -0.00081288      -0.01385028       0.14695041       0.00105285      -0.00590156       0.14367554       0.01979193      -0.03094825      -0.06849960
Cu      10.24057998       2.59096966      17.30740717       0.00000000       0.08475407      -0.01617370       0.04826254       0.00229826       0.00010727       0.13446549       0.14689779      -0.02702314      -0.21065434
Cu       2.53135430       2.56818152      17.37639361       0.00000000       0.05515439       0.00370035       0.17531445      -0.00576306      -0.00021905       0.13448776      -0.15245765      -0.01866790      -0.13639183
Cu       5.18873511       2.55767736      17.16382241       0.00000000       0.00009233      -0.00200102       0.16294661      -0.00024754       0.00026336       0.12558678      -0.08253851       0.01326620       0.21494940
Cu       7.69924703       2.54996456      17.23275334       0.00000000       0.05845883       0.00928182       0.14439359       0.00764127       0.00213767       0.13600353      -0.03122024       0.03134387       0.01601316
Cu      10.27091169       5.15188339      17.23873568       0.00000000      -0.00385722      -0.00456480       0.14897997       0.00061308       0.00597787       0.14366813       0.03390603       0.03254348      -0.05560200
Cu       2.55540958       5.15166258      17.23076998       0.00000000      -0.01049833       0.01133138       0.14240744      -0.00373460       0.00916066       0.13745396      -0.02857251       0.03720496      -0.04496994
Cu       5.12939624       5.10433434      17.27290929       0.00000000      -0.00181247       0.00936019       0.13813747      -0.00000401       0.01267987       0.13425899       0.01640505       0.16237890      -0.17810637
Cu       7.69788023       5.15102877      17.23099857       0.00000000       0.01023475       0.00838716       0.14161738       0.00318659       0.00947467       0.14002141      -0.00186736       0.07992639      -0.04826251
O        5.57450614       2.72521389      19.97262997       0.00000000       0.02563422       0.02605076       0.03707080       0.01337001       0.00327398       0.02054973       0.18955401       0.06457838       0.28696387
C        4.68041298       2.69284089      19.00432794       0.00000000       0.03133569       0.01940372       0.07554345       0.02046340      -0.00020592       0.03457344      -0.22068216       0.08393138       0.35119908
H        6.55696550       2.73754778      19.62873152       0.00000000       0.06695699      -0.02634298       0.02903695       0.00907560       0.00599038       0.00772785      -0.25726191      -0.15519737       0.24518545
O        3.45212228       2.63794346      19.24607568       0.00000000       0.00653205       0.02120534       0.01428911       0.02075500      -0.00303672       0.00566561       0.72796533      -0.12363469      -0.26188201
O        8.17233052       2.69867759      19.06574131       0.50000000      -0.28488856      -0.01439599       0.15378659       0.01019524      -0.03139931       0.03486485      -0.41733590      -0.01411084      -0.02262358
H        8.51326021       1.82165730      19.32956516       0.50000000      -0.05506276       0.00384157       0.05450596       0.00681161       0.01914352       0.00796572      -0.00893336       0.07808284       0.19407048
54
Lattice="10.26719046282867 0.0 0.0 0.0 7.700392847121503 0.0 0.0 0.0 27.347850919999996" Properties=species:S:1:pos:R:3:initial_magmoms:R:1:MACE_forces:R:3:forces:R:3:DFT_forces:R:3 MACE_energy=-218.5340542919971 energy=-218.98327494312278 stress="0.009287364640864227 -1.5923009327785505e-06 -0.00017830864227997187 -1.5923009327785505e-06 0.009170261350542941 2.2090300955904382e-06 -0.00017830864227997187 2.2090300955904382e-06 0.0012520742766357438" free_energy=-218.98327494312278 DFT_energy=-222.02805861 pbc="T T T"
Cu       1.28339881       1.28339881      11.83696273       0.00000000       0.00000000       0.00000000       0.00000000      -0.00120965       0.00039388       0.18392100       0.01322872       0.00661036       0.43868134
Cu       3.85019642       1.28339881      11.83696273       0.00000000       0.00000000       0.00000000       0.00000000       0.00128287       0.00015339       0.18431546       0.01021654       0.00086550       0.41512293
Cu       6.41699404       1.28339881      11.83696273       0.00000000       0.00000000       0.00000000       0.00000000      -0.00031603      -0.00033761       0.18287886       0.00702247       0.01490074       0.42636970
Cu       8.98379165       1.28339881      11.83696273       0.00000000       0.00000000       0.00000000       0.00000000       0.00017719      -0.00010624       0.18293831      -0.03146101       0.01472177       0.42681879
Cu       1.28339881       3.85019642      11.83696273       0.00000000       0.00000000       0.00000000       0.00000000      -0.00120926      -0.00040733       0.18391551       0.01351339      -0.00155701       0.43760788
Cu       3.85019642       3.85019642      11.83696273       0.00000000       0.00000000       0.00000000       0.00000000       0.00128485      -0.00016393       0.18431795       0.00747500      -0.00246447       0.41400109
Cu       6.41699404       3.85019642      11.83696273       0.00000000       0.00000000       0.00000000       0.00000000      -0.00030343       0.00034271       0.18290542       0.01441291      -0.01394386       0.42534782
Cu       8.98379165       3.85019642      11.83696273       0.00000000       0.00000000       0.00000000       0.00000000       0.00016245       0.00010908       0.18296359      -0.03406735      -0.00904550       0.42343346
Cu       1.28339881       6.41699404      11.83696273       0.00000000       0.00000000       0.00000000       0.00000000      -0.00070100       0.00001588       0.18332908       0.02452812      -0.00455761       0.43062021
Cu       3.85019642       6.41699404      11.83696273       0.00000000       0.00000000       0.00000000       0.00000000       0.00098015       0.00001367       0.18358238      -0.01318403       0.00054864       0.42763006
Cu       6.41699404       6.41699404      11.83696273       0.00000000       0.00000000       0.00000000       0.00000000       0.00108623      -0.00000256       0.18582392       0.02129879      -0.00285877       0.40796666
Cu       8.98379165       6.41699404      11.83696273       0.00000000       0.00000000       0.00000000       0.00000000      -0.00134704      -0.00000103       0.18582947      -0.03234110      -0.00423437       0.42907146
Cu       7.70039285      -0.00000000      13.67392546       0.00000000       0.00000000       0.00000000       0.00000000       0.00020225       0.00018413      -0.09069413      -0.00708322      -0.03656307      -0.18460266
Cu       5.13359523      -0.00000000      13.67392546       0.00000000       0.00000000       0.00000000       0.00000000      -0.00107453      -0.00412450      -0.09565267       0.01194770      -0.01783747      -0.16662201
Cu       2.56679762      -0.00000000      13.67392546       0.00000000       0.00000000       0.00000000       0.00000000      -0.00031407       0.00083016      -0.08955175      -0.01068075       0.00545966      -0.16946194
Cu       0.00000000      -0.00000000      13.67392546       0.00000000       0.00000000       0.00000000       0.00000000       0.00098417      -0.00260718      -0.09477591       0.01150175       0.03271202      -0.15355221
Cu       0.00000000       2.56679762      13.67392546       0.00000000       0.00000000       0.00000000       0.00000000      -0.00011745       0.00002732      -0.08852795       0.01829303      -0.00440228      -0.18213183
Cu       2.56679762       2.56679762      13.67392546       0.00000000       0.00000000       0.00000000       0.00000000      -0.00174949       0.00001176      -0.09408713      -0.02520203       0.00014490      -0.13506056
Cu       5.13359523       2.56679762      13.67392546       0.00000000       0.00000000       0.00000000       0.00000000       0.00088671       0.00003161      -0.08734403      -0.00225694       0.00385669      -0.12589077
Cu       7.70039285       2.56679762      13.67392546       0.00000000       0.00000000       0.00000000       0.00000000       0.00012617      -0.00007291      -0.09778330       0.01237504       0.00323606      -0.13240955
Cu       0.00000000       5.13359523      13.67392546       0.00000000       0.00000000       0.00000000       0.00000000       0.00089782       0.00259221      -0.09471485       0.01041044      -0.02935686      -0.15779190
Cu       2.56679762       5.13359523      13.67392546       0.00000000       0.00000000       0.00000000       0.00000000      -0.00030684      -0.00078099      -0.08935936      -0.01312773      -0.00615456      -0.18192341
Cu       5.13359523       5.13359523      13.67392546       0.00000000       0.00000000       0.00000000       0.00000000      -0.00099217       0.00411663      -0.09560446       0.01395602       0.01420229      -0.15945165
Cu       7.70039285       5.13359523      13.67392546       0.00000000       0.00000000       0.00000000       0.00000000       0.00020439      -0.00011159      -0.09099546      -0.00718312       0.03258669      -0.19443715
Cu       1.28339881       1.28339881      15.51088819       0.00000000       0.00000000       0.00000000       0.00000000       0.01813899      -0.02508138      -0.26806105       0.08066268       0.21585558       0.00054005
Cu       3.85019642       1.28339881      15.51088819       0.00000000       0.00000000       0.00000000       0.00000000      -0.06124003      -0.04797976      -0.28371043      -0.12681150       0.02096021      -0.31254588
Cu       6.41699404       1.28339881      15.51088819       0.00000000       0.00000000       0.00000000       0.00000000       0.09460901       0.07366018      -0.16189073       0.11822616      -0.05437750      -0.51121111
Cu       8.98379165       1.28339881      15.51088819       0.00000000       0.00000000       0.00000000       0.00000000      -0.09532938       0.08743023      -0.14525148       0.00883641       0.02244539      -0.31306109
Cu       1.28339881       3.85019642      15.51088819       0.00000000       0.00000000       0.00000000       0.00000000       0.01902852       0.02580518      -0.26766635       0.08249922      -0.17589002      -0.01493262
Cu       3.85019642       3.85019642      15.51088819       0.00000000       0.00000000       0.00000000       0.00000000      -0.06222723       0.04913279      -0.28351134      -0.14343647      -0.01585943      -0.33842693
Cu       6.41699404       3.85019642      15.51088819       0.00000000       0.00000000       0.00000000       0.00000000       0.09425217      -0.07303536      -0.16207057       0.14713318       0.04823156      -0.51352361
Cu       8.98379165       3.85019642      15.51088819       0.00000000       0.00000000       0.00000000       0.00000000      -0.09479353      -0.08683845      -0.14565459      -0.01662448      -0.00768047      -0.32025453
Cu       1.28339881       6.41699404      15.51088819       0.00000000       0.00000000       0.00000000       0.00000000       0.00168629       0.00032955      -0.25051510      -0.04187712       0.02030991      -0.33385779
Cu       3.85019642       6.41699404      15.51088819       0.00000000       0.00000000       0.00000000       0.00000000      -0.01039868       0.00045043      -0.26911907       0.07005548      -0.02897961      -0.12843013
Cu       6.41699404       6.41699404      15.51088819       0.00000000       0.00000000       0.00000000       0.00000000      -0.03781942       0.00006594      -0.30888129      -0.09320082      -0.03629454      -0.17599149
Cu       8.98379165       6.41699404      15.51088819       0.00000000       0.00000000       0.00000000       0.00000000       0.05092765      -0.00020704      -0.30365416       0.03081067       0.00712852      -0.24690507
Cu       7.69790790       7.67950990      17.23555614       0.00000000       0.00631472      -0.00524603       0.14072801       0.00316674      -0.00995416       0.13918419       0.00365031      -0.05963653      -0.07846754
Cu       5.12907545       7.69796838      17.25893256       0.00000000      -0.00365182      -0.01762979       0.13515349      -0.00062640      -0.01251039       0.13425749       0.02427002      -0.13271862      -0.15730431
Cu       2.55701174       7.68954504      17.23333190       0.00000000      -0.00970193      -0.00651811       0.14315093      -0.00372270      -0.00882101       0.13794574      -0.02493961      -0.03639466      -0.04408061
Cu      10.26710452       7.71174457      17.24309555       0.00000000      -0.00168261      -0.01585795       0.14692183       0.00105285      -0.00590156       0.14367554       0.01681770      -0.02461564      -0.06713528
Cu      10.26150709       2.58697781      17.28209387       0.00000000       0.09130101      -0.02006872       0.04448781       0.00229826       0.00010727       0.13446549       0.12759735      -0.03452234      -0.19817211
Cu       2.54083833       2.56819340      17.37514691       0.00000000       0.06366093       0.00359678       0.17410466      -0.00576306      -0.00021905       0.13448776      -0.14951636      -0.01584277      -0.12849223
Cu       5.19038612       2.55774412      17.16721245       0.00000000       0.00443730      -0.00306575       0.15157890      -0.00024754       0.00026336       0.12558678      -0.07698536       0.01210218       0.19063492
Cu       7.71142640       2.55294942      17.23684068       0.00000000       0.06424743       0.01650348       0.15333161       0.00764127       0.00213767       0.13600353      -0.00312064       0.03166914       0.02051225
Cu      10.26911881       5.14947552      17.24007616       0.00000000      -0.00528759      -0.00684468       0.14949826       0.00061308       0.00597787       0.14366813       0.03929883       0.02908709      -0.05969620
Cu       2.55489537       5.15186972      17.23081111       0.00000000      -0.01100774       0.01146928       0.14235960      -0.00373460       0.00916066       0.13745396      -0.02753290       0.03666667      -0.04257062
Cu       5.12984067       5.10554855      17.27201090       0.00000000      -0.00143271       0.01151082       0.13638929      -0.00000401       0.01267987       0.13425899       0.01417703       0.15852435      -0.17685972
Cu       7.69907535       5.14973769      17.23263110       0.00000000       0.01044360       0.00892803       0.14305172       0.00318659       0.00947467       0.14002141      -0.00511347       0.08260018      -0.04555803
O        5.57064029       2.72245928      19.97093251       0.00000000       0.01970990       0.02110175       0.03286625       0.01337001       0.00327398       0.02054973       0.23984164       0.05396416       0.25115797
C        4.68049924       2.68824497      19.01019653       0.00000000       0.00823251       0.01340380       0.09315236       0.02046340      -0.00020592       0.03457344      -0.19047426       0.08587526       0.31645413
H        6.57894201       2.72278456      19.62708466       0.00000000       0.12725455      -0.04956650       0.01705995       0.00907560       0.00599038       0.00772785      -0.35666828      -0.18897031       0.28567076
O        3.44707886       2.63692463      19.24118765       0.00000000       0.00523928       0.02095247       0.01226014       0.02075500      -0.00303672       0.00566561       0.69141505      -0.11899929      -0.20927383
O        8.07956464       2.70131010      19.09674338       0.50000000      -0.34790252      -0.03072374       0.17232032       0.01019524      -0.03139931       0.03486485      -0.39063302      -0.02659626      -0.01330578
H        8.49173415       1.85037247      19.34723069       0.50000000      -0.10776189       0.05271689       0.08428989       0.00681161       0.01914352       0.00796572      -0.06195007       0.13508829       0.20575065
54
Lattice="10.26719046282867 0.0 0.0 0.0 7.700392847121503 0.0 0.0 0.0 27.347850919999996" Properties=species:S:1:pos:R:3:initial_magmoms:R:1:MACE_forces:R:3:forces:R:3:DFT_forces:R:3 MACE_energy=-218.57707532040644 energy=-218.98327494312278 stress="0.009287364640864227 -1.5923009327785505e-06 -0.00017830864227997187 -1.5923009327785505e-06 0.009170261350542941 2.2090300955904382e-06 -0.00017830864227997187 2.2090300955904382e-06 0.0012520742766357438" free_energy=-218.98327494312278 DFT_energy=-222.06006543 pbc="T T T"
Cu       1.28339881       1.28339881      11.83696273       0.00000000       0.00000000       0.00000000       0.00000000      -0.00120965       0.00039388       0.18392100       0.01280305       0.00575893       0.43801418
Cu       3.85019642       1.28339881      11.83696273       0.00000000       0.00000000       0.00000000       0.00000000       0.00128287       0.00015339       0.18431546       0.00904489       0.00090579       0.41605613
Cu       6.41699404       1.28339881      11.83696273       0.00000000       0.00000000       0.00000000       0.00000000      -0.00031603      -0.00033761       0.18287886       0.00756045       0.01434471       0.42597499
Cu       8.98379165       1.28339881      11.83696273       0.00000000       0.00000000       0.00000000       0.00000000       0.00017719      -0.00010624       0.18293831      -0.02993385       0.01363774       0.42815601
Cu       1.28339881       3.85019642      11.83696273       0.00000000       0.00000000       0.00000000       0.00000000      -0.00120926      -0.00040733       0.18391551       0.01278778      -0.00074112       0.43688978
Cu       3.85019642       3.85019642      11.83696273       0.00000000       0.00000000       0.00000000       0.00000000       0.00128485      -0.00016393       0.18431795       0.00694073      -0.00200941       0.41493241
Cu       6.41699404       3.85019642      11.83696273       0.00000000       0.00000000       0.00000000       0.00000000      -0.00030343       0.00034271       0.18290542       0.01438463      -0.01313735       0.42464807
Cu       8.98379165       3.85019642      11.83696273       0.00000000       0.00000000       0.00000000       0.00000000       0.00016245       0.00010908       0.18296359      -0.03237890      -0.00841119       0.42524251
Cu       1.28339881       6.41699404      11.83696273       0.00000000       0.00000000       0.00000000       0.00000000      -0.00070100       0.00001588       0.18332908       0.02517562      -0.00427855       0.42990395
Cu       3.85019642       6.41699404      11.83696273       0.00000000       0.00000000       0.00000000       0.00000000       0.00098015       0.00001367       0.18358238      -0.01515121       0.00037976       0.42762963
Cu       6.41699404       6.41699404      11.83696273       0.00000000       0.00000000       0.00000000       0.00000000       0.00108623      -0.00000256       0.18582392       0.02340240      -0.00291763       0.40944804
Cu       8.98379165       6.41699404      11.83696273       0.00000000       0.00000000       0.00000000       0.00000000      -0.00134704      -0.00000103       0.18582947      -0.03224795      -0.00376363       0.42748253
Cu       7.70039285      -0.00000000      13.67392546       0.00000000       0.00000000       0.00000000       0.00000000       0.00020225       0.00018413      -0.09069413      -0.00597519      -0.03655802      -0.18625529
Cu       5.13359523      -0.00000000      13.67392546       0.00000000       0.00000000       0.00000000       0.00000000      -0.00107453      -0.00412450      -0.09565267       0.01175298      -0.01731748      -0.16541468
Cu       2.56679762      -0.00000000      13.67392546       0.00000000       0.00000000       0.00000000       0.00000000      -0.00031407       0.00083016      -0.08955175      -0.00917559       0.00332010      -0.17208240
Cu       0.00000000      -0.00000000      13.67392546       0.00000000       0.00000000       0.00000000       0.00000000       0.00098417      -0.00260718      -0.09477591       0.00970445       0.03254184      -0.15326327
Cu       0.00000000       2.56679762      13.67392546       0.00000000       0.00000000       0.00000000       0.00000000      -0.00011745       0.00002732      -0.08852795       0.01790218      -0.00371953      -0.18712318
Cu       2.56679762       2.56679762      13.67392546       0.00000000       0.00000000       0.00000000       0.00000000      -0.00174949       0.00001176      -0.09408713      -0.02410815      -0.00018914      -0.13442147
Cu       5.13359523       2.56679762      13.67392546       0.00000000       0.00000000       0.00000000       0.00000000       0.00088671       0.00003161      -0.08734403      -0.00182355       0.00379934      -0.12571049
Cu       7.70039285       2.56679762      13.67392546       0.00000000       0.00000000       0.00000000       0.00000000       0.00012617      -0.00007291      -0.09778330       0.01311060       0.00341447      -0.13337807
Cu       0.00000000       5.13359523      13.67392546       0.00000000       0.00000000       0.00000000       0.00000000       0.00089782       0.00259221      -0.09471485       0.00923033      -0.02970840      -0.15825799
Cu       2.56679762       5.13359523      13.67392546       0.00000000       0.00000000       0.00000000       0.00000000      -0.00030684      -0.00078099      -0.08935936      -0.01155523      -0.00346903      -0.18323385
Cu       5.13359523       5.13359523      13.67392546       0.00000000       0.00000000       0.00000000       0.00000000      -0.00099217       0.00411663      -0.09560446       0.01316682       0.01413312      -0.16052246
Cu       7.70039285       5.13359523      13.67392546       0.00000000       0.00000000       0.00000000       0.00000000       0.00020439      -0.00011159      -0.09099546      -0.00618642       0.03242431      -0.19466861
Cu       1.28339881       1.28339881      15.51088819       0.00000000       0.00000000       0.00000000       0.00000000       0.01813899      -0.02508138      -0.26806105       0.10423662       0.19278411      -0.02597676
Cu       3.85019642       1.28339881      15.51088819       0.00000000       0.00000000       0.00000000       0.00000000      -0.06124003      -0.04797976      -0.28371043      -0.12073046       0.01962028      -0.31340955
Cu       6.41699404       1.28339881      15.51088819       0.00000000       0.00000000       0.00000000       0.00000000       0.09460901       0.07366018      -0.16189073       0.12495380      -0.04803720      -0.49385865
Cu       8.98379165       1.28339881      15.51088819       0.00000000       0.00000000       0.00000000       0.00000000      -0.09532938       0.08743023      -0.14525148      -0.00346408       0.02547095      -0.30765669
Cu       1.28339881       3.85019642      15.51088819       0.00000000       0.00000000       0.00000000       0.00000000       0.01902852       0.02580518      -0.26766635       0.10494421      -0.15523690      -0.04030068
Cu       3.85019642       3.85019642      15.51088819       0.00000000       0.00000000       0.00000000       0.00000000      -0.06222723       0.04913279      -0.28351134      -0.13503721      -0.01496559      -0.33700887
Cu       6.41699404       3.85019642      15.51088819       0.00000000       0.00000000       0.00000000       0.00000000       0.09425217      -0.07303536      -0.16207057       0.14693855       0.04542992      -0.49897857
Cu       8.98379165       3.85019642      15.51088819       0.00000000       0.00000000       0.00000000       0.00000000      -0.09479353      -0.08683845      -0.14565459      -0.02237777      -0.00991628      -0.31811018
Cu       1.28339881       6.41699404      15.51088819       0.00000000       0.00000000       0.00000000       0.00000000       0.00168629       0.00032955      -0.25051510      -0.04531781       0.01896944      -0.32944523
Cu       3.85019642       6.41699404      15.51088819       0.00000000       0.00000000       0.00000000       0.00000000      -0.01039868       0.00045043      -0.26911907       0.06816421      -0.02721562      -0.12940395
Cu       6.41699404       6.41699404      15.51088819       0.00000000       0.00000000       0.00000000       0.00000000      -0.03781942       0.00006594      -0.30888129      -0.08883933      -0.03448240      -0.17324415
Cu       8.98379165       6.41699404      15.51088819       0.00000000       0.00000000       0.00000000       0.00000000       0.05092765      -0.00020704      -0.30365416       0.02924177       0.00598515      -0.24711840
Cu       7.69809727       7.68056739      17.23589669       0.00000000       0.00627663      -0.00422595       0.14025359       0.00316674      -0.00995416       0.13918419       0.00469400      -0.05854456      -0.07860445
Cu       5.12916277       7.69824234      17.25902825       0.00000000      -0.00353819      -0.01784922       0.13494204      -0.00062640      -0.01251039       0.13425749       0.02236644      -0.12998341      -0.15637976
Cu       2.55654481       7.68924411      17.23329432       0.00000000      -0.01020329      -0.00660854       0.14295485      -0.00372270      -0.00882101       0.13794574      -0.02415704      -0.03668948      -0.04277305
Cu      10.26617693       7.71087844      17.24350891       0.00000000      -0.00178721      -0.01734134       0.14625953       0.00105285      -0.00590156       0.14367554       0.01350774      -0.01894375      -0.06490563
Cu      10.27492359       2.58410690      17.26660101       0.00000000       0.08786515      -0.02178851       0.05211357       0.00229826       0.00010727       0.13446549       0.11726425      -0.03954943      -0.18746055
Cu       2.54753005       2.56816352      17.37407824       0.00000000       0.06656651       0.00351759       0.17319480      -0.00576306      -0.00021905       0.13448776      -0.14954246      -0.01557991      -0.12455995
Cu       5.19092629       2.55787493      17.16967697       0.00000000      -0.00126066      -0.00215270       0.16447308      -0.00024754       0.00026336       0.12558678      -0.08146345       0.01271395       0.18884849
Cu       7.71970841       2.55599383      17.24157963       0.00000000       0.06236237       0.02029428       0.15531552       0.00764127       0.00213767       0.13600353       0.00497015       0.02849446      -0.00715329
Cu      10.26792260       5.14781935      17.24093746       0.00000000      -0.00555566      -0.00785204       0.14895444       0.00061308       0.00597787       0.14366813       0.04179468       0.02557890      -0.06315792
Cu       2.55450686       5.15207004      17.23077575       0.00000000      -0.01143029       0.01166792       0.14215251      -0.00373460       0.00916066       0.13745396      -0.02556098       0.03586636      -0.04040892
Cu       5.13019970       5.10686319      17.27110268       0.00000000      -0.00152118       0.01353406       0.13478906      -0.00000401       0.01267987       0.13425899       0.01223747       0.15349185      -0.17466688
Cu       7.69972309       5.14955656      17.23355169       0.00000000       0.00957188       0.01101637       0.14215026       0.00318659       0.00947467       0.14002141      -0.00661671       0.08296192      -0.04374636
O        5.56538794       2.71849054      19.96857068       0.00000000       0.03376424       0.01457703       0.04015381       0.01337001       0.00327398       0.02054973       0.31335161       0.04343365       0.21113823
C        4.67784155       2.68361174      19.01677906       0.00000000      -0.01348995       0.00715047       0.08409164       0.02046340      -0.00020592       0.03457344      -0.16979445       0.08254803       0.27866253
H        6.60778249       2.71030204      19.62149228       0.00000000       0.20298130      -0.06435824      -0.00363218       0.00907560       0.00599038       0.00772785      -0.45318102      -0.18436070       0.33033004
O        3.43981000       2.63553653      19.23742028       0.00000000      -0.01855139       0.01937442       0.00594262       0.02075500      -0.00303672       0.00566561       0.65762595      -0.11745636      -0.17259611
O        8.01292692       2.70419483      19.11935403       0.50000000      -0.38484571      -0.02231166       0.18526913       0.01019524      -0.03139931       0.03486485      -0.35953445      -0.03142907      -0.01089147
H        8.46718557       1.87401076      19.36698735       0.50000000      -0.14798291       0.06520320       0.11600075       0.00681161       0.01914352       0.00796572      -0.09910508       0.15060207       0.22279026
54
Lattice="10.26719046282867 0.0 0.0 0.0 7.700392847121503 0.0 0.0 0.0 27.347850919999996" Properties=species:S:1:pos:R:3:initial_magmoms:R:1:MACE_forces:R:3:forces:R:3:DFT_forces:R:3 MACE_energy=-218.6487381019028 energy=-218.98327494312278 stress="0.009287364640864227 -1.5923009327785505e-06 -0.00017830864227997187 -1.5923009327785505e-06 0.009170261350542941 2.2090300955904382e-06 -0.00017830864227997187 2.2090300955904382e-06 0.0012520742766357438" free_energy=-218.98327494312278 DFT_energy=-222.09425199 pbc="T T T"
Cu       1.28339881       1.28339881      11.83696273       0.00000000       0.00000000       0.00000000       0.00000000      -0.00120965       0.00039388       0.18392100       0.01256095       0.00445883       0.43731203
Cu       3.85019642       1.28339881      11.83696273       0.00000000       0.00000000       0.00000000       0.00000000       0.00128287       0.00015339       0.18431546       0.00707630       0.00016362       0.41708203
Cu       6.41699404       1.28339881      11.83696273       0.00000000       0.00000000       0.00000000       0.00000000      -0.00031603      -0.00033761       0.18287886       0.00795969       0.01307979       0.42550238
Cu       8.98379165       1.28339881      11.83696273       0.00000000       0.00000000       0.00000000       0.00000000       0.00017719      -0.00010624       0.18293831      -0.02816086       0.01229489       0.43003056
Cu       1.28339881       3.85019642      11.83696273       0.00000000       0.00000000       0.00000000       0.00000000      -0.00120926      -0.00040733       0.18391551       0.01194241       0.00026433       0.43618003
Cu       3.85019642       3.85019642      11.83696273       0.00000000       0.00000000       0.00000000       0.00000000       0.00128485      -0.00016393       0.18431795       0.00582735      -0.00120835       0.41584115
Cu       6.41699404       3.85019642      11.83696273       0.00000000       0.00000000       0.00000000       0.00000000      -0.00030343       0.00034271       0.18290542       0.01404665      -0.01206017       0.42371001
Cu       8.98379165       3.85019642      11.83696273       0.00000000       0.00000000       0.00000000       0.00000000       0.00016245       0.00010908       0.18296359      -0.03030364      -0.00762271       0.42745548
Cu       1.28339881       6.41699404      11.83696273       0.00000000       0.00000000       0.00000000       0.00000000      -0.00070100       0.00001588       0.18332908       0.02627744      -0.00426680       0.42811940
Cu       3.85019642       6.41699404      11.83696273       0.00000000       0.00000000       0.00000000       0.00000000       0.00098015       0.00001367       0.18358238      -0.01777235       0.00012924       0.42786595
Cu       6.41699404       6.41699404      11.83696273       0.00000000       0.00000000       0.00000000       0.00000000       0.00108623      -0.00000256       0.18582392       0.02544421      -0.00302735       0.41186814
Cu       8.98379165       6.41699404      11.83696273       0.00000000       0.00000000       0.00000000       0.00000000      -0.00134704      -0.00000103       0.18582947      -0.03260001      -0.00375610       0.42542808
Cu       7.70039285      -0.00000000      13.67392546       0.00000000       0.00000000       0.00000000       0.00000000       0.00020225       0.00018413      -0.09069413      -0.00415719      -0.03641697      -0.18826739
Cu       5.13359523      -0.00000000      13.67392546       0.00000000       0.00000000       0.00000000       0.00000000      -0.00107453      -0.00412450      -0.09565267       0.01133438      -0.01682234      -0.16463881
Cu       2.56679762      -0.00000000      13.67392546       0.00000000       0.00000000       0.00000000       0.00000000      -0.00031407       0.00083016      -0.08955175      -0.00842104      -0.00013239      -0.17536722
Cu       0.00000000      -0.00000000      13.67392546       0.00000000       0.00000000       0.00000000       0.00000000       0.00098417      -0.00260718      -0.09477591       0.00767391       0.03301324      -0.15226640
Cu       0.00000000       2.56679762      13.67392546       0.00000000       0.00000000       0.00000000       0.00000000      -0.00011745       0.00002732      -0.08852795       0.01669015      -0.00330308      -0.19235903
Cu       2.56679762       2.56679762      13.67392546       0.00000000       0.00000000       0.00000000       0.00000000      -0.00174949       0.00001176      -0.09408713      -0.02251365      -0.00049213      -0.13310484
Cu       5.13359523       2.56679762      13.67392546       0.00000000       0.00000000       0.00000000       0.00000000       0.00088671       0.00003161      -0.08734403      -0.00175109       0.00349394      -0.12638855
Cu       7.70039285       2.56679762      13.67392546       0.00000000       0.00000000       0.00000000       0.00000000       0.00012617      -0.00007291      -0.09778330       0.01373443       0.00335987      -0.13563760
Cu       0.00000000       5.13359523      13.67392546       0.00000000       0.00000000       0.00000000       0.00000000       0.00089782       0.00259221      -0.09471485       0.00818233      -0.03088929      -0.15900670
Cu       2.56679762       5.13359523      13.67392546       0.00000000       0.00000000       0.00000000       0.00000000      -0.00030684      -0.00078099      -0.08935936      -0.01092101      -0.00004802      -0.18484072
Cu       5.13359523       5.13359523      13.67392546       0.00000000       0.00000000       0.00000000       0.00000000      -0.00099217       0.00411663      -0.09560446       0.01231912       0.01360482      -0.16156840
Cu       7.70039285       5.13359523      13.67392546       0.00000000       0.00000000       0.00000000       0.00000000       0.00020439      -0.00011159      -0.09099546      -0.00473945       0.03188576      -0.19541615
Cu       1.28339881       1.28339881      15.51088819       0.00000000       0.00000000       0.00000000       0.00000000       0.01813899      -0.02508138      -0.26806105       0.12588079       0.17693446      -0.04541108
Cu       3.85019642       1.28339881      15.51088819       0.00000000       0.00000000       0.00000000       0.00000000      -0.06124003      -0.04797976      -0.28371043      -0.11697259       0.01866262      -0.31295032
Cu       6.41699404       1.28339881      15.51088819       0.00000000       0.00000000       0.00000000       0.00000000       0.09460901       0.07366018      -0.16189073       0.12469221      -0.04579077      -0.47484280
Cu       8.98379165       1.28339881      15.51088819       0.00000000       0.00000000       0.00000000       0.00000000      -0.09532938       0.08743023      -0.14525148      -0.01336148       0.03161385      -0.29416163
Cu       1.28339881       3.85019642      15.51088819       0.00000000       0.00000000       0.00000000       0.00000000       0.01902852       0.02580518      -0.26766635       0.12425785      -0.14192238      -0.05803723
Cu       3.85019642       3.85019642      15.51088819       0.00000000       0.00000000       0.00000000       0.00000000      -0.06222723       0.04913279      -0.28351134      -0.12911828      -0.01492115      -0.33419732
Cu       6.41699404       3.85019642      15.51088819       0.00000000       0.00000000       0.00000000       0.00000000       0.09425217      -0.07303536      -0.16207057       0.14078260       0.04466025      -0.48275147
Cu       8.98379165       3.85019642      15.51088819       0.00000000       0.00000000       0.00000000       0.00000000      -0.09479353      -0.08683845      -0.14565459      -0.02465153      -0.01307582      -0.31004892
Cu       1.28339881       6.41699404      15.51088819       0.00000000       0.00000000       0.00000000       0.00000000       0.00168629       0.00032955      -0.25051510      -0.04786566       0.01846045      -0.32478425
Cu       3.85019642       6.41699404      15.51088819       0.00000000       0.00000000       0.00000000       0.00000000      -0.01039868       0.00045043      -0.26911907       0.06562472      -0.02599698      -0.13009166
Cu       6.41699404       6.41699404      15.51088819       0.00000000       0.00000000       0.00000000       0.00000000      -0.03781942       0.00006594      -0.30888129      -0.08729972      -0.03186278      -0.17596430
Cu       8.98379165       6.41699404      15.51088819       0.00000000       0.00000000       0.00000000       0.00000000       0.05092765      -0.00020704      -0.30365416       0.03007396       0.00574939      -0.25021819
Cu       7.69829379       7.68150892      17.23591886       0.00000000       0.00674342      -0.00558086       0.13875959       0.00316674      -0.00995416       0.13918419       0.00615001      -0.05873873      -0.08088844
Cu       5.12933413       7.69787925      17.25884258       0.00000000      -0.00255341      -0.01946106       0.13382062      -0.00062640      -0.01251039       0.13425749       0.02245310      -0.12432398      -0.15449210
Cu       2.55615378       7.68918884      17.23324536       0.00000000      -0.01139939      -0.00764159       0.14228669      -0.00372270      -0.00882101       0.13794574      -0.02228939      -0.03714814      -0.04100400
Cu      10.26550291       7.71030372      17.24383945       0.00000000      -0.00269459      -0.01768390       0.14636729       0.00105285      -0.00590156       0.14367554       0.00746042      -0.01093394      -0.06119724
Cu      10.28459789       2.58193882      17.25619348       0.00000000       0.09626200      -0.02353022       0.04859892       0.00229826       0.00010727       0.13446549       0.10589536      -0.04225611      -0.19659777
Cu       2.55377142       2.56831641      17.37538895       0.00000000       0.06894969       0.00358569       0.17236453      -0.00576306      -0.00021905       0.13448776      -0.15531385      -0.01527854      -0.13020407
Cu       5.18990089       2.55790265      17.17298860       0.00000000      -0.00641643      -0.00231306       0.15978014      -0.00024754       0.00026336       0.12558678      -0.08521653       0.01173353       0.16877832
Cu       7.72491436       2.55966911      17.24420757       0.00000000       0.06063480       0.02965095       0.16754483       0.00764127       0.00213767       0.13600353       0.01290218       0.02846403      -0.05794942
Cu      10.26699187       5.14658354      17.24149788       0.00000000      -0.00610522      -0.00871169       0.14881554       0.00061308       0.00597787       0.14366813       0.03988969       0.01913049      -0.06578149
Cu       2.55409698       5.15239520      17.23066414       0.00000000      -0.01270541       0.01298611       0.14130155      -0.00373460       0.00916066       0.13745396      -0.02271240       0.03440272      -0.03665756
Cu       5.13057452       5.10786713      17.27032936       0.00000000      -0.00068402       0.01813849       0.13164747      -0.00000401       0.01267987       0.13425899       0.00986544       0.14752768      -0.17178035
Cu       7.69994389       5.15033092      17.23341034       0.00000000       0.00857594       0.01679840       0.13744131       0.00318659       0.00947467       0.14002141      -0.00581819       0.08133656      -0.04208502
O        5.56162481       2.71820217      19.96329609       0.00000000      -0.00301342       0.01043918       0.05388002       0.01337001       0.00327398       0.02054973       0.34380038       0.03391969       0.15331186
C        4.67787117       2.68224276      19.02593254       0.00000000      -0.08305346      -0.00063316       0.14206275       0.02046340      -0.00020592       0.03457344      -0.12205291       0.08217076       0.20380631
H        6.67058151       2.69876111      19.60466667       0.00000000       0.55522932      -0.09728236      -0.11118487       0.00907560       0.00599038       0.00772785      -0.60949608      -0.17255499       0.41867721
O        3.43240014       2.63604655      19.23122583       0.00000000      -0.04981649       0.01787682      -0.03803523       0.02075500      -0.00303672       0.00566561       0.54864039      -0.11768703      -0.05786557
O        7.95397011       2.70140111      19.14248400       0.50000000      -0.55267630      -0.02686916       0.26318164       0.01019524      -0.03139931       0.03486485      -0.10169191      -0.05974831      -0.04360544
H        8.44071143       1.88667639      19.38295555       0.50000000      -0.22464699       0.09571202       0.15973677       0.00681161       0.01914352       0.00796572      -0.18423763       0.18177051       0.25146052
54
Lattice="10.26719046282867 0.0 0.0 0.0 7.700392847121503 0.0 0.0 0.0 27.347850919999996" Properties=species:S:1:pos:R:3:initial_magmoms:R:1:MACE_forces:R:3:forces:R:3:DFT_forces:R:3 MACE_energy=-218.75112715143325 energy=-218.98327494312278 stress="0.009287364640864227 -1.5923009327785505e-06 -0.00017830864227997187 -1.5923009327785505e-06 0.009170261350542941 2.2090300955904382e-06 -0.00017830864227997187 2.2090300955904382e-06 0.0012520742766357438" free_energy=-218.98327494312278 DFT_energy=-222.15628697 pbc="T T T"
Cu       1.28339881       1.28339881      11.83696273       0.00000000       0.00000000       0.00000000       0.00000000      -0.00120965       0.00039388       0.18392100       0.01252544       0.00335257       0.43664526
Cu       3.85019642       1.28339881      11.83696273       0.00000000       0.00000000       0.00000000       0.00000000       0.00128287       0.00015339       0.18431546       0.00499811      -0.00086572       0.41765456
Cu       6.41699404       1.28339881      11.83696273       0.00000000       0.00000000       0.00000000       0.00000000      -0.00031603      -0.00033761       0.18287886       0.00793461       0.01156591       0.42504681
Cu       8.98379165       1.28339881      11.83696273       0.00000000       0.00000000       0.00000000       0.00000000       0.00017719      -0.00010624       0.18293831      -0.02615867       0.01110267       0.43194958
Cu       1.28339881       3.85019642      11.83696273       0.00000000       0.00000000       0.00000000       0.00000000      -0.00120926      -0.00040733       0.18391551       0.01125284       0.00121034       0.43561421
Cu       3.85019642       3.85019642      11.83696273       0.00000000       0.00000000       0.00000000       0.00000000       0.00128485      -0.00016393       0.18431795       0.00455370      -0.00015768       0.41640659
Cu       6.41699404       3.85019642      11.83696273       0.00000000       0.00000000       0.00000000       0.00000000      -0.00030343       0.00034271       0.18290542       0.01334234      -0.01053179       0.42290599
Cu       8.98379165       3.85019642      11.83696273       0.00000000       0.00000000       0.00000000       0.00000000       0.00016245       0.00010908       0.18296359      -0.02801167      -0.00662718       0.42959206
Cu       1.28339881       6.41699404      11.83696273       0.00000000       0.00000000       0.00000000       0.00000000      -0.00070100       0.00001588       0.18332908       0.02764625      -0.00415190       0.42584806
Cu       3.85019642       6.41699404      11.83696273       0.00000000       0.00000000       0.00000000       0.00000000       0.00098015       0.00001367       0.18358238      -0.02035406       0.00013253       0.42812216
Cu       6.41699404       6.41699404      11.83696273       0.00000000       0.00000000       0.00000000       0.00000000       0.00108623      -0.00000256       0.18582392       0.02700071      -0.00307217       0.41441285
Cu       8.98379165       6.41699404      11.83696273       0.00000000       0.00000000       0.00000000       0.00000000      -0.00134704      -0.00000103       0.18582947      -0.03304967      -0.00384192       0.42380138
Cu       7.70039285      -0.00000000      13.67392546       0.00000000       0.00000000       0.00000000       0.00000000       0.00020225       0.00018413      -0.09069413      -0.00188181      -0.03577729      -0.18996185
Cu       5.13359523      -0.00000000      13.67392546       0.00000000       0.00000000       0.00000000       0.00000000      -0.00107453      -0.00412450      -0.09565267       0.01078287      -0.01609550      -0.16407766
Cu       2.56679762      -0.00000000      13.67392546       0.00000000       0.00000000       0.00000000       0.00000000      -0.00031407       0.00083016      -0.08955175      -0.00841985      -0.00377863      -0.17840661
Cu       0.00000000      -0.00000000      13.67392546       0.00000000       0.00000000       0.00000000       0.00000000       0.00098417      -0.00260718      -0.09477591       0.00611660       0.03399973      -0.15065305
Cu       0.00000000       2.56679762      13.67392546       0.00000000       0.00000000       0.00000000       0.00000000      -0.00011745       0.00002732      -0.08852795       0.01495624      -0.00285801      -0.19680612
Cu       2.56679762       2.56679762      13.67392546       0.00000000       0.00000000       0.00000000       0.00000000      -0.00174949       0.00001176      -0.09408713      -0.02019954      -0.00055567      -0.13143315
Cu       5.13359523       2.56679762      13.67392546       0.00000000       0.00000000       0.00000000       0.00000000       0.00088671       0.00003161      -0.08734403      -0.00173286       0.00327456      -0.12815645
Cu       7.70039285       2.56679762      13.67392546       0.00000000       0.00000000       0.00000000       0.00000000       0.00012617      -0.00007291      -0.09778330       0.01385686       0.00343645      -0.13848691
Cu       0.00000000       5.13359523      13.67392546       0.00000000       0.00000000       0.00000000       0.00000000       0.00089782       0.00259221      -0.09471485       0.00782931      -0.03229709      -0.15953919
Cu       2.56679762       5.13359523      13.67392546       0.00000000       0.00000000       0.00000000       0.00000000      -0.00030684      -0.00078099      -0.08935936      -0.01110754       0.00353036      -0.18615518
Cu       5.13359523       5.13359523      13.67392546       0.00000000       0.00000000       0.00000000       0.00000000      -0.00099217       0.00411663      -0.09560446       0.01150542       0.01289500      -0.16249344
Cu       7.70039285       5.13359523      13.67392546       0.00000000       0.00000000       0.00000000       0.00000000       0.00020439      -0.00011159      -0.09099546      -0.00307545       0.03099027      -0.19622592
Cu       1.28339881       1.28339881      15.51088819       0.00000000       0.00000000       0.00000000       0.00000000       0.01813899      -0.02508138      -0.26806105       0.14342796       0.16645530      -0.05981873
Cu       3.85019642       1.28339881      15.51088819       0.00000000       0.00000000       0.00000000       0.00000000      -0.06124003      -0.04797976      -0.28371043      -0.11537416       0.01695890      -0.31156139
Cu       6.41699404       1.28339881      15.51088819       0.00000000       0.00000000       0.00000000       0.00000000       0.09460901       0.07366018      -0.16189073       0.12184265      -0.04777639      -0.45753856
Cu       8.98379165       1.28339881      15.51088819       0.00000000       0.00000000       0.00000000       0.00000000      -0.09532938       0.08743023      -0.14525148      -0.02045159       0.03752309      -0.27780365
Cu       1.28339881       3.85019642      15.51088819       0.00000000       0.00000000       0.00000000       0.00000000       0.01902852       0.02580518      -0.26766635       0.13945366      -0.13336310      -0.07095169
Cu       3.85019642       3.85019642      15.51088819       0.00000000       0.00000000       0.00000000       0.00000000      -0.06222723       0.04913279      -0.28351134      -0.12521843      -0.01449486      -0.33028596
Cu       6.41699404       3.85019642      15.51088819       0.00000000       0.00000000       0.00000000       0.00000000       0.09425217      -0.07303536      -0.16207057       0.13307075       0.04668121      -0.46714766
Cu       8.98379165       3.85019642      15.51088819       0.00000000       0.00000000       0.00000000       0.00000000      -0.09479353      -0.08683845      -0.14565459      -0.02484593      -0.01514941      -0.29902424
Cu       1.28339881       6.41699404      15.51088819       0.00000000       0.00000000       0.00000000       0.00000000       0.00168629       0.00032955      -0.25051510      -0.05018003       0.01862147      -0.31996054
Cu       3.85019642       6.41699404      15.51088819       0.00000000       0.00000000       0.00000000       0.00000000      -0.01039868       0.00045043      -0.26911907       0.06270971      -0.02460687      -0.13049930
Cu       6.41699404       6.41699404      15.51088819       0.00000000       0.00000000       0.00000000       0.00000000      -0.03781942       0.00006594      -0.30888129      -0.08764278      -0.02911862      -0.18224858
Cu       8.98379165       6.41699404      15.51088819       0.00000000       0.00000000       0.00000000       0.00000000       0.05092765      -0.00020704      -0.30365416       0.03296448       0.00577738      -0.25521644
Cu       7.69849001       7.68188599      17.23571579       0.00000000       0.00758617      -0.00912653       0.13575150       0.00316674      -0.00995416       0.13918419       0.00774227      -0.05771173      -0.08452527
Cu       5.12955782       7.69729643      17.25856284       0.00000000      -0.00106511      -0.02265369       0.13202642      -0.00062640      -0.01251039       0.13425749       0.02339670      -0.11735221      -0.15167518
Cu       2.55581782       7.68914919      17.23317240       0.00000000      -0.01262928      -0.01001985       0.14096081      -0.00372270      -0.00882101       0.13794574      -0.01951659      -0.03811479      -0.03918705
Cu      10.26497888       7.70998863      17.24416371       0.00000000      -0.00438140      -0.01667354       0.14792776       0.00105285      -0.00590156       0.14367554       0.00068700      -0.00251144      -0.05597897
Cu      10.29149811       2.58046998      17.24914977       0.00000000       0.10230556      -0.02529176       0.04519453       0.00229826       0.00010727       0.13446549       0.09530694      -0.04300628      -0.20837599
Cu       2.55837876       2.56843283      17.37707279       0.00000000       0.06962134       0.00341807       0.16476487      -0.00576306      -0.00021905       0.13448776      -0.16921443      -0.01563396      -0.15791059
Cu       5.18853089       2.55792774      17.17555451       0.00000000      -0.01623428      -0.00085098       0.17912129      -0.00024754       0.00026336       0.12558678      -0.09394969       0.01160568       0.17910533
Cu       7.72761489       2.56262510      17.24524847       0.00000000       0.05415262       0.03999949       0.16507041       0.00764127       0.00213767       0.13600353       0.01753165       0.02942476      -0.14860186
Cu      10.26632699       5.14579970      17.24188246       0.00000000      -0.00669967      -0.00930003       0.14963670       0.00061308       0.00597787       0.14366813       0.03596691       0.01177905      -0.06632257
Cu       2.55370720       5.15271040      17.23051541       0.00000000      -0.01402305       0.01569671       0.13961718      -0.00373460       0.00916066       0.13745396      -0.01904142       0.03336566      -0.03291587
Cu       5.13092648       5.10875769      17.26964446       0.00000000       0.00061791       0.02408329       0.12848039      -0.00000401       0.01267987       0.13425899       0.00825059       0.14205311      -0.16887378
Cu       7.69999431       5.15157462      17.23266399       0.00000000       0.00757143       0.02521148       0.12910332       0.00318659       0.00947467       0.14002141      -0.00435337       0.07915736      -0.04262296
O        5.55200869       2.71943462      19.96210603       0.00000000      -0.13466994       0.00688538       0.01605746       0.01337001       0.00327398       0.02054973       0.08334010       0.02889422       0.10925003
C        4.67442645       2.68195711      19.03764048       0.00000000      -0.02288813      -0.00241555       0.26043158       0.02046340      -0.00020592       0.03457344      -0.17483660       0.07385049       0.13305047
H        6.74531092       2.68855704      19.58451006       0.00000000       0.90606729      -0.13620600      -0.20258889       0.00907560       0.00599038       0.00772785      -0.68886369      -0.14891577       0.51196043
O        3.42250684       2.63662351      19.22170829       0.00000000      -0.20447543       0.01112942      -0.08694745       0.02075500      -0.00303672       0.00566561       0.50041265      -0.10570253       0.09075236
O        7.91093162       2.69815463      19.16129516       0.50000000      -0.59859585      -0.02606099       0.32340973       0.01019524      -0.03139931       0.03486485       0.45552602      -0.10915442      -0.11745518
H        8.41925516       1.89338625      19.39448165       0.50000000      -0.30889049       0.12137603       0.20591557       0.00681161       0.01914352       0.00796572      -0.28845150       0.20558485       0.28677940
54
Lattice="10.26719046282867 0.0 0.0 0.0 7.700392847121503 0.0 0.0 0.0 27.347850919999996" Properties=species:S:1:pos:R:3:initial_magmoms:R:1:MACE_forces:R:3:forces:R:3:DFT_forces:R:3 MACE_energy=-218.91372245752842 energy=-218.98327494312278 stress="0.009287364640864227 -1.5923009327785505e-06 -0.00017830864227997187 -1.5923009327785505e-06 0.009170261350542941 2.2090300955904382e-06 -0.00017830864227997187 2.2090300955904382e-06 0.0012520742766357438" free_energy=-218.98327494312278 DFT_energy=-222.26462777 pbc="T T T"
Cu       1.28339881       1.28339881      11.83696273       0.00000000       0.00000000       0.00000000       0.00000000      -0.00120965       0.00039388       0.18392100       0.01260716       0.00262876       0.43608809
Cu       3.85019642       1.28339881      11.83696273       0.00000000       0.00000000       0.00000000       0.00000000       0.00128287       0.00015339       0.18431546       0.00314918      -0.00191529       0.41753938
Cu       6.41699404       1.28339881      11.83696273       0.00000000       0.00000000       0.00000000       0.00000000      -0.00031603      -0.00033761       0.18287886       0.00716599       0.00984551       0.42431830
Cu       8.98379165       1.28339881      11.83696273       0.00000000       0.00000000       0.00000000       0.00000000       0.00017719      -0.00010624       0.18293831      -0.02332405       0.01002170       0.43355316
Cu       1.28339881       3.85019642      11.83696273       0.00000000       0.00000000       0.00000000       0.00000000      -0.00120926      -0.00040733       0.18391551       0.01059145       0.00198553       0.43516609
Cu       3.85019642       3.85019642      11.83696273       0.00000000       0.00000000       0.00000000       0.00000000       0.00128485      -0.00016393       0.18431795       0.00345447       0.00105906       0.41635610
Cu       6.41699404       3.85019642      11.83696273       0.00000000       0.00000000       0.00000000       0.00000000      -0.00030343       0.00034271       0.18290542       0.01211135      -0.00820697       0.42162555
Cu       8.98379165       3.85019642      11.83696273       0.00000000       0.00000000       0.00000000       0.00000000       0.00016245       0.00010908       0.18296359      -0.02500758      -0.00516390       0.43126367
Cu       1.28339881       6.41699404      11.83696273       0.00000000       0.00000000       0.00000000       0.00000000      -0.00070100       0.00001588       0.18332908       0.02921841      -0.00373470       0.42264124
Cu       3.85019642       6.41699404      11.83696273       0.00000000       0.00000000       0.00000000       0.00000000       0.00098015       0.00001367       0.18358238      -0.02262395       0.00055510       0.42808258
Cu       6.41699404       6.41699404      11.83696273       0.00000000       0.00000000       0.00000000       0.00000000       0.00108623      -0.00000256       0.18582392       0.02814745      -0.00300890       0.41691348
Cu       8.98379165       6.41699404      11.83696273       0.00000000       0.00000000       0.00000000       0.00000000      -0.00134704      -0.00000103       0.18582947      -0.03324653      -0.00393537       0.42228703
Cu       7.70039285      -0.00000000      13.67392546       0.00000000       0.00000000       0.00000000       0.00000000       0.00020225       0.00018413      -0.09069413       0.00078650      -0.03407011      -0.19143936
Cu       5.13359523      -0.00000000      13.67392546       0.00000000       0.00000000       0.00000000       0.00000000      -0.00107453      -0.00412450      -0.09565267       0.00989283      -0.01479573      -0.16346727
Cu       2.56679762      -0.00000000      13.67392546       0.00000000       0.00000000       0.00000000       0.00000000      -0.00031407       0.00083016      -0.08955175      -0.00893046      -0.00753432      -0.18146039
Cu       0.00000000      -0.00000000      13.67392546       0.00000000       0.00000000       0.00000000       0.00000000       0.00098417      -0.00260718      -0.09477591       0.00564478       0.03504210      -0.14907305
Cu       0.00000000       2.56679762      13.67392546       0.00000000       0.00000000       0.00000000       0.00000000      -0.00011745       0.00002732      -0.08852795       0.01235579      -0.00213950      -0.20160381
Cu       2.56679762       2.56679762      13.67392546       0.00000000       0.00000000       0.00000000       0.00000000      -0.00174949       0.00001176      -0.09408713      -0.01651104      -0.00030063      -0.12955838
Cu       5.13359523       2.56679762      13.67392546       0.00000000       0.00000000       0.00000000       0.00000000       0.00088671       0.00003161      -0.08734403      -0.00116821       0.00337116      -0.13174432
Cu       7.70039285       2.56679762      13.67392546       0.00000000       0.00000000       0.00000000       0.00000000       0.00012617      -0.00007291      -0.09778330       0.01316125       0.00374336      -0.14223795
Cu       0.00000000       5.13359523      13.67392546       0.00000000       0.00000000       0.00000000       0.00000000       0.00089782       0.00259221      -0.09471485       0.00872817      -0.03337126      -0.16032864
Cu       2.56679762       5.13359523      13.67392546       0.00000000       0.00000000       0.00000000       0.00000000      -0.00030684      -0.00078099      -0.08935936      -0.01183734       0.00749131      -0.18742922
Cu       5.13359523       5.13359523      13.67392546       0.00000000       0.00000000       0.00000000       0.00000000      -0.00099217       0.00411663      -0.09560446       0.01054136       0.01182805      -0.16332814
Cu       7.70039285       5.13359523      13.67392546       0.00000000       0.00000000       0.00000000       0.00000000       0.00020439      -0.00011159      -0.09099546      -0.00124014       0.02939923      -0.19739524
Cu       1.28339881       1.28339881      15.51088819       0.00000000       0.00000000       0.00000000       0.00000000       0.01813899      -0.02508138      -0.26806105       0.16129810       0.15525153      -0.07775978
Cu       3.85019642       1.28339881      15.51088819       0.00000000       0.00000000       0.00000000       0.00000000      -0.06124003      -0.04797976      -0.28371043      -0.11194976       0.01564146      -0.30844655
Cu       6.41699404       1.28339881      15.51088819       0.00000000       0.00000000       0.00000000       0.00000000       0.09460901       0.07366018      -0.16189073       0.11412600      -0.04629568      -0.43159266
Cu       8.98379165       1.28339881      15.51088819       0.00000000       0.00000000       0.00000000       0.00000000      -0.09532938       0.08743023      -0.14525148      -0.02626287       0.04073798      -0.26135766
Cu       1.28339881       3.85019642      15.51088819       0.00000000       0.00000000       0.00000000       0.00000000       0.01902852       0.02580518      -0.26766635       0.15476547      -0.12376044      -0.08728104
Cu       3.85019642       3.85019642      15.51088819       0.00000000       0.00000000       0.00000000       0.00000000      -0.06222723       0.04913279      -0.28351134      -0.11894498      -0.01429266      -0.32407206
Cu       6.41699404       3.85019642      15.51088819       0.00000000       0.00000000       0.00000000       0.00000000       0.09425217      -0.07303536      -0.16207057       0.11932218       0.04588215      -0.44442928
Cu       8.98379165       3.85019642      15.51088819       0.00000000       0.00000000       0.00000000       0.00000000      -0.09479353      -0.08683845      -0.14565459      -0.02207301      -0.01285229      -0.28941419
Cu       1.28339881       6.41699404      15.51088819       0.00000000       0.00000000       0.00000000       0.00000000       0.00168629       0.00032955      -0.25051510      -0.05337773       0.01917818      -0.31464212
Cu       3.85019642       6.41699404      15.51088819       0.00000000       0.00000000       0.00000000       0.00000000      -0.01039868       0.00045043      -0.26911907       0.05866382      -0.02229527      -0.13307850
Cu       6.41699404       6.41699404      15.51088819       0.00000000       0.00000000       0.00000000       0.00000000      -0.03781942       0.00006594      -0.30888129      -0.08941793      -0.02450323      -0.19542851
Cu       8.98379165       6.41699404      15.51088819       0.00000000       0.00000000       0.00000000       0.00000000       0.05092765      -0.00020704      -0.30365416       0.03918888       0.00701198      -0.26389373
Cu       7.69874395       7.68189463      17.23512885       0.00000000       0.00778674      -0.01142772       0.13231992       0.00316674      -0.00995416       0.13918419       0.00899075      -0.05030225      -0.08768050
Cu       5.12994800       7.69641142      17.25806768       0.00000000       0.00019421      -0.02512832       0.13037439      -0.00062640      -0.01251039       0.13425749       0.02497071      -0.10661367      -0.14667996
Cu       2.55538412       7.68885186      17.23293787       0.00000000      -0.01306883      -0.01263203       0.13959902      -0.00372270      -0.00882101       0.13794574      -0.01563201      -0.03926764      -0.03744990
Cu      10.26428006       7.70991022      17.24469889       0.00000000      -0.00526134      -0.01702713       0.14917485       0.00105285      -0.00590156       0.14367554      -0.00687345       0.00419559      -0.05118968
Cu      10.29901993       2.57886443      17.24105203       0.00000000       0.09654378      -0.02634164       0.05115674       0.00229826       0.00010727       0.13446549       0.06871540      -0.04254514      -0.20597133
Cu       2.56265980       2.56848528      17.37763039       0.00000000       0.06106535       0.00235707       0.13967723      -0.00576306      -0.00021905       0.13448776      -0.20590111      -0.01800768      -0.23280344
Cu       5.18589482       2.55806768      17.18035235       0.00000000      -0.02004381       0.00136797       0.21522970      -0.00024754       0.00026336       0.12558678      -0.09612334       0.01301448       0.21144768
Cu       7.72926466       2.56664331      17.24484702       0.00000000       0.04817658       0.03843869       0.14982179       0.00764127       0.00213767       0.13600353       0.01816463       0.02275888      -0.28285828
Cu      10.26566384       5.14513591      17.24231467       0.00000000      -0.00575698      -0.00817282       0.14925259       0.00061308       0.00597787       0.14366813       0.03015170       0.00459441      -0.06767820
Cu       2.55325401       5.15333717      17.23019356       0.00000000      -0.01423098       0.01795728       0.13827252      -0.00373460       0.00916066       0.13745396      -0.01385211       0.03202306      -0.02939962
Cu       5.13141888       5.11037758      17.26857791       0.00000000       0.00113789       0.02957763       0.12581046      -0.00000401       0.01267987       0.13425899       0.00666237       0.13299703      -0.16486317
Cu       7.69986725       5.15378796      17.23078643       0.00000000       0.00523094       0.03642425       0.11971298       0.00318659       0.00947467       0.14002141      -0.00391386       0.07652209      -0.04230738
O        5.52579780       2.72209600      19.96563234       0.00000000      -0.32964928       0.00271022       0.08588924       0.01337001       0.00327398       0.02054973      -0.02326669       0.01368554       0.18304844
C        4.66081286       2.68172023      19.05547433       0.00000000      -0.18786608      -0.00764753       0.29259157       0.02046340      -0.00020592       0.03457344      -0.13251674       0.06378532       0.09924170
H        6.84396317       2.67533647      19.56383042       0.00000000       0.98378940      -0.12134723      -0.15411255       0.00907560       0.00599038       0.00772785      -0.49274449      -0.07870257       0.53586435
O        3.39935298       2.63634248      19.20566621       0.00000000      -0.27031732       0.00595639      -0.13641429       0.02075500      -0.00303672       0.00566561       0.22510319      -0.10174609       0.09517367
O        7.88897261       2.69827956      19.17764546       0.50000000      -0.27438595       0.02077959       0.25837878       0.01019524      -0.03139931       0.03486485       0.64932342      -0.10939711      -0.06182007
H        8.39726339       1.89487745      19.40961011       0.50000000      -0.27239397       0.05167201       0.23444693       0.00681161       0.01914352       0.00796572      -0.29026340       0.14450787       0.31055290
54
Lattice="10.26719046282867 0.0 0.0 0.0 7.700392847121503 0.0 0.0 0.0 27.347850919999996" Properties=species:S:1:pos:R:3:initial_magmoms:R:1:MACE_forces:R:3:forces:R:3:DFT_forces:R:3 MACE_energy=-219.04130510765515 energy=-218.98327494312278 stress="0.009287364640864227 -1.5923009327785505e-06 -0.00017830864227997187 -1.5923009327785505e-06 0.009170261350542941 2.2090300955904382e-06 -0.00017830864227997187 2.2090300955904382e-06 0.0012520742766357438" free_energy=-218.98327494312278 DFT_energy=-222.32445419 pbc="T T T"
Cu       1.28339881       1.28339881      11.83696273       0.00000000       0.00000000       0.00000000       0.00000000      -0.00120965       0.00039388       0.18392100       0.01293622       0.00234279       0.43575456
Cu       3.85019642       1.28339881      11.83696273       0.00000000       0.00000000       0.00000000       0.00000000       0.00128287       0.00015339       0.18431546       0.00133222      -0.00255172       0.41673628
Cu       6.41699404       1.28339881      11.83696273       0.00000000       0.00000000       0.00000000       0.00000000      -0.00031603      -0.00033761       0.18287886       0.00592538       0.00772147       0.42366070
Cu       8.98379165       1.28339881      11.83696273       0.00000000       0.00000000       0.00000000       0.00000000       0.00017719      -0.00010624       0.18293831      -0.02073177       0.00840362       0.43460759
Cu       1.28339881       3.85019642      11.83696273       0.00000000       0.00000000       0.00000000       0.00000000      -0.00120926      -0.00040733       0.18391551       0.01029063       0.00126333       0.43491175
Cu       3.85019642       3.85019642      11.83696273       0.00000000       0.00000000       0.00000000       0.00000000       0.00128485      -0.00016393       0.18431795       0.00239222       0.00122726       0.41573878
Cu       6.41699404       3.85019642      11.83696273       0.00000000       0.00000000       0.00000000       0.00000000      -0.00030343       0.00034271       0.18290542       0.01064405      -0.00581960       0.42044539
Cu       8.98379165       3.85019642      11.83696273       0.00000000       0.00000000       0.00000000       0.00000000       0.00016245       0.00010908       0.18296359      -0.02248660      -0.00396354       0.43238997
Cu       1.28339881       6.41699404      11.83696273       0.00000000       0.00000000       0.00000000       0.00000000      -0.00070100       0.00001588       0.18332908       0.03022546      -0.00351224       0.41966039
Cu       3.85019642       6.41699404      11.83696273       0.00000000       0.00000000       0.00000000       0.00000000       0.00098015       0.00001367       0.18358238      -0.02409019       0.00046362       0.42782423
Cu       6.41699404       6.41699404      11.83696273       0.00000000       0.00000000       0.00000000       0.00000000       0.00108623      -0.00000256       0.18582392       0.02879160      -0.00363460       0.41798930
Cu       8.98379165       6.41699404      11.83696273       0.00000000       0.00000000       0.00000000       0.00000000      -0.00134704      -0.00000103       0.18582947      -0.03357153      -0.00424679       0.42076774
Cu       7.70039285      -0.00000000      13.67392546       0.00000000       0.00000000       0.00000000       0.00000000       0.00020225       0.00018413      -0.09069413       0.00247085      -0.03226993      -0.19252364
Cu       5.13359523      -0.00000000      13.67392546       0.00000000       0.00000000       0.00000000       0.00000000      -0.00107453      -0.00412450      -0.09565267       0.00855800      -0.01257926      -0.16241473
Cu       2.56679762      -0.00000000      13.67392546       0.00000000       0.00000000       0.00000000       0.00000000      -0.00031407       0.00083016      -0.08955175      -0.00994688      -0.01052469      -0.18455726
Cu       0.00000000      -0.00000000      13.67392546       0.00000000       0.00000000       0.00000000       0.00000000       0.00098417      -0.00260718      -0.09477591       0.00631380       0.03463023      -0.14932003
Cu       0.00000000       2.56679762      13.67392546       0.00000000       0.00000000       0.00000000       0.00000000      -0.00011745       0.00002732      -0.08852795       0.00812295      -0.00159141      -0.20596546
Cu       2.56679762       2.56679762      13.67392546       0.00000000       0.00000000       0.00000000       0.00000000      -0.00174949       0.00001176      -0.09408713      -0.01278508      -0.00041333      -0.12885535
Cu       5.13359523       2.56679762      13.67392546       0.00000000       0.00000000       0.00000000       0.00000000       0.00088671       0.00003161      -0.08734403       0.00027004       0.00318243      -0.13711070
Cu       7.70039285       2.56679762      13.67392546       0.00000000       0.00000000       0.00000000       0.00000000       0.00012617      -0.00007291      -0.09778330       0.01145501       0.00348698      -0.14647415
Cu       0.00000000       5.13359523      13.67392546       0.00000000       0.00000000       0.00000000       0.00000000       0.00089782       0.00259221      -0.09471485       0.01066893      -0.03396730      -0.16196132
Cu       2.56679762       5.13359523      13.67392546       0.00000000       0.00000000       0.00000000       0.00000000      -0.00030684      -0.00078099      -0.08935936      -0.01283243       0.00995329      -0.18928272
Cu       5.13359523       5.13359523      13.67392546       0.00000000       0.00000000       0.00000000       0.00000000      -0.00099217       0.00411663      -0.09560446       0.00900046       0.00907917      -0.16427920
Cu       7.70039285       5.13359523      13.67392546       0.00000000       0.00000000       0.00000000       0.00000000       0.00020439      -0.00011159      -0.09099546      -0.00034747       0.02730514      -0.19906197
Cu       1.28339881       1.28339881      15.51088819       0.00000000       0.00000000       0.00000000       0.00000000       0.01813899      -0.02508138      -0.26806105       0.16952951       0.14180767      -0.09986888
Cu       3.85019642       1.28339881      15.51088819       0.00000000       0.00000000       0.00000000       0.00000000      -0.06124003      -0.04797976      -0.28371043      -0.10371142       0.01391955      -0.30716640
Cu       6.41699404       1.28339881      15.51088819       0.00000000       0.00000000       0.00000000       0.00000000       0.09460901       0.07366018      -0.16189073       0.10385097      -0.02765883      -0.38853048
Cu       8.98379165       1.28339881      15.51088819       0.00000000       0.00000000       0.00000000       0.00000000      -0.09532938       0.08743023      -0.14525148      -0.03960844       0.04269607      -0.24549359
Cu       1.28339881       3.85019642      15.51088819       0.00000000       0.00000000       0.00000000       0.00000000       0.01902852       0.02580518      -0.26766635       0.16112001      -0.11229664      -0.10674847
Cu       3.85019642       3.85019642      15.51088819       0.00000000       0.00000000       0.00000000       0.00000000      -0.06222723       0.04913279      -0.28351134      -0.10662259      -0.01383267      -0.31882994
Cu       6.41699404       3.85019642      15.51088819       0.00000000       0.00000000       0.00000000       0.00000000       0.09425217      -0.07303536      -0.16207057       0.09473266       0.02971057      -0.41412222
Cu       8.98379165       3.85019642      15.51088819       0.00000000       0.00000000       0.00000000       0.00000000      -0.09479353      -0.08683845      -0.14565459      -0.01928519      -0.00825822      -0.28963279
Cu       1.28339881       6.41699404      15.51088819       0.00000000       0.00000000       0.00000000       0.00000000       0.00168629       0.00032955      -0.25051510      -0.05979108       0.02011521      -0.31208588
Cu       3.85019642       6.41699404      15.51088819       0.00000000       0.00000000       0.00000000       0.00000000      -0.01039868       0.00045043      -0.26911907       0.05553769      -0.01812907      -0.14381144
Cu       6.41699404       6.41699404      15.51088819       0.00000000       0.00000000       0.00000000       0.00000000      -0.03781942       0.00006594      -0.30888129      -0.09140117      -0.01666513      -0.21435023
Cu       8.98379165       6.41699404      15.51088819       0.00000000       0.00000000       0.00000000       0.00000000       0.05092765      -0.00020704      -0.30365416       0.04766713       0.01067667      -0.27220452
Cu       7.69877386       7.68200082      17.23443877       0.00000000       0.00683283      -0.00076359       0.13360673       0.00316674      -0.00995416       0.13918419       0.00914114      -0.03268338      -0.08494201
Cu       5.13034472       7.69604785      17.25727970       0.00000000       0.00074515      -0.02384869       0.13157925      -0.00062640      -0.01251039       0.13425749       0.02683273      -0.09297628      -0.13956065
Cu       2.55491154       7.68748027      17.23198248       0.00000000      -0.01313546      -0.01364733       0.13889827      -0.00372270      -0.00882101       0.13794574      -0.01291989      -0.03773675      -0.03463822
Cu      10.26300564       7.71092161      17.24555785       0.00000000      -0.00207248      -0.02451408       0.14685503       0.00105285      -0.00590156       0.14367554      -0.01037741      -0.00112344      -0.05257706
Cu      10.30207245       2.57721148      17.23241450       0.00000000       0.07954284      -0.02484544       0.06806984       0.00229826       0.00010727       0.13446549       0.04161211      -0.03913170      -0.18075610
Cu       2.56340417       2.56868205      17.37033821       0.00000000       0.01655503      -0.00165347       0.07312335      -0.00576306      -0.00021905       0.13448776      -0.28348085      -0.02512048      -0.38526517
Cu       5.17946504       2.55829040      17.19031832       0.00000000      -0.00381100       0.00700474       0.26513228      -0.00024754       0.00026336       0.12558678      -0.08278360       0.01794848       0.24949292
Cu       7.72685124       2.57469948      17.24719477       0.00000000       0.06396137       0.00367621       0.15915379       0.00764127       0.00213767       0.13600353       0.02506583      -0.01002508      -0.34965872
Cu      10.26519191       5.14462030      17.24264546       0.00000000      -0.00277029      -0.00346399       0.14570061       0.00061308       0.00597787       0.14366813       0.02510001       0.00323010      -0.07070315
Cu       2.55337030       5.15515673      17.22939084       0.00000000      -0.01494323       0.01732302       0.13741149      -0.00373460       0.00916066       0.13745396      -0.01197905       0.02722658      -0.02719539
Cu       5.13159790       5.11400189      17.26648474       0.00000000       0.00093571       0.02654980       0.12703435      -0.00000401       0.01267987       0.13425899       0.00785092       0.11603108      -0.15965197
Cu       7.69915623       5.15485870      17.22641176       0.00000000       0.00318787       0.05304664       0.12500388       0.00318659       0.00947467       0.14002141      -0.00407781       0.08395710      -0.02871108
O        5.47678049       2.71607556      19.97479763       0.00000000      -0.26227447      -0.01746225       0.01955234       0.01337001       0.00327398       0.02054973      -0.02672272      -0.00513096       0.21512789
C        4.61668914       2.67516815      19.07661220       0.00000000      -0.14034816      -0.00689620       0.22693470       0.02046340      -0.00020592       0.03457344      -0.07434798       0.06168155       0.28496837
H        6.93272911       2.66639576      19.55810827       0.00000000       0.35105294       0.01669295       0.06149977       0.00907560       0.00599038       0.00772785      -0.11790051      -0.09188663       0.45133316
O        3.35046874       2.63266039      19.18457684       0.00000000      -0.28322821       0.00261430      -0.03005042       0.02075500      -0.00303672       0.00566561       0.22769432      -0.08719748      -0.04209102
O        7.90623207       2.71466103      19.19812428       0.50000000       0.09638293      -0.00722103       0.14614886       0.01019524      -0.03139931       0.03486485       0.10460596       0.03004267       0.13047389
H        8.37683995       1.89436583      19.43703266       0.50000000      -0.06626560      -0.05112711       0.18094813       0.00681161       0.01914352       0.00796572      -0.07793714       0.02682454       0.25851901
54
Lattice="10.26719046282867 0.0 0.0 0.0 7.700392847121503 0.0 0.0 0.0 27.347850919999996" Properties=species:S:1:pos:R:3:initial_magmoms:R:1:MACE_forces:R:3:forces:R:3:DFT_forces:R:3 MACE_energy=-219.12342582463486 energy=-218.98327494312278 stress="0.009287364640864227 -1.5923009327785505e-06 -0.00017830864227997187 -1.5923009327785505e-06 0.009170261350542941 2.2090300955904382e-06 -0.00017830864227997187 2.2090300955904382e-06 0.0012520742766357438" free_energy=-218.98327494312278 DFT_energy=-222.35896181 pbc="T T T"
Cu       1.28339881       1.28339881      11.83696273       0.00000000       0.00000000       0.00000000       0.00000000      -0.00120965       0.00039388       0.18392100       0.01508081       0.00241418       0.43592160
Cu       3.85019642       1.28339881      11.83696273       0.00000000       0.00000000       0.00000000       0.00000000       0.00128287       0.00015339       0.18431546      -0.00132498      -0.00123819       0.41606940
Cu       6.41699404       1.28339881      11.83696273       0.00000000       0.00000000       0.00000000       0.00000000      -0.00031603      -0.00033761       0.18287886       0.00531333       0.00691767       0.42372913
Cu       8.98379165       1.28339881      11.83696273       0.00000000       0.00000000       0.00000000       0.00000000       0.00017719      -0.00010624       0.18293831      -0.01879398       0.00594753       0.43770860
Cu       1.28339881       3.85019642      11.83696273       0.00000000       0.00000000       0.00000000       0.00000000      -0.00120926      -0.00040733       0.18391551       0.01264905      -0.00062012       0.43641368
Cu       3.85019642       3.85019642      11.83696273       0.00000000       0.00000000       0.00000000       0.00000000       0.00128485      -0.00016393       0.18431795       0.00032699       0.00031679       0.41634278
Cu       6.41699404       3.85019642      11.83696273       0.00000000       0.00000000       0.00000000       0.00000000      -0.00030343       0.00034271       0.18290542       0.01012343      -0.00330494       0.41986037
Cu       8.98379165       3.85019642      11.83696273       0.00000000       0.00000000       0.00000000       0.00000000       0.00016245       0.00010908       0.18296359      -0.02123110      -0.00156964       0.43483448
Cu       1.28339881       6.41699404      11.83696273       0.00000000       0.00000000       0.00000000       0.00000000      -0.00070100       0.00001588       0.18332908       0.03139164      -0.00193675       0.42062359
Cu       3.85019642       6.41699404      11.83696273       0.00000000       0.00000000       0.00000000       0.00000000       0.00098015       0.00001367       0.18358238      -0.02460939       0.00103508       0.42783973
Cu       6.41699404       6.41699404      11.83696273       0.00000000       0.00000000       0.00000000       0.00000000       0.00108623      -0.00000256       0.18582392       0.02995224      -0.00412355       0.42006247
Cu       8.98379165       6.41699404      11.83696273       0.00000000       0.00000000       0.00000000       0.00000000      -0.00134704      -0.00000103       0.18582947      -0.03353869      -0.00334826       0.41920768
Cu       7.70039285      -0.00000000      13.67392546       0.00000000       0.00000000       0.00000000       0.00000000       0.00020225       0.00018413      -0.09069413       0.00473686      -0.03069386      -0.19409065
Cu       5.13359523      -0.00000000      13.67392546       0.00000000       0.00000000       0.00000000       0.00000000      -0.00107453      -0.00412450      -0.09565267       0.00508062      -0.00715616      -0.15980444
Cu       2.56679762      -0.00000000      13.67392546       0.00000000       0.00000000       0.00000000       0.00000000      -0.00031407       0.00083016      -0.08955175      -0.00936634      -0.01285391      -0.19064602
Cu       0.00000000      -0.00000000      13.67392546       0.00000000       0.00000000       0.00000000       0.00000000       0.00098417      -0.00260718      -0.09477591       0.00733875       0.03362784      -0.15183747
Cu       0.00000000       2.56679762      13.67392546       0.00000000       0.00000000       0.00000000       0.00000000      -0.00011745       0.00002732      -0.08852795       0.00086297      -0.00036410      -0.21075329
Cu       2.56679762       2.56679762      13.67392546       0.00000000       0.00000000       0.00000000       0.00000000      -0.00174949       0.00001176      -0.09408713      -0.00761678       0.00083001      -0.12978227
Cu       5.13359523       2.56679762      13.67392546       0.00000000       0.00000000       0.00000000       0.00000000       0.00088671       0.00003161      -0.08734403       0.00581888       0.00281990      -0.14271985
Cu       7.70039285       2.56679762      13.67392546       0.00000000       0.00000000       0.00000000       0.00000000       0.00012617      -0.00007291      -0.09778330       0.00954998       0.00280538      -0.15213800
Cu       0.00000000       5.13359523      13.67392546       0.00000000       0.00000000       0.00000000       0.00000000       0.00089782       0.00259221      -0.09471485       0.01287879      -0.03372227      -0.16432079
Cu       2.56679762       5.13359523      13.67392546       0.00000000       0.00000000       0.00000000       0.00000000      -0.00030684      -0.00078099      -0.08935936      -0.01220432       0.01200570      -0.19302664
Cu       5.13359523       5.13359523      13.67392546       0.00000000       0.00000000       0.00000000       0.00000000      -0.00099217       0.00411663      -0.09560446       0.00658085       0.00488523      -0.16457439
Cu       7.70039285       5.13359523      13.67392546       0.00000000       0.00000000       0.00000000       0.00000000       0.00020439      -0.00011159      -0.09099546       0.00032367       0.02729087      -0.19961190
Cu       1.28339881       1.28339881      15.51088819       0.00000000       0.00000000       0.00000000       0.00000000       0.01813899      -0.02508138      -0.26806105       0.17053803       0.09400661      -0.15698614
Cu       3.85019642       1.28339881      15.51088819       0.00000000       0.00000000       0.00000000       0.00000000      -0.06124003      -0.04797976      -0.28371043      -0.05280481       0.02453937      -0.28432909
Cu       6.41699404       1.28339881      15.51088819       0.00000000       0.00000000       0.00000000       0.00000000       0.09460901       0.07366018      -0.16189073       0.09209998       0.04771047      -0.30145461
Cu       8.98379165       1.28339881      15.51088819       0.00000000       0.00000000       0.00000000       0.00000000      -0.09532938       0.08743023      -0.14525148      -0.04791626       0.04570159      -0.23630995
Cu       1.28339881       3.85019642      15.51088819       0.00000000       0.00000000       0.00000000       0.00000000       0.01902852       0.02580518      -0.26766635       0.15781920      -0.08508198      -0.15660637
Cu       3.85019642       3.85019642      15.51088819       0.00000000       0.00000000       0.00000000       0.00000000      -0.06222723       0.04913279      -0.28351134      -0.05431433      -0.02470699      -0.29715884
Cu       6.41699404       3.85019642      15.51088819       0.00000000       0.00000000       0.00000000       0.00000000       0.09425217      -0.07303536      -0.16207057       0.09785030      -0.03172269      -0.30512022
Cu       8.98379165       3.85019642      15.51088819       0.00000000       0.00000000       0.00000000       0.00000000      -0.09479353      -0.08683845      -0.14565459      -0.03960685      -0.01514052      -0.26090328
Cu       1.28339881       6.41699404      15.51088819       0.00000000       0.00000000       0.00000000       0.00000000       0.00168629       0.00032955      -0.25051510      -0.06805155       0.01516886      -0.31233791
Cu       3.85019642       6.41699404      15.51088819       0.00000000       0.00000000       0.00000000       0.00000000      -0.01039868       0.00045043      -0.26911907       0.05185862      -0.01114656      -0.16294431
Cu       6.41699404       6.41699404      15.51088819       0.00000000       0.00000000       0.00000000       0.00000000      -0.03781942       0.00006594      -0.30888129      -0.09583273       0.00035870      -0.22361225
Cu       8.98379165       6.41699404      15.51088819       0.00000000       0.00000000       0.00000000       0.00000000       0.05092765      -0.00020704      -0.30365416       0.05275308       0.01225426      -0.28258769
Cu       7.69780015       7.69090435      17.23339395       0.00000000       0.00363945      -0.01108067       0.13963324       0.00316674      -0.00995416       0.13918419       0.00845472      -0.04152414      -0.07194995
Cu       5.13024258       7.69685224      17.25726059       0.00000000      -0.00232193      -0.01464200       0.13375377      -0.00062640      -0.01251039       0.13425749       0.02403294      -0.07735662      -0.13733976
Cu       2.55383674       7.68433652      17.23078977       0.00000000      -0.00918293      -0.00969647       0.13961238      -0.00372270      -0.00882101       0.13794574      -0.00802764      -0.03059558      -0.03414289
Cu      10.26101603       7.70293634      17.24602363       0.00000000      -0.00082275      -0.01042572       0.14532019       0.00105285      -0.00590156       0.14367554      -0.01376010       0.01076578      -0.05814218
Cu      10.31283778       2.56807523      17.22074494       0.00000000       0.02095935      -0.00789375       0.11486027       0.00229826       0.00010727       0.13446549      -0.01436354      -0.02305972      -0.11485330
Cu       2.56608793       2.56830961      17.33844634       0.00000000       0.00023194      -0.00019608       0.10937362      -0.00576306      -0.00021905       0.13448776      -0.29534331      -0.02366229      -0.39487749
Cu       5.18290442       2.56054616      17.22378295       0.00000000      -0.01110898      -0.00060394       0.17476233      -0.00024754       0.00026336       0.12558678      -0.10636644       0.01045780       0.12856197
Cu       7.75007364       2.57367444      17.27149185       0.00000000       0.00237510       0.01572066       0.17354369       0.00764127       0.00213767       0.13600353      -0.02401475       0.00570920      -0.36260564
Cu      10.26345121       5.13802436      17.24274717       0.00000000      -0.00081077       0.00220072       0.14454404       0.00061308       0.00597787       0.14366813       0.01995956       0.00806541      -0.07641256
Cu       2.55233342       5.15742081      17.22827582       0.00000000      -0.00867611       0.01217299       0.13996077      -0.00373460       0.00916066       0.13745396      -0.00500258       0.02024605      -0.02375920
Cu       5.13047026       5.11916557      17.26327605       0.00000000      -0.00296502       0.02075502       0.12996738      -0.00000401       0.01267987       0.13425899       0.01334511       0.09661785      -0.15649919
Cu       7.69781693       5.16641616      17.22547243       0.00000000       0.00115828       0.00256047       0.12990502       0.00318659       0.00947467       0.14002141      -0.00976323       0.02361827      -0.02393316
O        5.39965741       2.67337036      19.97982119       0.00000000      -0.10301425      -0.00571252       0.03586997       0.01337001       0.00327398       0.02054973       0.02176068       0.02983232       0.36445721
C        4.52988115       2.65011536      19.09957455       0.00000000      -0.09100016      -0.00554816       0.10643670       0.02046340      -0.00020592       0.03457344       0.12735493       0.04087613       0.47092865
H        6.96239722       2.68607375      19.59054870       0.00000000       0.07170606       0.00718022       0.08954255       0.00907560       0.00599038       0.00772785      -0.06305844      -0.08396287       0.39740180
O        3.26175283       2.62800818      19.17890761       0.00000000      -0.12522013      -0.00446578       0.03819141       0.02075500      -0.00303672       0.00566561       0.17656663      -0.06433250      -0.30063117
O        7.91691588       2.73048658      19.24447420       0.50000000       0.08917147      -0.02331894       0.13686377       0.01019524      -0.03139931       0.03486485      -0.10353207      -0.00800583       0.14344803
H        8.37437797       1.91618282      19.52529910       0.50000000      -0.04412796      -0.02252749       0.09098200       0.00681161       0.01914352       0.00796572      -0.04195845       0.03440517       0.17539172
54
Lattice="10.26719046282867 0.0 0.0 0.0 7.700392847121503 0.0 0.0 0.0 27.347850919999996" Properties=species:S:1:pos:R:3:initial_magmoms:R:1:MACE_forces:R:3:forces:R:3:DFT_forces:R:3 MACE_energy=-219.1435494113753 energy=-218.98327494312278 stress="0.009287364640864227 -1.5923009327785505e-06 -0.00017830864227997187 -1.5923009327785505e-06 0.009170261350542941 2.2090300955904382e-06 -0.00017830864227997187 2.2090300955904382e-06 0.0012520742766357438" free_energy=-218.98327494312278 DFT_energy=-222.36924197 pbc="T T T"
Cu       1.28339881       1.28339881      11.83696273       0.00000000       0.00000000       0.00000000       0.00000000      -0.00120965       0.00039388       0.18392100       0.01560337       0.00286920       0.43615584
Cu       3.85019642       1.28339881      11.83696273       0.00000000       0.00000000       0.00000000       0.00000000       0.00128287       0.00015339       0.18431546      -0.00286109      -0.00013424       0.41661163
Cu       6.41699404       1.28339881      11.83696273       0.00000000       0.00000000       0.00000000       0.00000000      -0.00031603      -0.00033761       0.18287886       0.00478177       0.00645167       0.42532210
Cu       8.98379165       1.28339881      11.83696273       0.00000000       0.00000000       0.00000000       0.00000000       0.00017719      -0.00010624       0.18293831      -0.01729196       0.00366865       0.43848053
Cu       1.28339881       3.85019642      11.83696273       0.00000000       0.00000000       0.00000000       0.00000000      -0.00120926      -0.00040733       0.18391551       0.01320310      -0.00191846       0.43683595
Cu       3.85019642       3.85019642      11.83696273       0.00000000       0.00000000       0.00000000       0.00000000       0.00128485      -0.00016393       0.18431795      -0.00050542      -0.00044939       0.41743960
Cu       6.41699404       3.85019642      11.83696273       0.00000000       0.00000000       0.00000000       0.00000000      -0.00030343       0.00034271       0.18290542       0.00919403      -0.00198339       0.42073252
Cu       8.98379165       3.85019642      11.83696273       0.00000000       0.00000000       0.00000000       0.00000000       0.00016245       0.00010908       0.18296359      -0.01991950      -0.00034650       0.43601509
Cu       1.28339881       6.41699404      11.83696273       0.00000000       0.00000000       0.00000000       0.00000000      -0.00070100       0.00001588       0.18332908       0.03090787      -0.00156672       0.42203327
Cu       3.85019642       6.41699404      11.83696273       0.00000000       0.00000000       0.00000000       0.00000000       0.00098015       0.00001367       0.18358238      -0.02474232       0.00061935       0.42824762
Cu       6.41699404       6.41699404      11.83696273       0.00000000       0.00000000       0.00000000       0.00000000       0.00108623      -0.00000256       0.18582392       0.03048076      -0.00470563       0.42158835
Cu       8.98379165       6.41699404      11.83696273       0.00000000       0.00000000       0.00000000       0.00000000      -0.00134704      -0.00000103       0.18582947      -0.03321879      -0.00275386       0.41908842
Cu       7.70039285      -0.00000000      13.67392546       0.00000000       0.00000000       0.00000000       0.00000000       0.00020225       0.00018413      -0.09069413       0.00428413      -0.02936422      -0.19366095
Cu       5.13359523      -0.00000000      13.67392546       0.00000000       0.00000000       0.00000000       0.00000000      -0.00107453      -0.00412450      -0.09565267       0.00424095      -0.00487112      -0.15777414
Cu       2.56679762      -0.00000000      13.67392546       0.00000000       0.00000000       0.00000000       0.00000000      -0.00031407       0.00083016      -0.08955175      -0.00887367      -0.01381044      -0.19322519
Cu       0.00000000      -0.00000000      13.67392546       0.00000000       0.00000000       0.00000000       0.00000000       0.00098417      -0.00260718      -0.09477591       0.00656140       0.03261992      -0.15222552
Cu       0.00000000       2.56679762      13.67392546       0.00000000       0.00000000       0.00000000       0.00000000      -0.00011745       0.00002732      -0.08852795      -0.00483312       0.00038291      -0.21152539
Cu       2.56679762       2.56679762      13.67392546       0.00000000       0.00000000       0.00000000       0.00000000      -0.00174949       0.00001176      -0.09408713      -0.00625846       0.00040918      -0.12893244
Cu       5.13359523       2.56679762      13.67392546       0.00000000       0.00000000       0.00000000       0.00000000       0.00088671       0.00003161      -0.08734403       0.00845467       0.00267638      -0.14529682
Cu       7.70039285       2.56679762      13.67392546       0.00000000       0.00000000       0.00000000       0.00000000       0.00012617      -0.00007291      -0.09778330       0.00854936       0.00253597      -0.15406389
Cu       0.00000000       5.13359523      13.67392546       0.00000000       0.00000000       0.00000000       0.00000000       0.00089782       0.00259221      -0.09471485       0.01448032      -0.03363073      -0.16535264
Cu       2.56679762       5.13359523      13.67392546       0.00000000       0.00000000       0.00000000       0.00000000      -0.00030684      -0.00078099      -0.08935936      -0.01185332       0.01326774      -0.19493203
Cu       5.13359523       5.13359523      13.67392546       0.00000000       0.00000000       0.00000000       0.00000000      -0.00099217       0.00411663      -0.09560446       0.00387711       0.00280401      -0.16565928
Cu       7.70039285       5.13359523      13.67392546       0.00000000       0.00000000       0.00000000       0.00000000       0.00020439      -0.00011159      -0.09099546      -0.00011736       0.02591930      -0.19805241
Cu       1.28339881       1.28339881      15.51088819       0.00000000       0.00000000       0.00000000       0.00000000       0.01813899      -0.02508138      -0.26806105       0.15316771       0.06963906      -0.19167531
Cu       3.85019642       1.28339881      15.51088819       0.00000000       0.00000000       0.00000000       0.00000000      -0.06124003      -0.04797976      -0.28371043      -0.04654244       0.01341983      -0.29299671
Cu       6.41699404       1.28339881      15.51088819       0.00000000       0.00000000       0.00000000       0.00000000       0.09460901       0.07366018      -0.16189073       0.08385194       0.08175858      -0.25373413
Cu       8.98379165       1.28339881      15.51088819       0.00000000       0.00000000       0.00000000       0.00000000      -0.09532938       0.08743023      -0.14525148      -0.08575263       0.05705867      -0.20697438
Cu       1.28339881       3.85019642      15.51088819       0.00000000       0.00000000       0.00000000       0.00000000       0.01902852       0.02580518      -0.26766635       0.13973740      -0.07040171      -0.18465313
Cu       3.85019642       3.85019642      15.51088819       0.00000000       0.00000000       0.00000000       0.00000000      -0.06222723       0.04913279      -0.28351134      -0.04606609      -0.01901797      -0.30157389
Cu       6.41699404       3.85019642      15.51088819       0.00000000       0.00000000       0.00000000       0.00000000       0.09425217      -0.07303536      -0.16207057       0.07581281      -0.06461216      -0.26796733
Cu       8.98379165       3.85019642      15.51088819       0.00000000       0.00000000       0.00000000       0.00000000      -0.09479353      -0.08683845      -0.14565459      -0.06450539      -0.02853112      -0.24056881
Cu       1.28339881       6.41699404      15.51088819       0.00000000       0.00000000       0.00000000       0.00000000       0.00168629       0.00032955      -0.25051510      -0.07156075       0.01426141      -0.30567462
Cu       3.85019642       6.41699404      15.51088819       0.00000000       0.00000000       0.00000000       0.00000000      -0.01039868       0.00045043      -0.26911907       0.05029220      -0.00394611      -0.17602148
Cu       6.41699404       6.41699404      15.51088819       0.00000000       0.00000000       0.00000000       0.00000000      -0.03781942       0.00006594      -0.30888129      -0.09082298       0.00777324      -0.21583793
Cu       8.98379165       6.41699404      15.51088819       0.00000000       0.00000000       0.00000000       0.00000000       0.05092765      -0.00020704      -0.30365416       0.05230194       0.01258009      -0.28079875
Cu       7.69777977       7.69288651      17.23494589       0.00000000       0.00416556      -0.00570868       0.13637671       0.00316674      -0.00995416       0.13918419       0.00999004      -0.03535537      -0.07184385
Cu       5.13046959       7.69911585      17.25785425       0.00000000      -0.00234452      -0.01382971       0.13531656      -0.00062640      -0.01251039       0.13425749       0.02393982      -0.07809759      -0.13870557
Cu       2.55331396       7.68192622      17.22956386       0.00000000      -0.00656464      -0.01225116       0.14091593      -0.00372270      -0.00882101       0.13794574      -0.00483839      -0.02953385      -0.03066216
Cu      10.25968217       7.70203953      17.24680319       0.00000000       0.00237871      -0.01175187       0.14357235       0.00105285      -0.00590156       0.14367554      -0.01101208       0.00770313      -0.06287799
Cu      10.30265856       2.56507347      17.21361117       0.00000000      -0.00616918      -0.00267583       0.14468161       0.00229826       0.00010727       0.13446549      -0.03562795      -0.01676168      -0.07992304
Cu       2.55205454       2.56756163      17.31848824       0.00000000       0.00552099       0.00082663       0.14212638      -0.00576306      -0.00021905       0.13448776      -0.27417464      -0.01640977      -0.38801337
Cu       5.16543276       2.56088922      17.23457722       0.00000000      -0.00474754       0.00159435       0.17147939      -0.00024754       0.00026336       0.12558678      -0.08928660       0.01236857       0.11383496
Cu       7.73597536       2.57701875      17.29010450       0.00000000       0.03023853      -0.00143934       0.15084181       0.00764127       0.00213767       0.13600353       0.01869245      -0.01558936      -0.39940054
Cu      10.26325979       5.13648936      17.24288112       0.00000000       0.00114978       0.00386866       0.14410562       0.00061308       0.00597787       0.14366813       0.01957686       0.00908837      -0.08077306
Cu       2.55311848       5.15761969      17.22802952       0.00000000      -0.00720557       0.01194743       0.14098955      -0.00373460       0.00916066       0.13745396      -0.00389840       0.02011770      -0.02352834
Cu       5.12975922       5.12257083      17.25994702       0.00000000      -0.00346765       0.01585492       0.13640678      -0.00000401       0.01267987       0.13425899       0.01660105       0.08747586      -0.14935811
Cu       7.69754350       5.16370903      17.22328901       0.00000000       0.00446166       0.02012362       0.13983783       0.00318659       0.00947467       0.14002141      -0.00764343       0.04087502      -0.01185309
O        5.33282269       2.63576282      19.98370363       0.00000000      -0.06805531      -0.01276932       0.02233956       0.01337001       0.00327398       0.02054973       0.04230708       0.01882566       0.38492837
C        4.46325263       2.62141895      19.10494472       0.00000000      -0.03193715      -0.00735522       0.09099147       0.02046340      -0.00020592       0.03457344       0.20255781       0.02841749       0.53317174
H        6.92799936       2.69506559      19.61347445       0.00000000       0.02970562       0.02957528       0.07058428       0.00907560       0.00599038       0.00772785      -0.11010284      -0.07972824       0.34319777
O        3.19470388       2.60750556      19.17428966       0.00000000      -0.06848958      -0.00197356       0.04498432       0.02075500      -0.00303672       0.00566561       0.15448363      -0.04301249      -0.36513806
O        7.87746027       2.78022190      19.27253918       0.50000000       0.03289119      -0.02416222       0.10456797       0.01019524      -0.03139931       0.03486485      -0.12023858       0.01654278       0.11621105
H        8.36806836       1.99420179      19.57397157       0.50000000      -0.00906254      -0.04379524       0.08576740       0.00681161       0.01914352       0.00796572      -0.00538337       0.00440240       0.17135954
54
Lattice="10.26719046282867 0.0 0.0 0.0 7.700392847121503 0.0 0.0 0.0 27.347850919999996" Properties=species:S:1:pos:R:3:initial_magmoms:R:1:MACE_forces:R:3:forces:R:3:DFT_forces:R:3 MACE_energy=-219.14953448293033 energy=-218.98327494312278 stress="0.009287364640864227 -1.5923009327785505e-06 -0.00017830864227997187 -1.5923009327785505e-06 0.009170261350542941 2.2090300955904382e-06 -0.00017830864227997187 2.2090300955904382e-06 0.0012520742766357438" free_energy=-218.98327494312278 DFT_energy=-222.37828843 pbc="T T T"
Cu       1.28339881       1.28339881      11.83696273       0.00000000       0.00000000       0.00000000       0.00000000      -0.00120965       0.00039388       0.18392100       0.01578190       0.00331076       0.43616134
Cu       3.85019642       1.28339881      11.83696273       0.00000000       0.00000000       0.00000000       0.00000000       0.00128287       0.00015339       0.18431546      -0.00408597       0.00062709       0.41724823
Cu       6.41699404       1.28339881      11.83696273       0.00000000       0.00000000       0.00000000       0.00000000      -0.00031603      -0.00033761       0.18287886       0.00443982       0.00587519       0.42666185
Cu       8.98379165       1.28339881      11.83696273       0.00000000       0.00000000       0.00000000       0.00000000       0.00017719      -0.00010624       0.18293831      -0.01685377       0.00238886       0.43912546
Cu       1.28339881       3.85019642      11.83696273       0.00000000       0.00000000       0.00000000       0.00000000      -0.00120926      -0.00040733       0.18391551       0.01338807      -0.00258914       0.43698626
Cu       3.85019642       3.85019642      11.83696273       0.00000000       0.00000000       0.00000000       0.00000000       0.00128485      -0.00016393       0.18431795      -0.00146189      -0.00086842       0.41835071
Cu       6.41699404       3.85019642      11.83696273       0.00000000       0.00000000       0.00000000       0.00000000      -0.00030343       0.00034271       0.18290542       0.00862109      -0.00105568       0.42144116
Cu       8.98379165       3.85019642      11.83696273       0.00000000       0.00000000       0.00000000       0.00000000       0.00016245       0.00010908       0.18296359      -0.01943761       0.00021697       0.43682474
Cu       1.28339881       6.41699404      11.83696273       0.00000000       0.00000000       0.00000000       0.00000000      -0.00070100       0.00001588       0.18332908       0.03036837      -0.00157412       0.42292841
Cu       3.85019642       6.41699404      11.83696273       0.00000000       0.00000000       0.00000000       0.00000000       0.00098015       0.00001367       0.18358238      -0.02500731       0.00031991       0.42890596
Cu       6.41699404       6.41699404      11.83696273       0.00000000       0.00000000       0.00000000       0.00000000       0.00108623      -0.00000256       0.18582392       0.03044141      -0.00497667       0.42273445
Cu       8.98379165       6.41699404      11.83696273       0.00000000       0.00000000       0.00000000       0.00000000      -0.00134704      -0.00000103       0.18582947      -0.03327335      -0.00239092       0.41959765
Cu       7.70039285      -0.00000000      13.67392546       0.00000000       0.00000000       0.00000000       0.00000000       0.00020225       0.00018413      -0.09069413       0.00376368      -0.02872375      -0.19420999
Cu       5.13359523      -0.00000000      13.67392546       0.00000000       0.00000000       0.00000000       0.00000000      -0.00107453      -0.00412450      -0.09565267       0.00423108      -0.00417551      -0.15700317
Cu       2.56679762      -0.00000000      13.67392546       0.00000000       0.00000000       0.00000000       0.00000000      -0.00031407       0.00083016      -0.08955175      -0.00874351      -0.01411397      -0.19408598
Cu       0.00000000      -0.00000000      13.67392546       0.00000000       0.00000000       0.00000000       0.00000000       0.00098417      -0.00260718      -0.09477591       0.00531369       0.03228954      -0.15259451
Cu       0.00000000       2.56679762      13.67392546       0.00000000       0.00000000       0.00000000       0.00000000      -0.00011745       0.00002732      -0.08852795      -0.00730341       0.00064786      -0.21114885
Cu       2.56679762       2.56679762      13.67392546       0.00000000       0.00000000       0.00000000       0.00000000      -0.00174949       0.00001176      -0.09408713      -0.00593320       0.00018391      -0.12879743
Cu       5.13359523       2.56679762      13.67392546       0.00000000       0.00000000       0.00000000       0.00000000       0.00088671       0.00003161      -0.08734403       0.00917279       0.00255709      -0.14613766
Cu       7.70039285       2.56679762      13.67392546       0.00000000       0.00000000       0.00000000       0.00000000       0.00012617      -0.00007291      -0.09778330       0.00788032       0.00263715      -0.15535404
Cu       0.00000000       5.13359523      13.67392546       0.00000000       0.00000000       0.00000000       0.00000000       0.00089782       0.00259221      -0.09471485       0.01498719      -0.03374040      -0.16587604
Cu       2.56679762       5.13359523      13.67392546       0.00000000       0.00000000       0.00000000       0.00000000      -0.00030684      -0.00078099      -0.08935936      -0.01169875       0.01391554      -0.19551618
Cu       5.13359523       5.13359523      13.67392546       0.00000000       0.00000000       0.00000000       0.00000000      -0.00099217       0.00411663      -0.09560446       0.00223454       0.00241909      -0.16660787
Cu       7.70039285       5.13359523      13.67392546       0.00000000       0.00000000       0.00000000       0.00000000       0.00020439      -0.00011159      -0.09099546      -0.00047796       0.02484103      -0.19740355
Cu       1.28339881       1.28339881      15.51088819       0.00000000       0.00000000       0.00000000       0.00000000       0.01813899      -0.02508138      -0.26806105       0.14673600       0.06708855      -0.19391020
Cu       3.85019642       1.28339881      15.51088819       0.00000000       0.00000000       0.00000000       0.00000000      -0.06124003      -0.04797976      -0.28371043      -0.04888644       0.01292535      -0.29001427
Cu       6.41699404       1.28339881      15.51088819       0.00000000       0.00000000       0.00000000       0.00000000       0.09460901       0.07366018      -0.16189073       0.08293217       0.09651498      -0.23496443
Cu       8.98379165       1.28339881      15.51088819       0.00000000       0.00000000       0.00000000       0.00000000      -0.09532938       0.08743023      -0.14525148      -0.09797040       0.06148834      -0.19860599
Cu       1.28339881       3.85019642      15.51088819       0.00000000       0.00000000       0.00000000       0.00000000       0.01902852       0.02580518      -0.26766635       0.13361580      -0.07482733      -0.18412287
Cu       3.85019642       3.85019642      15.51088819       0.00000000       0.00000000       0.00000000       0.00000000      -0.06222723       0.04913279      -0.28351134      -0.04663825      -0.02230232      -0.29492923
Cu       6.41699404       3.85019642      15.51088819       0.00000000       0.00000000       0.00000000       0.00000000       0.09425217      -0.07303536      -0.16207057       0.07355459      -0.07478473      -0.24437345
Cu       8.98379165       3.85019642      15.51088819       0.00000000       0.00000000       0.00000000       0.00000000      -0.09479353      -0.08683845      -0.14565459      -0.07633091      -0.03257008      -0.22663708
Cu       1.28339881       6.41699404      15.51088819       0.00000000       0.00000000       0.00000000       0.00000000       0.00168629       0.00032955      -0.25051510      -0.07294020       0.01287778      -0.30241666
Cu       3.85019642       6.41699404      15.51088819       0.00000000       0.00000000       0.00000000       0.00000000      -0.01039868       0.00045043      -0.26911907       0.05059380      -0.00046189      -0.18056796
Cu       6.41699404       6.41699404      15.51088819       0.00000000       0.00000000       0.00000000       0.00000000      -0.03781942       0.00006594      -0.30888129      -0.08849610       0.00809074      -0.21064675
Cu       8.98379165       6.41699404      15.51088819       0.00000000       0.00000000       0.00000000       0.00000000       0.05092765      -0.00020704      -0.30365416       0.05172585       0.01025632      -0.27779895
Cu       7.69742696       7.69446293      17.23462406       0.00000000       0.00478077      -0.00625460       0.13829543       0.00316674      -0.00995416       0.13918419       0.01250437      -0.03304474      -0.06202499
Cu       5.13056025       7.70054017      17.25856144       0.00000000      -0.00133051      -0.01323090       0.13554708      -0.00062640      -0.01251039       0.13425749       0.02367548      -0.07825925      -0.14021010
Cu       2.55351868       7.67990337      17.22902081       0.00000000      -0.00775555      -0.00920195       0.14166454      -0.00372270      -0.00882101       0.13794574      -0.00681671      -0.02388649      -0.02905495
Cu      10.25943763       7.70160628      17.24686966       0.00000000       0.00186045      -0.01229456       0.14419160       0.00105285      -0.00590156       0.14367554      -0.00950547       0.00687167      -0.06338073
Cu      10.29622812       2.56350222      17.21380254       0.00000000       0.00451547      -0.00113221       0.14461098       0.00229826       0.00010727       0.13446549      -0.01889798      -0.01256258      -0.08599868
Cu       2.54599072       2.56726127      17.31698771       0.00000000       0.01025638       0.00056365       0.14035024      -0.00576306      -0.00021905       0.13448776      -0.26473100      -0.01113304      -0.39833780
Cu       5.15989824       2.56143661      17.23819745       0.00000000       0.00016899       0.00160433       0.16591614      -0.00024754       0.00026336       0.12558678      -0.08342565       0.01198457       0.10557259
Cu       7.73351126       2.57510265      17.29946139       0.00000000       0.02800190       0.00523851       0.17807738       0.00764127       0.00213767       0.13600353       0.02354098      -0.01519585      -0.37037976
Cu      10.26378709       5.13518955      17.24283401       0.00000000       0.00119293       0.00675720       0.14410608       0.00061308       0.00597787       0.14366813       0.01839634       0.01019121      -0.08217197
Cu       2.55396951       5.15692698      17.22818194       0.00000000      -0.00786269       0.00945975       0.14170771      -0.00373460       0.00916066       0.13745396      -0.00417526       0.01915719      -0.02445551
Cu       5.12923387       5.12463901      17.25919648       0.00000000      -0.00175232       0.01396519       0.13519954      -0.00000401       0.01267987       0.13425899       0.01809129       0.08280713      -0.14904096
Cu       7.69769397       5.16404336      17.22430419       0.00000000       0.00466267       0.01555504       0.13876538       0.00318659       0.00947467       0.14002141      -0.00781239       0.03422106      -0.01379099
O        5.31615755       2.60930552      19.98162750       0.00000000      -0.02563058      -0.02110897       0.05852216       0.01337001       0.00327398       0.02054973       0.07158239       0.00819998       0.43887261
C        4.44419244       2.59949260      19.10732091       0.00000000      -0.04242969      -0.01084315       0.07257964       0.02046340      -0.00020592       0.03457344       0.22496663       0.01838986       0.54691427
H        6.92924548       2.68976240      19.63801309       0.00000000       0.00209702       0.02162292       0.05833444       0.00907560       0.00599038       0.00772785      -0.08590478      -0.04344286       0.24282537
O        3.17569310       2.58788179      19.17680529       0.00000000      -0.05336598       0.00254929       0.03141692       0.02075500      -0.00303672       0.00566561       0.11844932      -0.02950347      -0.41261858
O        7.86896916       2.81624683      19.29145047       0.50000000       0.03864819       0.01387772       0.03263847       0.01019524      -0.03139931       0.03486485      -0.13595926       0.01517008       0.09885453
H        8.41194384       2.07380296      19.61027657       0.50000000      -0.01422117      -0.06491458       0.08946714       0.00681161       0.01914352       0.00796572      -0.01822145      -0.02228161       0.17518253
54
Lattice="10.26719046282867 0.0 0.0 0.0 7.700392847121503 0.0 0.0 0.0 27.347850919999996" Properties=species:S:1:pos:R:3:initial_magmoms:R:1:MACE_forces:R:3:forces:R:3:DFT_forces:R:3 MACE_energy=-219.16049500580905 energy=-218.98327494312278 stress="0.009287364640864227 -1.5923009327785505e-06 -0.00017830864227997187 -1.5923009327785505e-06 0.009170261350542941 2.2090300955904382e-06 -0.00017830864227997187 2.2090300955904382e-06 0.0012520742766357438" free_energy=-218.98327494312278 DFT_energy=-222.38797445 pbc="T T T"
Cu       1.28339881       1.28339881      11.83696273       0.00000000       0.00000000       0.00000000       0.00000000      -0.00120965       0.00039388       0.18392100       0.01687116       0.00406585       0.43579066
Cu       3.85019642       1.28339881      11.83696273       0.00000000       0.00000000       0.00000000       0.00000000       0.00128287       0.00015339       0.18431546      -0.00487215       0.00173200       0.41747852
Cu       6.41699404       1.28339881      11.83696273       0.00000000       0.00000000       0.00000000       0.00000000      -0.00031603      -0.00033761       0.18287886       0.00418554       0.00575249       0.42746250
Cu       8.98379165       1.28339881      11.83696273       0.00000000       0.00000000       0.00000000       0.00000000       0.00017719      -0.00010624       0.18293831      -0.01571351       0.00111849       0.43912421
Cu       1.28339881       3.85019642      11.83696273       0.00000000       0.00000000       0.00000000       0.00000000      -0.00120926      -0.00040733       0.18391551       0.01421878      -0.00301764       0.43690493
Cu       3.85019642       3.85019642      11.83696273       0.00000000       0.00000000       0.00000000       0.00000000       0.00128485      -0.00016393       0.18431795      -0.00188511      -0.00136212       0.41888363
Cu       6.41699404       3.85019642      11.83696273       0.00000000       0.00000000       0.00000000       0.00000000      -0.00030343       0.00034271       0.18290542       0.00784268      -0.00008964       0.42170387
Cu       8.98379165       3.85019642      11.83696273       0.00000000       0.00000000       0.00000000       0.00000000       0.00016245       0.00010908       0.18296359      -0.01794518       0.00156622       0.43706442
Cu       1.28339881       6.41699404      11.83696273       0.00000000       0.00000000       0.00000000       0.00000000      -0.00070100       0.00001588       0.18332908       0.03034363      -0.00127885       0.42377287
Cu       3.85019642       6.41699404      11.83696273       0.00000000       0.00000000       0.00000000       0.00000000       0.00098015       0.00001367       0.18358238      -0.02473500       0.00048179       0.42909592
Cu       6.41699404       6.41699404      11.83696273       0.00000000       0.00000000       0.00000000       0.00000000       0.00108623      -0.00000256       0.18582392       0.03028112      -0.00496600       0.42411709
Cu       8.98379165       6.41699404      11.83696273       0.00000000       0.00000000       0.00000000       0.00000000      -0.00134704      -0.00000103       0.18582947      -0.03222650      -0.00186236       0.41967626
Cu       7.70039285      -0.00000000      13.67392546       0.00000000       0.00000000       0.00000000       0.00000000       0.00020225       0.00018413      -0.09069413       0.00355474      -0.02659851      -0.19400667
Cu       5.13359523      -0.00000000      13.67392546       0.00000000       0.00000000       0.00000000       0.00000000      -0.00107453      -0.00412450      -0.09565267       0.00369780      -0.00278652      -0.15595606
Cu       2.56679762      -0.00000000      13.67392546       0.00000000       0.00000000       0.00000000       0.00000000      -0.00031407       0.00083016      -0.08955175      -0.00756817      -0.01485985      -0.19578270
Cu       0.00000000      -0.00000000      13.67392546       0.00000000       0.00000000       0.00000000       0.00000000       0.00098417      -0.00260718      -0.09477591       0.00452556       0.03255637      -0.15258869
Cu       0.00000000       2.56679762      13.67392546       0.00000000       0.00000000       0.00000000       0.00000000      -0.00011745       0.00002732      -0.08852795      -0.01107810       0.00108592      -0.21142143
Cu       2.56679762       2.56679762      13.67392546       0.00000000       0.00000000       0.00000000       0.00000000      -0.00174949       0.00001176      -0.09408713      -0.00499144       0.00052640      -0.12778253
Cu       5.13359523       2.56679762      13.67392546       0.00000000       0.00000000       0.00000000       0.00000000       0.00088671       0.00003161      -0.08734403       0.01087465       0.00275588      -0.14651846
Cu       7.70039285       2.56679762      13.67392546       0.00000000       0.00000000       0.00000000       0.00000000       0.00012617      -0.00007291      -0.09778330       0.00786079       0.00269034      -0.15567198
Cu       0.00000000       5.13359523      13.67392546       0.00000000       0.00000000       0.00000000       0.00000000       0.00089782       0.00259221      -0.09471485       0.01594781      -0.03359042      -0.16687433
Cu       2.56679762       5.13359523      13.67392546       0.00000000       0.00000000       0.00000000       0.00000000      -0.00030684      -0.00078099      -0.08935936      -0.01095918       0.01518236      -0.19591833
Cu       5.13359523       5.13359523      13.67392546       0.00000000       0.00000000       0.00000000       0.00000000      -0.00099217       0.00411663      -0.09560446       0.00066455       0.00180951      -0.16745899
Cu       7.70039285       5.13359523      13.67392546       0.00000000       0.00000000       0.00000000       0.00000000       0.00020439      -0.00011159      -0.09099546      -0.00051294       0.02304598      -0.19553294
Cu       1.28339881       1.28339881      15.51088819       0.00000000       0.00000000       0.00000000       0.00000000       0.01813899      -0.02508138      -0.26806105       0.11946231       0.06287134      -0.20388421
Cu       3.85019642       1.28339881      15.51088819       0.00000000       0.00000000       0.00000000       0.00000000      -0.06124003      -0.04797976      -0.28371043      -0.03911121       0.01457066      -0.28628028
Cu       6.41699404       1.28339881      15.51088819       0.00000000       0.00000000       0.00000000       0.00000000       0.09460901       0.07366018      -0.16189073       0.07457345       0.12700654      -0.19636412
Cu       8.98379165       1.28339881      15.51088819       0.00000000       0.00000000       0.00000000       0.00000000      -0.09532938       0.08743023      -0.14525148      -0.11687258       0.07511233      -0.17622023
Cu       1.28339881       3.85019642      15.51088819       0.00000000       0.00000000       0.00000000       0.00000000       0.01902852       0.02580518      -0.26766635       0.10757129      -0.07349673      -0.19380810
Cu       3.85019642       3.85019642      15.51088819       0.00000000       0.00000000       0.00000000       0.00000000      -0.06222723       0.04913279      -0.28351134      -0.03466371      -0.02574486      -0.28940640
Cu       6.41699404       3.85019642      15.51088819       0.00000000       0.00000000       0.00000000       0.00000000       0.09425217      -0.07303536      -0.16207057       0.06527683      -0.10206206      -0.20151188
Cu       8.98379165       3.85019642      15.51088819       0.00000000       0.00000000       0.00000000       0.00000000      -0.09479353      -0.08683845      -0.14565459      -0.09483600      -0.04572297      -0.19923330
Cu       1.28339881       6.41699404      15.51088819       0.00000000       0.00000000       0.00000000       0.00000000       0.00168629       0.00032955      -0.25051510      -0.07283794       0.01338023      -0.29899233
Cu       3.85019642       6.41699404      15.51088819       0.00000000       0.00000000       0.00000000       0.00000000      -0.01039868       0.00045043      -0.26911907       0.05364949       0.00320542      -0.18773717
Cu       6.41699404       6.41699404      15.51088819       0.00000000       0.00000000       0.00000000       0.00000000      -0.03781942       0.00006594      -0.30888129      -0.08546137       0.00929620      -0.20269038
Cu       8.98379165       6.41699404      15.51088819       0.00000000       0.00000000       0.00000000       0.00000000       0.05092765      -0.00020704      -0.30365416       0.04985815       0.00976199      -0.27629501
Cu       7.69674142       7.69706766      17.23498388       0.00000000       0.00737868      -0.01090754       0.13798700       0.00316674      -0.00995416       0.13918419       0.01578904      -0.03558018      -0.05700368
Cu       5.13022516       7.70165052      17.25927834       0.00000000       0.00073710      -0.01497966       0.13454928      -0.00062640      -0.01251039       0.13425749       0.02536889      -0.07927937      -0.14015939
Cu       2.55385397       7.67857286      17.22863342       0.00000000      -0.00762632      -0.00841469       0.14141574      -0.00372270      -0.00882101       0.13794574      -0.00610052      -0.01999884      -0.02907430
Cu      10.25912210       7.70064175      17.24691823       0.00000000       0.00079975      -0.00760029       0.14567036       0.00105285      -0.00590156       0.14367554      -0.00967226       0.00855956      -0.06437036
Cu      10.28354202       2.56245638      17.21867767       0.00000000       0.01579056      -0.00185835       0.12165807       0.00229826       0.00010727       0.13446549      -0.00140147      -0.01152573      -0.11371981
Cu       2.53268479       2.56781679      17.30288382       0.00000000       0.02316479       0.00003630       0.16581157      -0.00576306      -0.00021905       0.13448776      -0.24383071      -0.00877035      -0.38856022
Cu       5.14990458       2.56101102      17.25162203       0.00000000      -0.00242106       0.00042113       0.13755063      -0.00024754       0.00026336       0.12558678      -0.08548695       0.01373329       0.07830083
Cu       7.72820079       2.57273015      17.31897468       0.00000000       0.02074010       0.00622021       0.14370360       0.00764127       0.00213767       0.13600353       0.02560393      -0.02331835      -0.41258868
Cu      10.26463961       5.13442330      17.24280002       0.00000000       0.00056568       0.00536651       0.14506236       0.00061308       0.00597787       0.14366813       0.01480302       0.00902011      -0.08425145
Cu       2.55531487       5.15807075      17.22812267       0.00000000      -0.00864820       0.00787696       0.14159522      -0.00373460       0.00916066       0.13745396      -0.00469558       0.01571654      -0.02438575
Cu       5.12917950       5.12527336      17.25855934       0.00000000      -0.00105721       0.01667839       0.13263251      -0.00000401       0.01267987       0.13425899       0.02072241       0.08100694      -0.14818912
Cu       7.69824272       5.16418608      17.22495806       0.00000000       0.00638993       0.01408202       0.13651916       0.00318659       0.00947467       0.14002141      -0.00600740       0.03157795      -0.01739917
O        5.25950758       2.58476312      19.99443025       0.00000000       0.05526520      -0.00971042       0.06450848       0.01337001       0.00327398       0.02054973       0.14570946       0.02207461       0.46562649
C        4.39630363       2.58480006      19.11307583       0.00000000      -0.02636121      -0.00507834       0.05530491       0.02046340      -0.00020592       0.03457344       0.23141926       0.00109073       0.56614958
H        6.89233033       2.72710854      19.66110737       0.00000000      -0.04252102       0.01960798       0.02456947       0.00907560       0.00599038       0.00772785      -0.09415407      -0.06136000       0.27597639
O        3.12717309       2.58267141      19.17036371       0.00000000      -0.05109728      -0.00370101       0.02789435       0.02075500      -0.00303672       0.00566561       0.09166127      -0.01004017      -0.45709781
O        7.82732943       2.85989612      19.31120722       0.50000000       0.02274662      -0.00882642       0.08232117       0.01019524      -0.03139931       0.03486485      -0.17293319       0.00383326       0.06251430
H        8.38039260       2.14727332      19.67709884       0.50000000       0.00947997      -0.04625855       0.04312006       0.00681161       0.01914352       0.00796572       0.00821463      -0.00887575       0.13509379
54
Lattice="10.26719046282867 0.0 0.0 0.0 7.700392847121503 0.0 0.0 0.0 27.347850919999996" Properties=species:S:1:pos:R:3:initial_magmoms:R:1:MACE_forces:R:3:forces:R:3:DFT_forces:R:3 MACE_energy=-219.16613031128696 energy=-218.98327494312278 stress="0.009287364640864227 -1.5923009327785505e-06 -0.00017830864227997187 -1.5923009327785505e-06 0.009170261350542941 2.2090300955904382e-06 -0.00017830864227997187 2.2090300955904382e-06 0.0012520742766357438" free_energy=-218.98327494312278 DFT_energy=-222.39513561 pbc="T T T"
Cu       1.28339881       1.28339881      11.83696273       0.00000000       0.00000000       0.00000000       0.00000000      -0.00120965       0.00039388       0.18392100       0.01796119       0.00471653       0.43492093
Cu       3.85019642       1.28339881      11.83696273       0.00000000       0.00000000       0.00000000       0.00000000       0.00128287       0.00015339       0.18431546      -0.00626980       0.00235343       0.41772592
Cu       6.41699404       1.28339881      11.83696273       0.00000000       0.00000000       0.00000000       0.00000000      -0.00031603      -0.00033761       0.18287886       0.00380817       0.00543660       0.42739209
Cu       8.98379165       1.28339881      11.83696273       0.00000000       0.00000000       0.00000000       0.00000000       0.00017719      -0.00010624       0.18293831      -0.01511332       0.00029451       0.43843933
Cu       1.28339881       3.85019642      11.83696273       0.00000000       0.00000000       0.00000000       0.00000000      -0.00120926      -0.00040733       0.18391551       0.01511289      -0.00402135       0.43634505
Cu       3.85019642       3.85019642      11.83696273       0.00000000       0.00000000       0.00000000       0.00000000       0.00128485      -0.00016393       0.18431795      -0.00292890      -0.00210329       0.41932264
Cu       6.41699404       3.85019642      11.83696273       0.00000000       0.00000000       0.00000000       0.00000000      -0.00030343       0.00034271       0.18290542       0.00691919       0.00040847       0.42135896
Cu       8.98379165       3.85019642      11.83696273       0.00000000       0.00000000       0.00000000       0.00000000       0.00016245       0.00010908       0.18296359      -0.01710924       0.00220646       0.43663471
Cu       1.28339881       6.41699404      11.83696273       0.00000000       0.00000000       0.00000000       0.00000000      -0.00070100       0.00001588       0.18332908       0.03024590      -0.00107590       0.42465406
Cu       3.85019642       6.41699404      11.83696273       0.00000000       0.00000000       0.00000000       0.00000000       0.00098015       0.00001367       0.18358238      -0.02491285       0.00047723       0.42844010
Cu       6.41699404       6.41699404      11.83696273       0.00000000       0.00000000       0.00000000       0.00000000       0.00108623      -0.00000256       0.18582392       0.02958392      -0.00501417       0.42463305
Cu       8.98379165       6.41699404      11.83696273       0.00000000       0.00000000       0.00000000       0.00000000      -0.00134704      -0.00000103       0.18582947      -0.03154510      -0.00163907       0.41985952
Cu       7.70039285      -0.00000000      13.67392546       0.00000000       0.00000000       0.00000000       0.00000000       0.00020225       0.00018413      -0.09069413       0.00312782      -0.02387982      -0.19334363
Cu       5.13359523      -0.00000000      13.67392546       0.00000000       0.00000000       0.00000000       0.00000000      -0.00107453      -0.00412450      -0.09565267       0.00290171      -0.00262119      -0.15594968
Cu       2.56679762      -0.00000000      13.67392546       0.00000000       0.00000000       0.00000000       0.00000000      -0.00031407       0.00083016      -0.08955175      -0.00687107      -0.01554892      -0.19698292
Cu       0.00000000      -0.00000000      13.67392546       0.00000000       0.00000000       0.00000000       0.00000000       0.00098417      -0.00260718      -0.09477591       0.00365919       0.03221331      -0.15309821
Cu       0.00000000       2.56679762      13.67392546       0.00000000       0.00000000       0.00000000       0.00000000      -0.00011745       0.00002732      -0.08852795      -0.01397015       0.00137099      -0.21141103
Cu       2.56679762       2.56679762      13.67392546       0.00000000       0.00000000       0.00000000       0.00000000      -0.00174949       0.00001176      -0.09408713      -0.00457633       0.00057453      -0.12792820
Cu       5.13359523       2.56679762      13.67392546       0.00000000       0.00000000       0.00000000       0.00000000       0.00088671       0.00003161      -0.08734403       0.01192078       0.00259813      -0.14533829
Cu       7.70039285       2.56679762      13.67392546       0.00000000       0.00000000       0.00000000       0.00000000       0.00012617      -0.00007291      -0.09778330       0.00807136       0.00257751      -0.15595328
Cu       0.00000000       5.13359523      13.67392546       0.00000000       0.00000000       0.00000000       0.00000000       0.00089782       0.00259221      -0.09471485       0.01593798      -0.03345213      -0.16779916
Cu       2.56679762       5.13359523      13.67392546       0.00000000       0.00000000       0.00000000       0.00000000      -0.00030684      -0.00078099      -0.08935936      -0.01046256       0.01580364      -0.19605680
Cu       5.13359523       5.13359523      13.67392546       0.00000000       0.00000000       0.00000000       0.00000000      -0.00099217       0.00411663      -0.09560446      -0.00075632       0.00172517      -0.16842981
Cu       7.70039285       5.13359523      13.67392546       0.00000000       0.00000000       0.00000000       0.00000000       0.00020439      -0.00011159      -0.09099546      -0.00061096       0.02054450      -0.19387426
Cu       1.28339881       1.28339881      15.51088819       0.00000000       0.00000000       0.00000000       0.00000000       0.01813899      -0.02508138      -0.26806105       0.10801943       0.05341629      -0.21506647
Cu       3.85019642       1.28339881      15.51088819       0.00000000       0.00000000       0.00000000       0.00000000      -0.06124003      -0.04797976      -0.28371043      -0.03733052       0.01366419      -0.28612291
Cu       6.41699404       1.28339881      15.51088819       0.00000000       0.00000000       0.00000000       0.00000000       0.09460901       0.07366018      -0.16189073       0.07608848       0.15216977      -0.16220921
Cu       8.98379165       1.28339881      15.51088819       0.00000000       0.00000000       0.00000000       0.00000000      -0.09532938       0.08743023      -0.14525148      -0.14159534       0.08622338      -0.15458571
Cu       1.28339881       3.85019642      15.51088819       0.00000000       0.00000000       0.00000000       0.00000000       0.01902852       0.02580518      -0.26766635       0.09788408      -0.06844958      -0.20483353
Cu       3.85019642       3.85019642      15.51088819       0.00000000       0.00000000       0.00000000       0.00000000      -0.06222723       0.04913279      -0.28351134      -0.03056265      -0.02570312      -0.28854326
Cu       6.41699404       3.85019642      15.51088819       0.00000000       0.00000000       0.00000000       0.00000000       0.09425217      -0.07303536      -0.16207057       0.06872218      -0.12331988      -0.16457613
Cu       8.98379165       3.85019642      15.51088819       0.00000000       0.00000000       0.00000000       0.00000000      -0.09479353      -0.08683845      -0.14565459      -0.11881871      -0.05711190      -0.17477454
Cu       1.28339881       6.41699404      15.51088819       0.00000000       0.00000000       0.00000000       0.00000000       0.00168629       0.00032955      -0.25051510      -0.07680364       0.01221431      -0.29093750
Cu       3.85019642       6.41699404      15.51088819       0.00000000       0.00000000       0.00000000       0.00000000      -0.01039868       0.00045043      -0.26911907       0.05344736       0.00640852      -0.19014739
Cu       6.41699404       6.41699404      15.51088819       0.00000000       0.00000000       0.00000000       0.00000000      -0.03781942       0.00006594      -0.30888129      -0.07903019       0.01203902      -0.19332055
Cu       8.98379165       6.41699404      15.51088819       0.00000000       0.00000000       0.00000000       0.00000000       0.05092765      -0.00020704      -0.30365416       0.04766954       0.00954997      -0.27149925
Cu       7.69639571       7.70062190      17.23639340       0.00000000       0.00716015      -0.01294089       0.13482913       0.00316674      -0.00995416       0.13918419       0.01454630      -0.03754139      -0.05848885
Cu       5.12985595       7.70214130      17.26006542       0.00000000       0.00129408      -0.01375363       0.13257248      -0.00062640      -0.01251039       0.13425749       0.02492271      -0.07848129      -0.14193806
Cu       2.55295838       7.67809397      17.22908554       0.00000000      -0.00445569      -0.00867325       0.13843015      -0.00372270      -0.00882101       0.13794574      -0.00265305      -0.02012347      -0.03368222
Cu      10.25763283       7.69919883      17.24851911       0.00000000       0.00339476      -0.00538661       0.14072738       0.00105285      -0.00590156       0.14367554      -0.00500388       0.00673978      -0.07294818
Cu      10.27626323       2.56059520      17.21671405       0.00000000       0.00990959       0.00111180       0.13741070       0.00229826       0.00010727       0.13446549      -0.00699858      -0.00674687      -0.09492801
Cu       2.52533302       2.56848662      17.29608466       0.00000000       0.01643771      -0.00028241       0.15093379      -0.00576306      -0.00021905       0.13448776      -0.24228345      -0.00698924      -0.40873373
Cu       5.14189618       2.56082405      17.25846342       0.00000000      -0.00321673      -0.00027194       0.14752377      -0.00024754       0.00026336       0.12558678      -0.08187140       0.01503625       0.08941134
Cu       7.72678217       2.57384990      17.34361474       0.00000000       0.02011971       0.00113620       0.12992494       0.00764127       0.00213767       0.13600353       0.03966780      -0.02783844      -0.41115400
Cu      10.26468175       5.13204613      17.24436382       0.00000000       0.00093257       0.00838167       0.14072240       0.00061308       0.00597787       0.14366813       0.01300175       0.01265632      -0.09147479
Cu       2.55578793       5.15887868      17.22873752       0.00000000      -0.00710174       0.00758028       0.13872427      -0.00373460       0.00916066       0.13745396      -0.00370382       0.01544180      -0.02882640
Cu       5.12979204       5.12639491      17.25791806       0.00000000      -0.00226680       0.01447029       0.13160900      -0.00000401       0.01267987       0.13425899       0.02090009       0.07509017      -0.14703207
Cu       7.69974342       5.16507975      17.22675385       0.00000000       0.00427606       0.00958371       0.13440106       0.00318659       0.00947467       0.14002141      -0.00781332       0.02780220      -0.02209241
O        5.21707557       2.56244329      20.00760099       0.00000000      -0.00012118      -0.00247606       0.03152788       0.01337001       0.00327398       0.02054973       0.11309448       0.03772652       0.43624982
C        4.36263287       2.57397535      19.11662220       0.00000000       0.00016336      -0.00579658       0.06181505       0.02046340      -0.00020592       0.03457344       0.27267772      -0.01189409       0.61469523
H        6.83516826       2.75369189      19.67840093       0.00000000       0.01266798       0.00410067       0.02042705       0.00907560       0.00599038       0.00772785      -0.10257411      -0.05187434       0.21176553
O        3.09223657       2.58128508      19.16506992       0.00000000      -0.00440752      -0.00785036       0.05111073       0.02075500      -0.00303672       0.00566561       0.11370078      -0.00137096      -0.45942708
O        7.77569437       2.89407401      19.34217821       0.50000000       0.02678945      -0.00759345       0.04749470       0.01019524      -0.03139931       0.03486485      -0.13269206      -0.02460269       0.05565706
H        8.33932073       2.21797565      19.75790580       0.50000000      -0.00655108      -0.03138593      -0.00603668       0.00681161       0.01914352       0.00796572      -0.00873152       0.00192359       0.09600220
54
Lattice="10.26719046282867 0.0 0.0 0.0 7.700392847121503 0.0 0.0 0.0 27.347850919999996" Properties=species:S:1:pos:R:3:initial_magmoms:R:1:MACE_forces:R:3:forces:R:3:DFT_forces:R:3 MACE_energy=-219.16843143696573 energy=-218.98327494312278 stress="0.009287364640864227 -1.5923009327785505e-06 -0.00017830864227997187 -1.5923009327785505e-06 0.009170261350542941 2.2090300955904382e-06 -0.00017830864227997187 2.2090300955904382e-06 0.0012520742766357438" free_energy=-218.98327494312278 DFT_energy=-222.39309793 pbc="T T T"
Cu       1.28339881       1.28339881      11.83696273       0.00000000       0.00000000       0.00000000       0.00000000      -0.00120965       0.00039388       0.18392100       0.01627514       0.00545830       0.43391064
Cu       3.85019642       1.28339881      11.83696273       0.00000000       0.00000000       0.00000000       0.00000000       0.00128287       0.00015339       0.18431546      -0.00594514       0.00206504       0.41818522
Cu       6.41699404       1.28339881      11.83696273       0.00000000       0.00000000       0.00000000       0.00000000      -0.00031603      -0.00033761       0.18287886       0.00384883       0.00424279       0.42734080
Cu       8.98379165       1.28339881      11.83696273       0.00000000       0.00000000       0.00000000       0.00000000       0.00017719      -0.00010624       0.18293831      -0.01429034      -0.00044536       0.43763862
Cu       1.28339881       3.85019642      11.83696273       0.00000000       0.00000000       0.00000000       0.00000000      -0.00120926      -0.00040733       0.18391551       0.01391279      -0.00399935       0.43465813
Cu       3.85019642       3.85019642      11.83696273       0.00000000       0.00000000       0.00000000       0.00000000       0.00128485      -0.00016393       0.18431795      -0.00330806      -0.00171919       0.41918682
Cu       6.41699404       3.85019642      11.83696273       0.00000000       0.00000000       0.00000000       0.00000000      -0.00030343       0.00034271       0.18290542       0.00661856       0.00084628       0.42153210
Cu       8.98379165       3.85019642      11.83696273       0.00000000       0.00000000       0.00000000       0.00000000       0.00016245       0.00010908       0.18296359      -0.01632362       0.00276121       0.43619965
Cu       1.28339881       6.41699404      11.83696273       0.00000000       0.00000000       0.00000000       0.00000000      -0.00070100       0.00001588       0.18332908       0.02891904      -0.00178245       0.42656289
Cu       3.85019642       6.41699404      11.83696273       0.00000000       0.00000000       0.00000000       0.00000000       0.00098015       0.00001367       0.18358238      -0.02461053      -0.00007125       0.43013898
Cu       6.41699404       6.41699404      11.83696273       0.00000000       0.00000000       0.00000000       0.00000000       0.00108623      -0.00000256       0.18582392       0.02964517      -0.00447276       0.42699157
Cu       8.98379165       6.41699404      11.83696273       0.00000000       0.00000000       0.00000000       0.00000000      -0.00134704      -0.00000103       0.18582947      -0.03133006      -0.00199986       0.42097013
Cu       7.70039285      -0.00000000      13.67392546       0.00000000       0.00000000       0.00000000       0.00000000       0.00020225       0.00018413      -0.09069413       0.00262082      -0.02310556      -0.19239508
Cu       5.13359523      -0.00000000      13.67392546       0.00000000       0.00000000       0.00000000       0.00000000      -0.00107453      -0.00412450      -0.09565267       0.00079764       0.00116141      -0.15568225
Cu       2.56679762      -0.00000000      13.67392546       0.00000000       0.00000000       0.00000000       0.00000000      -0.00031407       0.00083016      -0.08955175      -0.00639615      -0.01259405      -0.19669924
Cu       0.00000000      -0.00000000      13.67392546       0.00000000       0.00000000       0.00000000       0.00000000       0.00098417      -0.00260718      -0.09477591       0.00392998       0.03339689      -0.15379033
Cu       0.00000000       2.56679762      13.67392546       0.00000000       0.00000000       0.00000000       0.00000000      -0.00011745       0.00002732      -0.08852795      -0.01444812       0.00124284      -0.20856030
Cu       2.56679762       2.56679762      13.67392546       0.00000000       0.00000000       0.00000000       0.00000000      -0.00174949       0.00001176      -0.09408713      -0.00390947      -0.00046910      -0.12928429
Cu       5.13359523       2.56679762      13.67392546       0.00000000       0.00000000       0.00000000       0.00000000       0.00088671       0.00003161      -0.08734403       0.01130997       0.00239667      -0.14786245
Cu       7.70039285       2.56679762      13.67392546       0.00000000       0.00000000       0.00000000       0.00000000       0.00012617      -0.00007291      -0.09778330       0.00635144       0.00323927      -0.15647030
Cu       0.00000000       5.13359523      13.67392546       0.00000000       0.00000000       0.00000000       0.00000000       0.00089782       0.00259221      -0.09471485       0.01497452      -0.03469001      -0.16799231
Cu       2.56679762       5.13359523      13.67392546       0.00000000       0.00000000       0.00000000       0.00000000      -0.00030684      -0.00078099      -0.08935936      -0.00988260       0.01327809      -0.19679019
Cu       5.13359523       5.13359523      13.67392546       0.00000000       0.00000000       0.00000000       0.00000000      -0.00099217       0.00411663      -0.09560446      -0.00317525      -0.00222100      -0.16717079
Cu       7.70039285       5.13359523      13.67392546       0.00000000       0.00000000       0.00000000       0.00000000       0.00020439      -0.00011159      -0.09099546      -0.00009443       0.01912183      -0.19259553
Cu       1.28339881       1.28339881      15.51088819       0.00000000       0.00000000       0.00000000       0.00000000       0.01813899      -0.02508138      -0.26806105       0.11809042       0.06011352      -0.19796016
Cu       3.85019642       1.28339881      15.51088819       0.00000000       0.00000000       0.00000000       0.00000000      -0.06124003      -0.04797976      -0.28371043      -0.03345663       0.03029308      -0.25606933
Cu       6.41699404       1.28339881      15.51088819       0.00000000       0.00000000       0.00000000       0.00000000       0.09460901       0.07366018      -0.16189073       0.05275763       0.17397815      -0.12671116
Cu       8.98379165       1.28339881      15.51088819       0.00000000       0.00000000       0.00000000       0.00000000      -0.09532938       0.08743023      -0.14525148      -0.13959322       0.08664625      -0.15047419
Cu       1.28339881       3.85019642      15.51088819       0.00000000       0.00000000       0.00000000       0.00000000       0.01902852       0.02580518      -0.26766635       0.10792806      -0.07372832      -0.18916617
Cu       3.85019642       3.85019642      15.51088819       0.00000000       0.00000000       0.00000000       0.00000000      -0.06222723       0.04913279      -0.28351134      -0.02733750      -0.04031978      -0.25849689
Cu       6.41699404       3.85019642      15.51088819       0.00000000       0.00000000       0.00000000       0.00000000       0.09425217      -0.07303536      -0.16207057       0.04659372      -0.14804347      -0.13012141
Cu       8.98379165       3.85019642      15.51088819       0.00000000       0.00000000       0.00000000       0.00000000      -0.09479353      -0.08683845      -0.14565459      -0.11923756      -0.06002846      -0.16809990
Cu       1.28339881       6.41699404      15.51088819       0.00000000       0.00000000       0.00000000       0.00000000       0.00168629       0.00032955      -0.25051510      -0.06954237       0.01022829      -0.28109092
Cu       3.85019642       6.41699404      15.51088819       0.00000000       0.00000000       0.00000000       0.00000000      -0.01039868       0.00045043      -0.26911907       0.04646635       0.00570122      -0.19952991
Cu       6.41699404       6.41699404      15.51088819       0.00000000       0.00000000       0.00000000       0.00000000      -0.03781942       0.00006594      -0.30888129      -0.07945200       0.01149112      -0.19205341
Cu       8.98379165       6.41699404      15.51088819       0.00000000       0.00000000       0.00000000       0.00000000       0.05092765      -0.00020704      -0.30365416       0.04976862       0.01003949      -0.27130531
Cu       7.69670201       7.69952145      17.23584960       0.00000000       0.00584594      -0.01342783       0.13519573       0.00316674      -0.00995416       0.13918419       0.01245452      -0.03549086      -0.05565523
Cu       5.12993142       7.70205046      17.25912254       0.00000000      -0.00024463      -0.01240205       0.13314990      -0.00062640      -0.01251039       0.13425749       0.02389325      -0.07041137      -0.13553912
Cu       2.55436911       7.67946798      17.23009311       0.00000000      -0.00369834      -0.00841812       0.13684397      -0.00372270      -0.00882101       0.13794574      -0.00406640      -0.02278420      -0.03536616
Cu      10.25841161       7.69963001      17.24847819       0.00000000       0.00303161      -0.00592405       0.14131478       0.00105285      -0.00590156       0.14367554      -0.00499472       0.00337737      -0.07464626
Cu      10.27738836       2.56107725      17.21728032       0.00000000       0.01444461       0.00064020       0.13422246       0.00229826       0.00010727       0.13446549       0.00460650      -0.00719005      -0.09824953
Cu       2.53374079       2.56843555      17.30640428       0.00000000       0.01063857       0.00023517       0.20455630      -0.00576306      -0.00021905       0.13448776      -0.20745280      -0.00661502      -0.32397459
Cu       5.12737381       2.56127612      17.27758780       0.00000000      -0.05382058      -0.00125904       0.23472186      -0.00024754       0.00026336       0.12558678      -0.11777237       0.01268659       0.15069787
Cu       7.72443701       2.57271036      17.34368091       0.00000000       0.00234450      -0.00526388       0.13434485       0.00764127       0.00213767       0.13600353       0.02979405      -0.03304297      -0.40992931
Cu      10.26474306       5.13203161      17.24460491       0.00000000       0.00122112       0.00828040       0.14110158       0.00061308       0.00597787       0.14366813       0.01220452       0.01448415      -0.09314685
Cu       2.55677759       5.15738397      17.22972583       0.00000000      -0.00612770       0.00823120       0.13681501      -0.00373460       0.00916066       0.13745396      -0.00424145       0.01921864      -0.03186596
Cu       5.12954843       5.12685021      17.25713316       0.00000000      -0.00408766       0.01352581       0.13204671      -0.00000401       0.01267987       0.13425899       0.01826092       0.06806008      -0.14068015
Cu       7.69962259       5.16409779      17.22668054       0.00000000       0.00390370       0.01035148       0.13478699       0.00318659       0.00947467       0.14002141      -0.00748279       0.02567149      -0.02042238
O        5.19240685       2.56289383      20.03449725       0.00000000      -0.02477839      -0.00294405      -0.01168209       0.01337001       0.00327398       0.02054973       0.09364692       0.03395680       0.38809094
C        4.31819057       2.57508568      19.16396343       0.00000000       0.06385325      -0.00765204      -0.05007173       0.02046340      -0.00020592       0.03457344       0.32016157      -0.01233285       0.44997422
H        6.82012476       2.74191621      19.68835015       0.00000000       0.02345747       0.00259439       0.00446031       0.00907560       0.00599038       0.00772785      -0.11030980      -0.02700898       0.23542415
O        3.05121570       2.58347726      19.21942619       0.00000000       0.04831215      -0.00803772      -0.08390340       0.02075500      -0.00303672       0.00566561       0.11010588      -0.00025447      -0.57854450
O        7.75574872       2.88192981      19.34254302       0.50000000       0.01335013       0.01208357       0.07484626       0.01019524      -0.03139931       0.03486485      -0.10740359      -0.02281414       0.04446159
H        8.33386848       2.22949866      19.77538331       0.50000000      -0.01412252      -0.03848528      -0.01962108       0.00681161       0.01914352       0.00796572      -0.01987986      -0.00752197       0.08242755
54
Lattice="10.26719046282867 0.0 0.0 0.0 7.700392847121503 0.0 0.0 0.0 27.347850919999996" Properties=species:S:1:pos:R:3:initial_magmoms:R:1:MACE_forces:R:3:forces:R:3:DFT_forces:R:3 MACE_energy=-219.16072100738512 energy=-218.98327494312278 stress="0.009287364640864227 -1.5923009327785505e-06 -0.00017830864227997187 -1.5923009327785505e-06 0.009170261350542941 2.2090300955904382e-06 -0.00017830864227997187 2.2090300955904382e-06 0.0012520742766357438" free_energy=-218.98327494312278 DFT_energy=-222.37931734 pbc="T T T"
Cu       1.28339881       1.28339881      11.83696273       0.00000000       0.00000000       0.00000000       0.00000000      -0.00120965       0.00039388       0.18392100       0.01663716       0.00552227       0.43265961
Cu       3.85019642       1.28339881      11.83696273       0.00000000       0.00000000       0.00000000       0.00000000       0.00128287       0.00015339       0.18431546      -0.00597420       0.00220344       0.41782723
Cu       6.41699404       1.28339881      11.83696273       0.00000000       0.00000000       0.00000000       0.00000000      -0.00031603      -0.00033761       0.18287886       0.00434765       0.00348587       0.42700337
Cu       8.98379165       1.28339881      11.83696273       0.00000000       0.00000000       0.00000000       0.00000000       0.00017719      -0.00010624       0.18293831      -0.01448097      -0.00139893       0.43738082
Cu       1.28339881       3.85019642      11.83696273       0.00000000       0.00000000       0.00000000       0.00000000      -0.00120926      -0.00040733       0.18391551       0.01428839      -0.00384485       0.43347723
Cu       3.85019642       3.85019642      11.83696273       0.00000000       0.00000000       0.00000000       0.00000000       0.00128485      -0.00016393       0.18431795      -0.00335715      -0.00182727       0.41872155
Cu       6.41699404       3.85019642      11.83696273       0.00000000       0.00000000       0.00000000       0.00000000      -0.00030343       0.00034271       0.18290542       0.00696228       0.00169977       0.42146281
Cu       8.98379165       3.85019642      11.83696273       0.00000000       0.00000000       0.00000000       0.00000000       0.00016245       0.00010908       0.18296359      -0.01646920       0.00396756       0.43588492
Cu       1.28339881       6.41699404      11.83696273       0.00000000       0.00000000       0.00000000       0.00000000      -0.00070100       0.00001588       0.18332908       0.02847182      -0.00164798       0.42783239
Cu       3.85019642       6.41699404      11.83696273       0.00000000       0.00000000       0.00000000       0.00000000       0.00098015       0.00001367       0.18358238      -0.02364969       0.00008882       0.43018211
Cu       6.41699404       6.41699404      11.83696273       0.00000000       0.00000000       0.00000000       0.00000000       0.00108623      -0.00000256       0.18582392       0.02980817      -0.00440304       0.42753135
Cu       8.98379165       6.41699404      11.83696273       0.00000000       0.00000000       0.00000000       0.00000000      -0.00134704      -0.00000103       0.18582947      -0.03136795      -0.00198715       0.42152253
Cu       7.70039285      -0.00000000      13.67392546       0.00000000       0.00000000       0.00000000       0.00000000       0.00020225       0.00018413      -0.09069413       0.00288930      -0.02226286      -0.19176445
Cu       5.13359523      -0.00000000      13.67392546       0.00000000       0.00000000       0.00000000       0.00000000      -0.00107453      -0.00412450      -0.09565267      -0.00176173       0.00402254      -0.15435408
Cu       2.56679762      -0.00000000      13.67392546       0.00000000       0.00000000       0.00000000       0.00000000      -0.00031407       0.00083016      -0.08955175      -0.00573701      -0.01044045      -0.19629952
Cu       0.00000000      -0.00000000      13.67392546       0.00000000       0.00000000       0.00000000       0.00000000       0.00098417      -0.00260718      -0.09477591       0.00432749       0.03434791      -0.15417495
Cu       0.00000000       2.56679762      13.67392546       0.00000000       0.00000000       0.00000000       0.00000000      -0.00011745       0.00002732      -0.08852795      -0.01447550       0.00142448      -0.20510282
Cu       2.56679762       2.56679762      13.67392546       0.00000000       0.00000000       0.00000000       0.00000000      -0.00174949       0.00001176      -0.09408713      -0.00284668      -0.00054467      -0.13025847
Cu       5.13359523       2.56679762      13.67392546       0.00000000       0.00000000       0.00000000       0.00000000       0.00088671       0.00003161      -0.08734403       0.01061669       0.00234239      -0.14940940
Cu       7.70039285       2.56679762      13.67392546       0.00000000       0.00000000       0.00000000       0.00000000       0.00012617      -0.00007291      -0.09778330       0.00468221       0.00331626      -0.15654705
Cu       0.00000000       5.13359523      13.67392546       0.00000000       0.00000000       0.00000000       0.00000000       0.00089782       0.00259221      -0.09471485       0.01489402      -0.03533679      -0.16816406
Cu       2.56679762       5.13359523      13.67392546       0.00000000       0.00000000       0.00000000       0.00000000      -0.00030684      -0.00078099      -0.08935936      -0.00926739       0.01128042      -0.19620538
Cu       5.13359523       5.13359523      13.67392546       0.00000000       0.00000000       0.00000000       0.00000000      -0.00099217       0.00411663      -0.09560446      -0.00521549      -0.00488726      -0.16538223
Cu       7.70039285       5.13359523      13.67392546       0.00000000       0.00000000       0.00000000       0.00000000       0.00020439      -0.00011159      -0.09099546       0.00015775       0.01848252      -0.19190797
Cu       1.28339881       1.28339881      15.51088819       0.00000000       0.00000000       0.00000000       0.00000000       0.01813899      -0.02508138      -0.26806105       0.13080260       0.07047190      -0.17692321
Cu       3.85019642       1.28339881      15.51088819       0.00000000       0.00000000       0.00000000       0.00000000      -0.06124003      -0.04797976      -0.28371043      -0.03002015       0.05358975      -0.22386736
Cu       6.41699404       1.28339881      15.51088819       0.00000000       0.00000000       0.00000000       0.00000000       0.09460901       0.07366018      -0.16189073       0.02721522       0.19818498      -0.08978339
Cu       8.98379165       1.28339881      15.51088819       0.00000000       0.00000000       0.00000000       0.00000000      -0.09532938       0.08743023      -0.14525148      -0.13868627       0.08888221      -0.14459137
Cu       1.28339881       3.85019642      15.51088819       0.00000000       0.00000000       0.00000000       0.00000000       0.01902852       0.02580518      -0.26766635       0.12059183      -0.08275172      -0.16887360
Cu       3.85019642       3.85019642      15.51088819       0.00000000       0.00000000       0.00000000       0.00000000      -0.06222723       0.04913279      -0.28351134      -0.02440798      -0.06252823      -0.22667687
Cu       6.41699404       3.85019642      15.51088819       0.00000000       0.00000000       0.00000000       0.00000000       0.09425217      -0.07303536      -0.16207057       0.02248196      -0.17355620      -0.09278443
Cu       8.98379165       3.85019642      15.51088819       0.00000000       0.00000000       0.00000000       0.00000000      -0.09479353      -0.08683845      -0.14565459      -0.12072807      -0.06498102      -0.15907190
Cu       1.28339881       6.41699404      15.51088819       0.00000000       0.00000000       0.00000000       0.00000000       0.00168629       0.00032955      -0.25051510      -0.06331252       0.00988816      -0.27266929
Cu       3.85019642       6.41699404      15.51088819       0.00000000       0.00000000       0.00000000       0.00000000      -0.01039868       0.00045043      -0.26911907       0.04132273       0.00579743      -0.20779365
Cu       6.41699404       6.41699404      15.51088819       0.00000000       0.00000000       0.00000000       0.00000000      -0.03781942       0.00006594      -0.30888129      -0.07904790       0.01024443      -0.19434634
Cu       8.98379165       6.41699404      15.51088819       0.00000000       0.00000000       0.00000000       0.00000000       0.05092765      -0.00020704      -0.30365416       0.05315189       0.00926675      -0.26883466
Cu       7.69684846       7.69824379      17.23534757       0.00000000       0.00558374      -0.01395130       0.13573154       0.00316674      -0.00995416       0.13918419       0.01282070      -0.03260889      -0.05298063
Cu       5.13002340       7.70177423      17.25774649       0.00000000       0.00040588      -0.01049717       0.13363712      -0.00062640      -0.01251039       0.13425749       0.02208085      -0.06150979      -0.12848946
Cu       2.55596756       7.68094990      17.23085935       0.00000000      -0.00412874      -0.00831643       0.13523798      -0.00372270      -0.00882101       0.13794574      -0.00694609      -0.02652125      -0.03861725
Cu      10.25923802       7.70003018      17.24854628       0.00000000       0.00240333      -0.00667067       0.14118775       0.00105285      -0.00590156       0.14367554      -0.00537037       0.00217661      -0.07712681
Cu      10.27884718       2.56151216      17.21745714       0.00000000       0.01074077       0.00038296       0.13296713       0.00229826       0.00010727       0.13446549       0.00816499      -0.00704060      -0.09736175
Cu       2.54135752       2.56847858      17.32220714       0.00000000      -0.02499276       0.00052175       0.18436311      -0.00576306      -0.00021905       0.13448776      -0.21316852      -0.00774090      -0.32969750
Cu       5.10868167       2.56160198      17.30115815       0.00000000      -0.05255660      -0.00222007       0.23138404      -0.00024754       0.00026336       0.12558678      -0.10170297       0.01038066       0.12038348
Cu       7.71958353       2.57061837      17.34436363       0.00000000      -0.00821898      -0.00559992       0.13977173       0.00764127       0.00213767       0.13600353       0.02283818      -0.03358147      -0.40712108
Cu      10.26493271       5.13194601      17.24494846       0.00000000       0.00119775       0.00860285       0.14077836       0.00061308       0.00597787       0.14366813       0.01085285       0.01495703      -0.09564840
Cu       2.55799249       5.15597570      17.23038440       0.00000000      -0.00644465       0.00880644       0.13514032      -0.00373460       0.00916066       0.13745396      -0.00670886       0.02373513      -0.03415190
Cu       5.12930341       5.12757797      17.25589751       0.00000000      -0.00333186       0.01168449       0.13222453      -0.00000401       0.01267987       0.13425899       0.01710879       0.05967901      -0.13430904
Cu       7.69947246       5.16309441      17.22667106       0.00000000       0.00401630       0.00929290       0.13502324       0.00318659       0.00947467       0.14002141      -0.00538026       0.02174567      -0.01955330
O        5.16416662       2.56321334      20.05957211       0.00000000      -0.01336969      -0.00518914      -0.00630927       0.01337001       0.00327398       0.02054973       0.10870653       0.02637357       0.40355301
C        4.27313170       2.57618831      19.20929473       0.00000000       0.09704349      -0.00888868      -0.14868072       0.02046340      -0.00020592       0.03457344       0.34097137      -0.01351316       0.39896853
H        6.80424137       2.72831791      19.69819258       0.00000000       0.00392075      -0.00093738       0.01071898       0.00907560       0.00599038       0.00772785      -0.09849333       0.00375305       0.22652527
O        3.00949958       2.58610187      19.26584183       0.00000000       0.07270294      -0.00796131      -0.13530898       0.02075500      -0.00303672       0.00566561       0.08329166       0.00090856      -0.71074833
O        7.73412115       2.87112602      19.34594406       0.50000000       0.02620544       0.04115022       0.06606814       0.01019524      -0.03139931       0.03486485      -0.10948884      -0.02149433       0.05235500
H        8.32714430       2.24324878      19.79362563       0.50000000      -0.01367183      -0.05423321      -0.02350022       0.00681161       0.01914352       0.00796572      -0.02241997      -0.02581033       0.07832071
54
Lattice="10.26719046282867 0.0 0.0 0.0 7.700392847121503 0.0 0.0 0.0 27.347850919999996" Properties=species:S:1:pos:R:3:initial_magmoms:R:1:MACE_forces:R:3:forces:R:3:DFT_forces:R:3 MACE_energy=-219.13865656202125 energy=-218.98327494312278 stress="0.009287364640864227 -1.5923009327785505e-06 -0.00017830864227997187 -1.5923009327785505e-06 0.009170261350542941 2.2090300955904382e-06 -0.00017830864227997187 2.2090300955904382e-06 0.0012520742766357438" free_energy=-218.98327494312278 DFT_energy=-222.35012652 pbc="T T T"
Cu       1.28339881       1.28339881      11.83696273       0.00000000       0.00000000       0.00000000       0.00000000      -0.00120965       0.00039388       0.18392100       0.01676215       0.00564407       0.43108801
Cu       3.85019642       1.28339881      11.83696273       0.00000000       0.00000000       0.00000000       0.00000000       0.00128287       0.00015339       0.18431546      -0.00604680       0.00181917       0.41763498
Cu       6.41699404       1.28339881      11.83696273       0.00000000       0.00000000       0.00000000       0.00000000      -0.00031603      -0.00033761       0.18287886       0.00535210       0.00281497       0.42630384
Cu       8.98379165       1.28339881      11.83696273       0.00000000       0.00000000       0.00000000       0.00000000       0.00017719      -0.00010624       0.18293831      -0.01486191      -0.00195715       0.43674195
Cu       1.28339881       3.85019642      11.83696273       0.00000000       0.00000000       0.00000000       0.00000000      -0.00120926      -0.00040733       0.18391551       0.01432165      -0.00399109       0.43209530
Cu       3.85019642       3.85019642      11.83696273       0.00000000       0.00000000       0.00000000       0.00000000       0.00128485      -0.00016393       0.18431795      -0.00338831      -0.00163409       0.41853377
Cu       6.41699404       3.85019642      11.83696273       0.00000000       0.00000000       0.00000000       0.00000000      -0.00030343       0.00034271       0.18290542       0.00796173       0.00248953       0.42137551
Cu       8.98379165       3.85019642      11.83696273       0.00000000       0.00000000       0.00000000       0.00000000       0.00016245       0.00010908       0.18296359      -0.01691447       0.00469442       0.43537866
Cu       1.28339881       6.41699404      11.83696273       0.00000000       0.00000000       0.00000000       0.00000000      -0.00070100       0.00001588       0.18332908       0.02813922      -0.00141859       0.42884667
Cu       3.85019642       6.41699404      11.83696273       0.00000000       0.00000000       0.00000000       0.00000000       0.00098015       0.00001367       0.18358238      -0.02252880       0.00033321       0.43088930
Cu       6.41699404       6.41699404      11.83696273       0.00000000       0.00000000       0.00000000       0.00000000       0.00108623      -0.00000256       0.18582392       0.02983749      -0.00457233       0.42773279
Cu       8.98379165       6.41699404      11.83696273       0.00000000       0.00000000       0.00000000       0.00000000      -0.00134704      -0.00000103       0.18582947      -0.03146271      -0.00211473       0.42226124
Cu       7.70039285      -0.00000000      13.67392546       0.00000000       0.00000000       0.00000000       0.00000000       0.00020225       0.00018413      -0.09069413       0.00315984      -0.02189208      -0.19130599
Cu       5.13359523      -0.00000000      13.67392546       0.00000000       0.00000000       0.00000000       0.00000000      -0.00107453      -0.00412450      -0.09565267      -0.00441095       0.00689380      -0.15315794
Cu       2.56679762      -0.00000000      13.67392546       0.00000000       0.00000000       0.00000000       0.00000000      -0.00031407       0.00083016      -0.08955175      -0.00533015      -0.00767543      -0.19529837
Cu       0.00000000      -0.00000000      13.67392546       0.00000000       0.00000000       0.00000000       0.00000000       0.00098417      -0.00260718      -0.09477591       0.00463657       0.03495538      -0.15441230
Cu       0.00000000       2.56679762      13.67392546       0.00000000       0.00000000       0.00000000       0.00000000      -0.00011745       0.00002732      -0.08852795      -0.01467821       0.00151154      -0.20151525
Cu       2.56679762       2.56679762      13.67392546       0.00000000       0.00000000       0.00000000       0.00000000      -0.00174949       0.00001176      -0.09408713      -0.00210825      -0.00077376      -0.13193172
Cu       5.13359523       2.56679762      13.67392546       0.00000000       0.00000000       0.00000000       0.00000000       0.00088671       0.00003161      -0.08734403       0.01010301       0.00219808      -0.15113781
Cu       7.70039285       2.56679762      13.67392546       0.00000000       0.00000000       0.00000000       0.00000000       0.00012617      -0.00007291      -0.09778330       0.00265555       0.00341294      -0.15710513
Cu       0.00000000       5.13359523      13.67392546       0.00000000       0.00000000       0.00000000       0.00000000       0.00089782       0.00259221      -0.09471485       0.01474092      -0.03569418      -0.16831620
Cu       2.56679762       5.13359523      13.67392546       0.00000000       0.00000000       0.00000000       0.00000000      -0.00030684      -0.00078099      -0.08935936      -0.00884331       0.00867091      -0.19526033
Cu       5.13359523       5.13359523      13.67392546       0.00000000       0.00000000       0.00000000       0.00000000      -0.00099217       0.00411663      -0.09560446      -0.00744865      -0.00768309      -0.16367683
Cu       7.70039285       5.13359523      13.67392546       0.00000000       0.00000000       0.00000000       0.00000000       0.00020439      -0.00011159      -0.09099546       0.00032453       0.01809973      -0.19107553
Cu       1.28339881       1.28339881      15.51088819       0.00000000       0.00000000       0.00000000       0.00000000       0.01813899      -0.02508138      -0.26806105       0.14085770       0.07862133      -0.15859287
Cu       3.85019642       1.28339881      15.51088819       0.00000000       0.00000000       0.00000000       0.00000000      -0.06124003      -0.04797976      -0.28371043      -0.03000999       0.07379326      -0.19340834
Cu       6.41699404       1.28339881      15.51088819       0.00000000       0.00000000       0.00000000       0.00000000       0.09460901       0.07366018      -0.16189073       0.01083903       0.21401460      -0.06395201
Cu       8.98379165       1.28339881      15.51088819       0.00000000       0.00000000       0.00000000       0.00000000      -0.09532938       0.08743023      -0.14525148      -0.13869838       0.09062475      -0.13905743
Cu       1.28339881       3.85019642      15.51088819       0.00000000       0.00000000       0.00000000       0.00000000       0.01902852       0.02580518      -0.26766635       0.13044243      -0.08969769      -0.15095347
Cu       3.85019642       3.85019642      15.51088819       0.00000000       0.00000000       0.00000000       0.00000000      -0.06222723       0.04913279      -0.28351134      -0.02476757      -0.08166058      -0.19649739
Cu       6.41699404       3.85019642      15.51088819       0.00000000       0.00000000       0.00000000       0.00000000       0.09425217      -0.07303536      -0.16207057       0.00733980      -0.19146618      -0.06587526
Cu       8.98379165       3.85019642      15.51088819       0.00000000       0.00000000       0.00000000       0.00000000      -0.09479353      -0.08683845      -0.14565459      -0.12280801      -0.07002538      -0.15050906
Cu       1.28339881       6.41699404      15.51088819       0.00000000       0.00000000       0.00000000       0.00000000       0.00168629       0.00032955      -0.25051510      -0.05740580       0.00959883      -0.26483361
Cu       3.85019642       6.41699404      15.51088819       0.00000000       0.00000000       0.00000000       0.00000000      -0.01039868       0.00045043      -0.26911907       0.03585521       0.00577568      -0.21931734
Cu       6.41699404       6.41699404      15.51088819       0.00000000       0.00000000       0.00000000       0.00000000      -0.03781942       0.00006594      -0.30888129      -0.07704657       0.00887295      -0.19933347
Cu       8.98379165       6.41699404      15.51088819       0.00000000       0.00000000       0.00000000       0.00000000       0.05092765      -0.00020704      -0.30365416       0.05672657       0.00846623      -0.26589758
Cu       7.69693762       7.69688154      17.23493097       0.00000000       0.00602342      -0.01423714       0.13645317       0.00316674      -0.00995416       0.13918419       0.01424165      -0.02998254      -0.05038714
Cu       5.13037639       7.70125017      17.25574892       0.00000000       0.00116655      -0.00838649       0.13479503      -0.00062640      -0.01251039       0.13425749       0.01859125      -0.05015183      -0.11766518
Cu       2.55771854       7.68250359      17.23136791       0.00000000      -0.00462443      -0.00812416       0.13458419      -0.00372270      -0.00882101       0.13794574      -0.00896625      -0.02847651      -0.04034004
Cu      10.26010472       7.70042523      17.24866436       0.00000000       0.00181943      -0.00725146       0.14105684       0.00105285      -0.00590156       0.14367554      -0.00559635       0.00082632      -0.07929646
Cu      10.28012581       2.56192121      17.21739649       0.00000000       0.00385657       0.00009634       0.13285340       0.00229826       0.00010727       0.13446549       0.00867333      -0.00695616      -0.09590360
Cu       2.54789937       2.56857944      17.33746017       0.00000000      -0.04810081       0.00094496       0.17656037      -0.00576306      -0.00021905       0.13448776      -0.21574226      -0.00728914      -0.33499789
Cu       5.09219673       2.56184504      17.31883040       0.00000000      -0.05766293      -0.00249946       0.24318019      -0.00024754       0.00026336       0.12558678      -0.10517245       0.01134756       0.13113960
Cu       7.71380156       2.56824221      17.34513020       0.00000000      -0.01230294      -0.00439816       0.14521809       0.00764127       0.00213767       0.13600353       0.02108682      -0.03280185      -0.40434716
Cu      10.26522318       5.13181920      17.24532827       0.00000000       0.00121239       0.00895733       0.14036386       0.00061308       0.00597787       0.14366813       0.01027026       0.01507806      -0.09806029
Cu       2.55938746       5.15464556      17.23070711       0.00000000      -0.00679562       0.00908100       0.13460857      -0.00373460       0.00916066       0.13745396      -0.00915987       0.02666787      -0.03526520
Cu       5.12934552       5.12862411      17.25398700       0.00000000      -0.00248320       0.00926240       0.13317060      -0.00000401       0.01267987       0.13425899       0.01419886       0.04724784      -0.12297232
Cu       7.69930799       5.16197618      17.22668542       0.00000000       0.00460185       0.00821381       0.13530875       0.00318659       0.00947467       0.14002141      -0.00301365       0.01900601      -0.01933819
O        5.13412948       2.56319956      20.08531033       0.00000000      -0.01972148      -0.00789211      -0.02205154       0.01337001       0.00327398       0.02054973       0.09877316       0.01918114       0.40824651
C        4.22258806       2.57729191      19.26094551       0.00000000       0.13497643      -0.01024302      -0.22635523       0.02046340      -0.00020592       0.03457344       0.36822676      -0.01526169       0.35843280
H        6.78879133       2.71356010      19.70850898       0.00000000       0.00138089       0.00336150       0.00910345       0.00907560       0.00599038       0.00772785      -0.09242483       0.01720495       0.23126740
O        2.96357363       2.58902652      19.31512651       0.00000000       0.09682020      -0.00804247      -0.18190532       0.02075500      -0.00303672       0.00566561       0.07345412      -0.00196091      -0.85225718
O        7.71294390       2.86125565      19.35016773       0.50000000       0.02582502       0.04928440       0.07402230       0.01019524      -0.03139931       0.03486485      -0.08908797      -0.01167952       0.05023970
H        8.32038138       2.25852798      19.81267989       0.50000000      -0.01844727      -0.05743748      -0.03691160       0.00681161       0.01914352       0.00796572      -0.02964921      -0.03304862       0.06504386
54
Lattice="10.26719046282867 0.0 0.0 0.0 7.700392847121503 0.0 0.0 0.0 27.347850919999996" Properties=species:S:1:pos:R:3:initial_magmoms:R:1:MACE_forces:R:3:forces:R:3:DFT_forces:R:3 MACE_energy=-219.1042573154684 energy=-218.98327494312278 stress="0.009287364640864227 -1.5923009327785505e-06 -0.00017830864227997187 -1.5923009327785505e-06 0.009170261350542941 2.2090300955904382e-06 -0.00017830864227997187 2.2090300955904382e-06 0.0012520742766357438" free_energy=-218.98327494312278 DFT_energy=-222.30471136 pbc="T T T"
Cu       1.28339881       1.28339881      11.83696273       0.00000000       0.00000000       0.00000000       0.00000000      -0.00120965       0.00039388       0.18392100       0.01579734       0.00556810       0.42918758
Cu       3.85019642       1.28339881      11.83696273       0.00000000       0.00000000       0.00000000       0.00000000       0.00128287       0.00015339       0.18431546      -0.00580915       0.00068481       0.41744878
Cu       6.41699404       1.28339881      11.83696273       0.00000000       0.00000000       0.00000000       0.00000000      -0.00031603      -0.00033761       0.18287886       0.00650579       0.00234775       0.42489474
Cu       8.98379165       1.28339881      11.83696273       0.00000000       0.00000000       0.00000000       0.00000000       0.00017719      -0.00010624       0.18293831      -0.01556870      -0.00194034       0.43566566
Cu       1.28339881       3.85019642      11.83696273       0.00000000       0.00000000       0.00000000       0.00000000      -0.00120926      -0.00040733       0.18391551       0.01371005      -0.00401533       0.43062447
Cu       3.85019642       3.85019642      11.83696273       0.00000000       0.00000000       0.00000000       0.00000000       0.00128485      -0.00016393       0.18431795      -0.00335883      -0.00070169       0.41866980
Cu       6.41699404       3.85019642      11.83696273       0.00000000       0.00000000       0.00000000       0.00000000      -0.00030343       0.00034271       0.18290542       0.00874100       0.00257289       0.42051566
Cu       8.98379165       3.85019642      11.83696273       0.00000000       0.00000000       0.00000000       0.00000000       0.00016245       0.00010908       0.18296359      -0.01741886       0.00425408       0.43449420
Cu       1.28339881       6.41699404      11.83696273       0.00000000       0.00000000       0.00000000       0.00000000      -0.00070100       0.00001588       0.18332908       0.02788331      -0.00162401       0.42920213
Cu       3.85019642       6.41699404      11.83696273       0.00000000       0.00000000       0.00000000       0.00000000       0.00098015       0.00001367       0.18358238      -0.02171849       0.00007290       0.43091336
Cu       6.41699404       6.41699404      11.83696273       0.00000000       0.00000000       0.00000000       0.00000000       0.00108623      -0.00000256       0.18582392       0.02929390      -0.00450131       0.42733039
Cu       8.98379165       6.41699404      11.83696273       0.00000000       0.00000000       0.00000000       0.00000000      -0.00134704      -0.00000103       0.18582947      -0.03172502      -0.00196313       0.42312354
Cu       7.70039285      -0.00000000      13.67392546       0.00000000       0.00000000       0.00000000       0.00000000       0.00020225       0.00018413      -0.09069413       0.00314261      -0.02193429      -0.19142447
Cu       5.13359523      -0.00000000      13.67392546       0.00000000       0.00000000       0.00000000       0.00000000      -0.00107453      -0.00412450      -0.09565267      -0.00704972       0.00959166      -0.15254689
Cu       2.56679762      -0.00000000      13.67392546       0.00000000       0.00000000       0.00000000       0.00000000      -0.00031407       0.00083016      -0.08955175      -0.00544205      -0.00438221      -0.19464776
Cu       0.00000000      -0.00000000      13.67392546       0.00000000       0.00000000       0.00000000       0.00000000       0.00098417      -0.00260718      -0.09477591       0.00418039       0.03508896      -0.15520018
Cu       0.00000000       2.56679762      13.67392546       0.00000000       0.00000000       0.00000000       0.00000000      -0.00011745       0.00002732      -0.08852795      -0.01533570       0.00144814      -0.19896960
Cu       2.56679762       2.56679762      13.67392546       0.00000000       0.00000000       0.00000000       0.00000000      -0.00174949       0.00001176      -0.09408713      -0.00196644      -0.00075360      -0.13487602
Cu       5.13359523       2.56679762      13.67392546       0.00000000       0.00000000       0.00000000       0.00000000       0.00088671       0.00003161      -0.08734403       0.00979088       0.00174187      -0.15435755
Cu       7.70039285       2.56679762      13.67392546       0.00000000       0.00000000       0.00000000       0.00000000       0.00012617      -0.00007291      -0.09778330       0.00000534       0.00284116      -0.15833518
Cu       0.00000000       5.13359523      13.67392546       0.00000000       0.00000000       0.00000000       0.00000000       0.00089782       0.00259221      -0.09471485       0.01411336      -0.03591524      -0.16856694
Cu       2.56679762       5.13359523      13.67392546       0.00000000       0.00000000       0.00000000       0.00000000      -0.00030684      -0.00078099      -0.08935936      -0.00909432       0.00506118      -0.19460145
Cu       5.13359523       5.13359523      13.67392546       0.00000000       0.00000000       0.00000000       0.00000000      -0.00099217       0.00411663      -0.09560446      -0.00981082      -0.01034720      -0.16293624
Cu       7.70039285       5.13359523      13.67392546       0.00000000       0.00000000       0.00000000       0.00000000       0.00020439      -0.00011159      -0.09099546       0.00048298       0.01825088      -0.19098980
Cu       1.28339881       1.28339881      15.51088819       0.00000000       0.00000000       0.00000000       0.00000000       0.01813899      -0.02508138      -0.26806105       0.14467903       0.08168021      -0.14528848
Cu       3.85019642       1.28339881      15.51088819       0.00000000       0.00000000       0.00000000       0.00000000      -0.06124003      -0.04797976      -0.28371043      -0.03315664       0.08280232      -0.17158148
Cu       6.41699404       1.28339881      15.51088819       0.00000000       0.00000000       0.00000000       0.00000000       0.09460901       0.07366018      -0.16189073       0.00835058       0.21720044      -0.05409151
Cu       8.98379165       1.28339881      15.51088819       0.00000000       0.00000000       0.00000000       0.00000000      -0.09532938       0.08743023      -0.14525148      -0.13865674       0.09102445      -0.13605204
Cu       1.28339881       3.85019642      15.51088819       0.00000000       0.00000000       0.00000000       0.00000000       0.01902852       0.02580518      -0.26766635       0.13406652      -0.09249292      -0.13764947
Cu       3.85019642       3.85019642      15.51088819       0.00000000       0.00000000       0.00000000       0.00000000      -0.06222723       0.04913279      -0.28351134      -0.02763131      -0.09043901      -0.17469704
Cu       6.41699404       3.85019642      15.51088819       0.00000000       0.00000000       0.00000000       0.00000000       0.09425217      -0.07303536      -0.16207057       0.00544493      -0.19648401      -0.05473508
Cu       8.98379165       3.85019642      15.51088819       0.00000000       0.00000000       0.00000000       0.00000000      -0.09479353      -0.08683845      -0.14565459      -0.12434408      -0.07300415      -0.14531466
Cu       1.28339881       6.41699404      15.51088819       0.00000000       0.00000000       0.00000000       0.00000000       0.00168629       0.00032955      -0.25051510      -0.05307275       0.00959880      -0.25878837
Cu       3.85019642       6.41699404      15.51088819       0.00000000       0.00000000       0.00000000       0.00000000      -0.01039868       0.00045043      -0.26911907       0.03152006       0.00602245      -0.23209153
Cu       6.41699404       6.41699404      15.51088819       0.00000000       0.00000000       0.00000000       0.00000000      -0.03781942       0.00006594      -0.30888129      -0.07441824       0.00734745      -0.20515237
Cu       8.98379165       6.41699404      15.51088819       0.00000000       0.00000000       0.00000000       0.00000000       0.05092765      -0.00020704      -0.30365416       0.05962099       0.00734602      -0.26216058
Cu       7.69698333       7.69583984      17.23470370       0.00000000       0.00638571      -0.01427495       0.13715769       0.00316674      -0.00995416       0.13918419       0.01532533      -0.02899156      -0.04828712
Cu       5.13084017       7.70061551      17.25373219       0.00000000       0.00190010      -0.00778021       0.13471102      -0.00062640      -0.01251039       0.13425749       0.01279593      -0.03778692      -0.10534821
Cu       2.55922885       7.68370982      17.23163276       0.00000000      -0.00469193      -0.00817356       0.13396463      -0.00372270      -0.00882101       0.13794574      -0.01039196      -0.02741229      -0.04062902
Cu      10.26080915       7.70076746      17.24882422       0.00000000       0.00158521      -0.00759036       0.14103104       0.00105285      -0.00590156       0.14367554      -0.00530211      -0.00064925      -0.08121373
Cu      10.28063555       2.56221720      17.21721891       0.00000000       0.00145659      -0.00017064       0.13264022       0.00229826       0.00010727       0.13446549       0.01313786      -0.00671499      -0.09535748
Cu       2.55351190       2.56865792      17.34681487       0.00000000      -0.04749219       0.00147147       0.19749015      -0.00576306      -0.00021905       0.13448776      -0.20141193      -0.00621899      -0.34348012
Cu       5.08374706       2.56200812      17.32335884       0.00000000      -0.07102848      -0.00218770       0.27540270      -0.00024754       0.00026336       0.12558678      -0.11802972       0.01160616       0.15142092
Cu       7.70953061       2.56641385      17.34536178       0.00000000      -0.01343301      -0.00350449       0.14825939       0.00764127       0.00213767       0.13600353       0.01995190      -0.03322678      -0.40644163
Cu      10.26552467       5.13166620      17.24567661       0.00000000       0.00144124       0.00924687       0.14004844       0.00061308       0.00597787       0.14366813       0.01096751       0.01530928      -0.09967443
Cu       2.56066124       5.15367714      17.23077088       0.00000000      -0.00674920       0.00949937       0.13404317      -0.00373460       0.00916066       0.13745396      -0.01020742       0.02581596      -0.03528416
Cu       5.12963247       5.12971872      17.25197284       0.00000000      -0.00177932       0.00828640       0.13305556      -0.00000401       0.01267987       0.13425899       0.00946342       0.03418297      -0.11159566
Cu       7.69917367       5.16105974      17.22671912       0.00000000       0.00500226       0.00762064       0.13546053       0.00318659       0.00947467       0.14002141      -0.00143661       0.01859926      -0.01958917
O        5.11124058       2.56289808      20.10591085       0.00000000      -0.03896961      -0.01065619      -0.02492579       0.01337001       0.00327398       0.02054973       0.07110319       0.01077093       0.43235050
C        4.17424718       2.57824963      19.31706798       0.00000000       0.16126152      -0.01167347      -0.31469503       0.02046340      -0.00020592       0.03457344       0.38837223      -0.01298393       0.38408726
H        6.77876860       2.70158771      19.71679112       0.00000000       0.00215352       0.00707368       0.00758865       0.00907560       0.00599038       0.00772785      -0.09351195       0.03037174       0.24295159
O        2.92210463       2.59154833      19.36004997       0.00000000       0.09925232      -0.00802069      -0.20337987       0.02075500      -0.00303672       0.00566561       0.06343447       0.00247529      -1.00975173
O        7.69750671       2.85339148      19.35377576       0.50000000       0.02499204       0.06018970       0.07861496       0.01019524      -0.03139931       0.03486485      -0.05843136      -0.00293976       0.04285020
H        8.31584615       2.27179493      19.82830287       0.50000000      -0.01255171      -0.06466240      -0.04477334       0.00681161       0.01914352       0.00796572      -0.02758002      -0.04425520       0.05597639
54
Lattice="10.26719046282867 0.0 0.0 0.0 7.700392847121503 0.0 0.0 0.0 27.347850919999996" Properties=species:S:1:pos:R:3:initial_magmoms:R:1:MACE_forces:R:3:forces:R:3:DFT_forces:R:3 MACE_energy=-219.05382297386066 energy=-218.98327494312278 stress="0.009287364640864227 -1.5923009327785505e-06 -0.00017830864227997187 -1.5923009327785505e-06 0.009170261350542941 2.2090300955904382e-06 -0.00017830864227997187 2.2090300955904382e-06 0.0012520742766357438" free_energy=-218.98327494312278 DFT_energy=-222.23578981 pbc="T T T"
Cu       1.28339881       1.28339881      11.83696273       0.00000000       0.00000000       0.00000000       0.00000000      -0.00120965       0.00039388       0.18392100       0.01338077       0.00571962       0.42779546
Cu       3.85019642       1.28339881      11.83696273       0.00000000       0.00000000       0.00000000       0.00000000       0.00128287       0.00015339       0.18431546      -0.00342527       0.00032850       0.41719643
Cu       6.41699404       1.28339881      11.83696273       0.00000000       0.00000000       0.00000000       0.00000000      -0.00031603      -0.00033761       0.18287886       0.00633259       0.00119774       0.42422344
Cu       8.98379165       1.28339881      11.83696273       0.00000000       0.00000000       0.00000000       0.00000000       0.00017719      -0.00010624       0.18293831      -0.01386828      -0.00229960       0.43457123
Cu       1.28339881       3.85019642      11.83696273       0.00000000       0.00000000       0.00000000       0.00000000      -0.00120926      -0.00040733       0.18391551       0.01184780      -0.00355203       0.42905329
Cu       3.85019642       3.85019642      11.83696273       0.00000000       0.00000000       0.00000000       0.00000000       0.00128485      -0.00016393       0.18431795      -0.00128883       0.00023890       0.41811200
Cu       6.41699404       3.85019642      11.83696273       0.00000000       0.00000000       0.00000000       0.00000000      -0.00030343       0.00034271       0.18290542       0.00801845       0.00366577       0.42041118
Cu       8.98379165       3.85019642      11.83696273       0.00000000       0.00000000       0.00000000       0.00000000       0.00016245       0.00010908       0.18296359      -0.01538495       0.00477415       0.43329415
Cu       1.28339881       6.41699404      11.83696273       0.00000000       0.00000000       0.00000000       0.00000000      -0.00070100       0.00001588       0.18332908       0.02708640      -0.00174212       0.43057399
Cu       3.85019642       6.41699404      11.83696273       0.00000000       0.00000000       0.00000000       0.00000000       0.00098015       0.00001367       0.18358238      -0.01952505      -0.00023366       0.43106057
Cu       6.41699404       6.41699404      11.83696273       0.00000000       0.00000000       0.00000000       0.00000000       0.00108623      -0.00000256       0.18582392       0.02844568      -0.00403538       0.42615972
Cu       8.98379165       6.41699404      11.83696273       0.00000000       0.00000000       0.00000000       0.00000000      -0.00134704      -0.00000103       0.18582947      -0.03077575      -0.00163719       0.42273140
Cu       7.70039285      -0.00000000      13.67392546       0.00000000       0.00000000       0.00000000       0.00000000       0.00020225       0.00018413      -0.09069413       0.00328428      -0.02146591      -0.19221546
Cu       5.13359523      -0.00000000      13.67392546       0.00000000       0.00000000       0.00000000       0.00000000      -0.00107453      -0.00412450      -0.09565267      -0.00975300       0.01265344      -0.15228882
Cu       2.56679762      -0.00000000      13.67392546       0.00000000       0.00000000       0.00000000       0.00000000      -0.00031407       0.00083016      -0.08955175      -0.00532574      -0.00044518      -0.19375421
Cu       0.00000000      -0.00000000      13.67392546       0.00000000       0.00000000       0.00000000       0.00000000       0.00098417      -0.00260718      -0.09477591       0.00321680       0.03503563      -0.15617091
Cu       0.00000000       2.56679762      13.67392546       0.00000000       0.00000000       0.00000000       0.00000000      -0.00011745       0.00002732      -0.08852795      -0.01634276       0.00163849      -0.19822541
Cu       2.56679762       2.56679762      13.67392546       0.00000000       0.00000000       0.00000000       0.00000000      -0.00174949       0.00001176      -0.09408713      -0.00139665      -0.00057133      -0.13920593
Cu       5.13359523       2.56679762      13.67392546       0.00000000       0.00000000       0.00000000       0.00000000       0.00088671       0.00003161      -0.08734403       0.00898750       0.00175051      -0.16061524
Cu       7.70039285       2.56679762      13.67392546       0.00000000       0.00000000       0.00000000       0.00000000       0.00012617      -0.00007291      -0.09778330      -0.00268966       0.00261501      -0.15891873
Cu       0.00000000       5.13359523      13.67392546       0.00000000       0.00000000       0.00000000       0.00000000       0.00089782       0.00259221      -0.09471485       0.01296123      -0.03542611      -0.16926648
Cu       2.56679762       5.13359523      13.67392546       0.00000000       0.00000000       0.00000000       0.00000000      -0.00030684      -0.00078099      -0.08935936      -0.00939890       0.00142210      -0.19366311
Cu       5.13359523       5.13359523      13.67392546       0.00000000       0.00000000       0.00000000       0.00000000      -0.00099217       0.00411663      -0.09560446      -0.01214092      -0.01306111      -0.16283152
Cu       7.70039285       5.13359523      13.67392546       0.00000000       0.00000000       0.00000000       0.00000000       0.00020439      -0.00011159      -0.09099546       0.00095371       0.01820650      -0.19160762
Cu       1.28339881       1.28339881      15.51088819       0.00000000       0.00000000       0.00000000       0.00000000       0.01813899      -0.02508138      -0.26806105       0.14285425       0.07991942      -0.13652328
Cu       3.85019642       1.28339881      15.51088819       0.00000000       0.00000000       0.00000000       0.00000000      -0.06124003      -0.04797976      -0.28371043      -0.03720243       0.08379301      -0.15567238
Cu       6.41699404       1.28339881      15.51088819       0.00000000       0.00000000       0.00000000       0.00000000       0.09460901       0.07366018      -0.16189073       0.01531797       0.20947054      -0.05497255
Cu       8.98379165       1.28339881      15.51088819       0.00000000       0.00000000       0.00000000       0.00000000      -0.09532938       0.08743023      -0.14525148      -0.13628000       0.08976362      -0.13327417
Cu       1.28339881       3.85019642      15.51088819       0.00000000       0.00000000       0.00000000       0.00000000       0.01902852       0.02580518      -0.26766635       0.13181869      -0.09025923      -0.12886568
Cu       3.85019642       3.85019642      15.51088819       0.00000000       0.00000000       0.00000000       0.00000000      -0.06222723       0.04913279      -0.28351134      -0.03089393      -0.09125261      -0.15807071
Cu       6.41699404       3.85019642      15.51088819       0.00000000       0.00000000       0.00000000       0.00000000       0.09425217      -0.07303536      -0.16207057       0.01252409      -0.19089750      -0.05392340
Cu       8.98379165       3.85019642      15.51088819       0.00000000       0.00000000       0.00000000       0.00000000      -0.09479353      -0.08683845      -0.14565459      -0.12325938      -0.07387527      -0.14087683
Cu       1.28339881       6.41699404      15.51088819       0.00000000       0.00000000       0.00000000       0.00000000       0.00168629       0.00032955      -0.25051510      -0.04885543       0.01017682      -0.25324367
Cu       3.85019642       6.41699404      15.51088819       0.00000000       0.00000000       0.00000000       0.00000000      -0.01039868       0.00045043      -0.26911907       0.02900895       0.00694912      -0.24823445
Cu       6.41699404       6.41699404      15.51088819       0.00000000       0.00000000       0.00000000       0.00000000      -0.03781942       0.00006594      -0.30888129      -0.06960820       0.00657329      -0.21327496
Cu       8.98379165       6.41699404      15.51088819       0.00000000       0.00000000       0.00000000       0.00000000       0.05092765      -0.00020704      -0.30365416       0.06300188       0.00655460      -0.25835064
Cu       7.69699513       7.69478981      17.23455523       0.00000000       0.00687641      -0.01378707       0.13836923       0.00316674      -0.00995416       0.13918419       0.01681736      -0.02820116      -0.04605739
Cu       5.13143560       7.69995161      17.25128397       0.00000000       0.00310038      -0.00848334       0.13442684      -0.00062640      -0.01251039       0.13425749       0.00446392      -0.02430571      -0.08970975
Cu       2.56100071       7.68487076      17.23151643       0.00000000      -0.00496599      -0.00899860       0.13374459      -0.00372270      -0.00882101       0.13794574      -0.01053016      -0.02475383      -0.03760920
Cu      10.26158420       7.70116361      17.24898316       0.00000000       0.00143115      -0.00785064       0.14133133       0.00105285      -0.00590156       0.14367554      -0.00409882      -0.00159574      -0.08070925
Cu      10.28087148       2.56248374      17.21661488       0.00000000      -0.00273622      -0.00047868       0.13317224       0.00229826       0.00010727       0.13446549       0.01430842      -0.00643002      -0.09158171
Cu       2.55844671       2.56869976      17.35137734       0.00000000      -0.03267895       0.00202144       0.22418079      -0.00576306      -0.00021905       0.13448776      -0.17251301      -0.00498865      -0.38497565
Cu       5.08032988       2.56207321      17.31722644       0.00000000      -0.06734424      -0.00156549       0.28273292      -0.00024754       0.00026336       0.12558678      -0.11094453       0.01197808       0.11409663
Cu       7.70515099       2.56443435      17.34484434       0.00000000      -0.01042955      -0.00045459       0.15203455       0.00764127       0.00213767       0.13600353       0.02469631      -0.03175744      -0.41213392
Cu      10.26592526       5.13149913      17.24597850       0.00000000       0.00183644       0.00950654       0.13995634       0.00061308       0.00597787       0.14366813       0.01258856       0.01574429      -0.09951942
Cu       2.56218418       5.15282173      17.23038129       0.00000000      -0.00681441       0.01055588       0.13387833      -0.00373460       0.00916066       0.13745396      -0.01059792       0.02315917      -0.03183725
Cu       5.13004184       5.13089986      17.24942097       0.00000000      -0.00039453       0.00856860       0.13263985      -0.00000401       0.01267987       0.13425899       0.00155209       0.01917871      -0.09606468
Cu       7.69897341       5.16008139      17.22664406       0.00000000       0.00551881       0.00702375       0.13600307       0.00318659       0.00947467       0.14002141       0.00085110       0.01887725      -0.01938438
O        5.08931401       2.56206009      20.12452596       0.00000000      -0.04521868      -0.01415828      -0.02170967       0.01337001       0.00327398       0.02054973       0.02834981      -0.00046555       0.48660186
C        4.11819439       2.57906391      19.38965851       0.00000000       0.15125404      -0.01291190      -0.35774382       0.02046340      -0.00020592       0.03457344       0.34149981      -0.01372962       0.47608434
H        6.77220726       2.68931640      19.72429399       0.00000000       0.00555790       0.01199252       0.00960606       0.00907560       0.00599038       0.00772785      -0.09465493       0.04278663       0.26157737
O        2.87737442       2.59412042      19.40614240       0.00000000       0.07395002      -0.00753517      -0.19728202       0.02075500      -0.00303672       0.00566561       0.05555816      -0.00203006      -1.13444777
O        7.68496043       2.84766682      19.35855991       0.50000000       0.03022528       0.06397356       0.08176432       0.01019524      -0.03139931       0.03486485      -0.00772870       0.00884803       0.03078752
H        8.31245639       2.28393641      19.84237046       0.50000000      -0.00380265      -0.06795041      -0.05380287       0.00681161       0.01914352       0.00796572      -0.02124340      -0.05400694       0.04374594
54
Lattice="10.26719046282867 0.0 0.0 0.0 7.700392847121503 0.0 0.0 0.0 27.347850919999996" Properties=species:S:1:pos:R:3:initial_magmoms:R:1:MACE_forces:R:3:forces:R:3:DFT_forces:R:3 MACE_energy=-219.00727931407818 energy=-218.98327494312278 stress="0.009287364640864227 -1.5923009327785505e-06 -0.00017830864227997187 -1.5923009327785505e-06 0.009170261350542941 2.2090300955904382e-06 -0.00017830864227997187 2.2090300955904382e-06 0.0012520742766357438" free_energy=-218.98327494312278 DFT_energy=-222.16993373 pbc="T T T"
Cu       1.28339881       1.28339881      11.83696273       0.00000000       0.00000000       0.00000000       0.00000000      -0.00120965       0.00039388       0.18392100       0.00993481       0.00542364       0.42588370
Cu       3.85019642       1.28339881      11.83696273       0.00000000       0.00000000       0.00000000       0.00000000       0.00128287       0.00015339       0.18431546      -0.00044859      -0.00038441       0.41670636
Cu       6.41699404       1.28339881      11.83696273       0.00000000       0.00000000       0.00000000       0.00000000      -0.00031603      -0.00033761       0.18287886       0.00509958       0.00018177       0.42316880
Cu       8.98379165       1.28339881      11.83696273       0.00000000       0.00000000       0.00000000       0.00000000       0.00017719      -0.00010624       0.18293831      -0.01096431      -0.00214000       0.43285712
Cu       1.28339881       3.85019642      11.83696273       0.00000000       0.00000000       0.00000000       0.00000000      -0.00120926      -0.00040733       0.18391551       0.00863121      -0.00309831       0.42683396
Cu       3.85019642       3.85019642      11.83696273       0.00000000       0.00000000       0.00000000       0.00000000       0.00128485      -0.00016393       0.18431795       0.00155331       0.00112819       0.41724568
Cu       6.41699404       3.85019642      11.83696273       0.00000000       0.00000000       0.00000000       0.00000000      -0.00030343       0.00034271       0.18290542       0.00643051       0.00441240       0.42004913
Cu       8.98379165       3.85019642      11.83696273       0.00000000       0.00000000       0.00000000       0.00000000       0.00016245       0.00010908       0.18296359      -0.01220737       0.00460264       0.43125558
Cu       1.28339881       6.41699404      11.83696273       0.00000000       0.00000000       0.00000000       0.00000000      -0.00070100       0.00001588       0.18332908       0.02576714      -0.00194961       0.43116582
Cu       3.85019642       6.41699404      11.83696273       0.00000000       0.00000000       0.00000000       0.00000000       0.00098015       0.00001367       0.18358238      -0.01740281      -0.00071460       0.43091594
Cu       6.41699404       6.41699404      11.83696273       0.00000000       0.00000000       0.00000000       0.00000000       0.00108623      -0.00000256       0.18582392       0.02706895      -0.00401903       0.42437834
Cu       8.98379165       6.41699404      11.83696273       0.00000000       0.00000000       0.00000000       0.00000000      -0.00134704      -0.00000103       0.18582947      -0.02920279      -0.00176647       0.42151325
Cu       7.70039285      -0.00000000      13.67392546       0.00000000       0.00000000       0.00000000       0.00000000       0.00020225       0.00018413      -0.09069413       0.00275743      -0.02062669      -0.19353063
Cu       5.13359523      -0.00000000      13.67392546       0.00000000       0.00000000       0.00000000       0.00000000      -0.00107453      -0.00412450      -0.09565267      -0.01166027       0.01533144      -0.15260777
Cu       2.56679762      -0.00000000      13.67392546       0.00000000       0.00000000       0.00000000       0.00000000      -0.00031407       0.00083016      -0.08955175      -0.00528272       0.00281191      -0.19266197
Cu       0.00000000      -0.00000000      13.67392546       0.00000000       0.00000000       0.00000000       0.00000000       0.00098417      -0.00260718      -0.09477591       0.00086018       0.03383492      -0.15706227
Cu       0.00000000       2.56679762      13.67392546       0.00000000       0.00000000       0.00000000       0.00000000      -0.00011745       0.00002732      -0.08852795      -0.01748085       0.00161017      -0.19917672
Cu       2.56679762       2.56679762      13.67392546       0.00000000       0.00000000       0.00000000       0.00000000      -0.00174949       0.00001176      -0.09408713      -0.00119839      -0.00084090      -0.14434920
Cu       5.13359523       2.56679762      13.67392546       0.00000000       0.00000000       0.00000000       0.00000000       0.00088671       0.00003161      -0.08734403       0.00678866       0.00176373      -0.16804457
Cu       7.70039285       2.56679762      13.67392546       0.00000000       0.00000000       0.00000000       0.00000000       0.00012617      -0.00007291      -0.09778330      -0.00498678       0.00248489      -0.15918145
Cu       0.00000000       5.13359523      13.67392546       0.00000000       0.00000000       0.00000000       0.00000000       0.00089782       0.00259221      -0.09471485       0.01048030      -0.03416997      -0.17044706
Cu       2.56679762       5.13359523      13.67392546       0.00000000       0.00000000       0.00000000       0.00000000      -0.00030684      -0.00078099      -0.08935936      -0.00987198      -0.00168046      -0.19272290
Cu       5.13359523       5.13359523      13.67392546       0.00000000       0.00000000       0.00000000       0.00000000      -0.00099217       0.00411663      -0.09560446      -0.01391329      -0.01604909      -0.16358313
Cu       7.70039285       5.13359523      13.67392546       0.00000000       0.00000000       0.00000000       0.00000000       0.00020439      -0.00011159      -0.09099546       0.00075737       0.01715152      -0.19254527
Cu       1.28339881       1.28339881      15.51088819       0.00000000       0.00000000       0.00000000       0.00000000       0.01813899      -0.02508138      -0.26806105       0.13296258       0.07092080      -0.13851606
Cu       3.85019642       1.28339881      15.51088819       0.00000000       0.00000000       0.00000000       0.00000000      -0.06124003      -0.04797976      -0.28371043      -0.03997237       0.07529577      -0.15030154
Cu       6.41699404       1.28339881      15.51088819       0.00000000       0.00000000       0.00000000       0.00000000       0.09460901       0.07366018      -0.16189073       0.02926085       0.19388710      -0.06355598
Cu       8.98379165       1.28339881      15.51088819       0.00000000       0.00000000       0.00000000       0.00000000      -0.09532938       0.08743023      -0.14525148      -0.13379499       0.08710601      -0.13189547
Cu       1.28339881       3.85019642      15.51088819       0.00000000       0.00000000       0.00000000       0.00000000       0.01902852       0.02580518      -0.26766635       0.12113181      -0.08148077      -0.13077136
Cu       3.85019642       3.85019642      15.51088819       0.00000000       0.00000000       0.00000000       0.00000000      -0.06222723       0.04913279      -0.28351134      -0.03303675      -0.08323352      -0.15168861
Cu       6.41699404       3.85019642      15.51088819       0.00000000       0.00000000       0.00000000       0.00000000       0.09425217      -0.07303536      -0.16207057       0.02564174      -0.17793181      -0.06204638
Cu       8.98379165       3.85019642      15.51088819       0.00000000       0.00000000       0.00000000       0.00000000      -0.09479353      -0.08683845      -0.14565459      -0.12056755      -0.07342750      -0.13932867
Cu       1.28339881       6.41699404      15.51088819       0.00000000       0.00000000       0.00000000       0.00000000       0.00168629       0.00032955      -0.25051510      -0.04552870       0.01089910      -0.25019856
Cu       3.85019642       6.41699404      15.51088819       0.00000000       0.00000000       0.00000000       0.00000000      -0.01039868       0.00045043      -0.26911907       0.02962738       0.00780380      -0.26356483
Cu       6.41699404       6.41699404      15.51088819       0.00000000       0.00000000       0.00000000       0.00000000      -0.03781942       0.00006594      -0.30888129      -0.06397050       0.00612470      -0.22106613
Cu       8.98379165       6.41699404      15.51088819       0.00000000       0.00000000       0.00000000       0.00000000       0.05092765      -0.00020704      -0.30365416       0.06472390       0.00595253      -0.25538540
Cu       7.69710980       7.69389495      17.23465650       0.00000000       0.00708604      -0.01182570       0.13952115       0.00316674      -0.00995416       0.13918419       0.01715053      -0.02786783      -0.04414546
Cu       5.13212044       7.69971953      17.24923253       0.00000000       0.00378505      -0.01090716       0.13443466      -0.00062640      -0.01251039       0.13425749      -0.00324598      -0.01448843      -0.07603421
Cu       2.56271503       7.68581253      17.23104339       0.00000000      -0.00525114      -0.01117940       0.13407779      -0.00372270      -0.00882101       0.13794574      -0.00936211      -0.02056835      -0.03293948
Cu      10.26232875       7.70150504      17.24908660       0.00000000       0.00129277      -0.00777519       0.14199774       0.00105285      -0.00590156       0.14367554      -0.00354829      -0.00194548      -0.07757085
Cu      10.28001081       2.56263573      17.21560106       0.00000000      -0.00841906      -0.00071851       0.13439098       0.00229826       0.00010727       0.13446549       0.01097886      -0.00621472      -0.08445836
Cu       2.55964210       2.56870710      17.34642884       0.00000000      -0.01119476       0.00214803       0.23880586      -0.00576306      -0.00021905       0.13448776      -0.14164303      -0.00573357      -0.44417055
Cu       5.08179622       2.56206854      17.30373612       0.00000000      -0.05404447      -0.00103335       0.26480489      -0.00024754       0.00026336       0.12558678      -0.07083134       0.01115129      -0.00159511
Cu       7.70145184       2.56304462      17.34428635       0.00000000      -0.00530038       0.00419278       0.15345808       0.00764127       0.00213767       0.13600353       0.03014038      -0.02917792      -0.42224923
Cu      10.26643717       5.13144668      17.24606667       0.00000000       0.00194511       0.00923079       0.14044420       0.00061308       0.00597787       0.14366813       0.01355958       0.01549466      -0.09681649
Cu       2.56364367       5.15223530      17.22962267       0.00000000      -0.00666189       0.01259078       0.13433235      -0.00373460       0.00916066       0.13745396      -0.00902204       0.01786729      -0.02627389
Cu       5.13049677       5.13158442      17.24711062       0.00000000       0.00080447       0.01073329       0.13265220      -0.00000401       0.01267987       0.13425899      -0.00630606       0.00840690      -0.08068490
Cu       7.69882941       5.15907012      17.22643990       0.00000000       0.00590709       0.00755998       0.13680378       0.00318659       0.00947467       0.14002141       0.00180914       0.02110099      -0.01876407
O        5.07115471       2.56017074      20.13500353       0.00000000      -0.03112773      -0.01742928      -0.01682056       0.01337001       0.00327398       0.02054973       0.03456435      -0.00867081       0.54674396
C        4.06643451       2.57915789      19.46263759       0.00000000       0.10985884      -0.01299552      -0.32501052       0.02046340      -0.00020592       0.03457344       0.24625521      -0.01035635       0.57893808
H        6.77132470       2.67930651      19.72957159       0.00000000       0.01494694       0.01545606       0.01685963       0.00907560       0.00599038       0.00772785      -0.09584720       0.04817545       0.27133508
O        2.83941634       2.59615514      19.44171741       0.00000000       0.03899114      -0.00673734      -0.16709064       0.02075500      -0.00303672       0.00566561       0.00793869       0.00048868      -1.10351011
O        7.67894248       2.84770161      19.36490137       0.50000000       0.03609424       0.06028948       0.07508947       0.01019524      -0.03139931       0.03486485       0.05276395       0.01905253       0.01818634
H        8.31187302       2.29004372      19.84873809       0.50000000       0.00431509      -0.06790089      -0.05558724       0.00681161       0.01914352       0.00796572      -0.01334134      -0.06192821       0.03626749
54
Lattice="10.26719046282867 0.0 0.0 0.0 7.700392847121503 0.0 0.0 0.0 27.347850919999996" Properties=species:S:1:pos:R:3:initial_magmoms:R:1:MACE_forces:R:3:forces:R:3:DFT_forces:R:3 MACE_energy=-218.96815734614313 energy=-218.98327494312278 stress="0.009287364640864227 -1.5923009327785505e-06 -0.00017830864227997187 -1.5923009327785505e-06 0.009170261350542941 2.2090300955904382e-06 -0.00017830864227997187 2.2090300955904382e-06 0.0012520742766357438" free_energy=-218.98327494312278 DFT_energy=-222.1240161 pbc="T T T"
Cu       1.28339881       1.28339881      11.83696273       0.00000000       0.00000000       0.00000000       0.00000000      -0.00120965       0.00039388       0.18392100       0.00648971       0.00471527       0.42254743
Cu       3.85019642       1.28339881      11.83696273       0.00000000       0.00000000       0.00000000       0.00000000       0.00128287       0.00015339       0.18431546       0.00207356      -0.00116636       0.41595857
Cu       6.41699404       1.28339881      11.83696273       0.00000000       0.00000000       0.00000000       0.00000000      -0.00031603      -0.00033761       0.18287886       0.00406137       0.00057545       0.42125555
Cu       8.98379165       1.28339881      11.83696273       0.00000000       0.00000000       0.00000000       0.00000000       0.00017719      -0.00010624       0.18293831      -0.00793981      -0.00062258       0.42984076
Cu       1.28339881       3.85019642      11.83696273       0.00000000       0.00000000       0.00000000       0.00000000      -0.00120926      -0.00040733       0.18391551       0.00499538      -0.00206043       0.42331459
Cu       3.85019642       3.85019642      11.83696273       0.00000000       0.00000000       0.00000000       0.00000000       0.00128485      -0.00016393       0.18431795       0.00448810       0.00226762       0.41616763
Cu       6.41699404       3.85019642      11.83696273       0.00000000       0.00000000       0.00000000       0.00000000      -0.00030343       0.00034271       0.18290542       0.00486917       0.00430251       0.41858418
Cu       8.98379165       3.85019642      11.83696273       0.00000000       0.00000000       0.00000000       0.00000000       0.00016245       0.00010908       0.18296359      -0.00886113       0.00359931       0.42800294
Cu       1.28339881       6.41699404      11.83696273       0.00000000       0.00000000       0.00000000       0.00000000      -0.00070100       0.00001588       0.18332908       0.02385718      -0.00195691       0.43030712
Cu       3.85019642       6.41699404      11.83696273       0.00000000       0.00000000       0.00000000       0.00000000       0.00098015       0.00001367       0.18358238      -0.01534020      -0.00080245       0.42933156
Cu       6.41699404       6.41699404      11.83696273       0.00000000       0.00000000       0.00000000       0.00000000       0.00108623      -0.00000256       0.18582392       0.02492219      -0.00419308       0.42129897
Cu       8.98379165       6.41699404      11.83696273       0.00000000       0.00000000       0.00000000       0.00000000      -0.00134704      -0.00000103       0.18582947      -0.02641673      -0.00184057       0.41959188
Cu       7.70039285      -0.00000000      13.67392546       0.00000000       0.00000000       0.00000000       0.00000000       0.00020225       0.00018413      -0.09069413       0.00165506      -0.01866016      -0.19401855
Cu       5.13359523      -0.00000000      13.67392546       0.00000000       0.00000000       0.00000000       0.00000000      -0.00107453      -0.00412450      -0.09565267      -0.01263485       0.01853526      -0.15235979
Cu       2.56679762      -0.00000000      13.67392546       0.00000000       0.00000000       0.00000000       0.00000000      -0.00031407       0.00083016      -0.08955175      -0.00470044       0.00551526      -0.19063665
Cu       0.00000000      -0.00000000      13.67392546       0.00000000       0.00000000       0.00000000       0.00000000       0.00098417      -0.00260718      -0.09477591      -0.00342481       0.03132262      -0.15691693
Cu       0.00000000       2.56679762      13.67392546       0.00000000       0.00000000       0.00000000       0.00000000      -0.00011745       0.00002732      -0.08852795      -0.01729577       0.00190425      -0.19942118
Cu       2.56679762       2.56679762      13.67392546       0.00000000       0.00000000       0.00000000       0.00000000      -0.00174949       0.00001176      -0.09408713      -0.00152593      -0.00113532      -0.14966110
Cu       5.13359523       2.56679762      13.67392546       0.00000000       0.00000000       0.00000000       0.00000000       0.00088671       0.00003161      -0.08734403       0.00192327       0.00201895      -0.17505676
Cu       7.70039285       2.56679762      13.67392546       0.00000000       0.00000000       0.00000000       0.00000000       0.00012617      -0.00007291      -0.09778330      -0.00615501       0.00252246      -0.15910265
Cu       0.00000000       5.13359523      13.67392546       0.00000000       0.00000000       0.00000000       0.00000000       0.00089782       0.00259221      -0.09471485       0.00704583      -0.03124716      -0.17134820
Cu       2.56679762       5.13359523      13.67392546       0.00000000       0.00000000       0.00000000       0.00000000      -0.00030684      -0.00078099      -0.08935936      -0.00993804      -0.00391552      -0.19062398
Cu       5.13359523       5.13359523      13.67392546       0.00000000       0.00000000       0.00000000       0.00000000      -0.00099217       0.00411663      -0.09560446      -0.01493812      -0.01901390      -0.16432050
Cu       7.70039285       5.13359523      13.67392546       0.00000000       0.00000000       0.00000000       0.00000000       0.00020439      -0.00011159      -0.09099546      -0.00056425       0.01500373      -0.19252891
Cu       1.28339881       1.28339881      15.51088819       0.00000000       0.00000000       0.00000000       0.00000000       0.01813899      -0.02508138      -0.26806105       0.11929798       0.05733293      -0.14835319
Cu       3.85019642       1.28339881      15.51088819       0.00000000       0.00000000       0.00000000       0.00000000      -0.06124003      -0.04797976      -0.28371043      -0.04365146       0.06165447      -0.15572209
Cu       6.41699404       1.28339881      15.51088819       0.00000000       0.00000000       0.00000000       0.00000000       0.09460901       0.07366018      -0.16189073       0.04772191       0.17409269      -0.07868183
Cu       8.98379165       1.28339881      15.51088819       0.00000000       0.00000000       0.00000000       0.00000000      -0.09532938       0.08743023      -0.14525148      -0.12999168       0.08368840      -0.13251046
Cu       1.28339881       3.85019642      15.51088819       0.00000000       0.00000000       0.00000000       0.00000000       0.01902852       0.02580518      -0.26766635       0.10667064      -0.06796936      -0.14007992
Cu       3.85019642       3.85019642      15.51088819       0.00000000       0.00000000       0.00000000       0.00000000      -0.06222723       0.04913279      -0.28351134      -0.03603970      -0.07064768      -0.15598707
Cu       6.41699404       3.85019642      15.51088819       0.00000000       0.00000000       0.00000000       0.00000000       0.09425217      -0.07303536      -0.16207057       0.04211691      -0.16038564      -0.07706860
Cu       8.98379165       3.85019642      15.51088819       0.00000000       0.00000000       0.00000000       0.00000000      -0.09479353      -0.08683845      -0.14565459      -0.11555801      -0.07206513      -0.14119856
Cu       1.28339881       6.41699404      15.51088819       0.00000000       0.00000000       0.00000000       0.00000000       0.00168629       0.00032955      -0.25051510      -0.04396500       0.01279079      -0.25064946
Cu       3.85019642       6.41699404      15.51088819       0.00000000       0.00000000       0.00000000       0.00000000      -0.01039868       0.00045043      -0.26911907       0.03448948       0.00930254      -0.28174503
Cu       6.41699404       6.41699404      15.51088819       0.00000000       0.00000000       0.00000000       0.00000000      -0.03781942       0.00006594      -0.30888129      -0.05616712       0.00617568      -0.23206419
Cu       8.98379165       6.41699404      15.51088819       0.00000000       0.00000000       0.00000000       0.00000000       0.05092765      -0.00020704      -0.30365416       0.06461068       0.00498234      -0.25244850
Cu       7.69724052       7.69296764      17.23499550       0.00000000       0.00786175      -0.00870567       0.14099278       0.00316674      -0.00995416       0.13918419       0.01755623      -0.02565703      -0.04156269
Cu       5.13294418       7.69963515      17.24678596       0.00000000       0.00416361      -0.01217992       0.13857440      -0.00062640      -0.01251039       0.13425749      -0.00871594      -0.00447285      -0.05875646
Cu       2.56490788       7.68666504      17.22986623       0.00000000      -0.00733300      -0.01234715       0.13789083      -0.00372270      -0.00882101       0.13794574      -0.00813291      -0.01239822      -0.02239225
Cu      10.26324538       7.70191420      17.24913501       0.00000000       0.00065941      -0.00811229       0.14284878       0.00105285      -0.00590156       0.14367554      -0.00426344      -0.00212273      -0.07293164
Cu      10.27890750       2.56270625      17.21366323       0.00000000      -0.01515438      -0.00089264       0.13860900       0.00229826       0.00010727       0.13446549       0.00514359      -0.00613641      -0.06945926
Cu       2.56055411       2.56870355      17.33652284       0.00000000      -0.00748597       0.00193947       0.21910537      -0.00576306      -0.00021905       0.13448776      -0.12213360      -0.00557789      -0.51934664
Cu       5.08531152       2.56201018      17.28511645       0.00000000      -0.02281368      -0.00017016       0.21824935      -0.00024754       0.00026336       0.12558678      -0.01603709       0.00951965      -0.12405987
Cu       7.69730929       2.56139997      17.34316638       0.00000000       0.00593287       0.01435529       0.15790020       0.00764127       0.00213767       0.13600353       0.03505132      -0.02183561      -0.42786374
Cu      10.26717556       5.13146858      17.24594054       0.00000000       0.00161017       0.00915370       0.14113809       0.00061308       0.00597787       0.14366813       0.01417851       0.01603057      -0.09308577
Cu       2.56548638       5.15188440      17.22805610       0.00000000      -0.00802481       0.01287397       0.13883002      -0.00373460       0.00916066       0.13745396      -0.00861234       0.00829416      -0.01453864
Cu       5.13090422       5.13216367      17.24424346       0.00000000       0.00215514       0.01141251       0.13713345      -0.00000401       0.01267987       0.13425899      -0.01104187      -0.00144323      -0.06336131
Cu       7.69859352       5.15787124      17.22599333       0.00000000       0.00689824       0.00855813       0.13849284       0.00318659       0.00947467       0.14002141       0.00245234       0.02447930      -0.01723100
O        5.04782644       2.55685444      20.14413945       0.00000000      -0.00906150      -0.01965093      -0.02452008       0.01337001       0.00327398       0.02054973       0.10988901      -0.01747433       0.53769773
C        4.01136023       2.57847412      19.54241809       0.00000000       0.05912433      -0.01233187      -0.20248356       0.02046340      -0.00020592       0.03457344       0.19215403      -0.00624319       0.63235850
H        6.77715516       2.66850906      19.73288270       0.00000000       0.02006472       0.02537741       0.03208557       0.00907560       0.00599038       0.00772785      -0.10098473       0.02999239       0.27700509
O        2.79997888       2.59799041      19.47425434       0.00000000       0.01326319      -0.00547771      -0.11694480       0.02075500      -0.00303672       0.00566561      -0.14766086      -0.00208247      -0.89250542
O        7.67974687       2.85579977      19.37483148       0.50000000       0.03068644       0.03436343       0.06073858       0.01019524      -0.03139931       0.03486485       0.10264379       0.03660240       0.00918567
H        8.31418279       2.29019252      19.84797781       0.50000000       0.01475571      -0.05958690      -0.05647257       0.00681161       0.01914352       0.00796572       0.00233359      -0.06409479       0.02715064
54
Lattice="10.26719046282867 0.0 0.0 0.0 7.700392847121503 0.0 0.0 0.0 27.347850919999996" Properties=species:S:1:pos:R:3:initial_magmoms:R:1:MACE_forces:R:3:forces:R:3:DFT_forces:R:3 MACE_energy=-218.94285673060145 energy=-218.98327494312278 stress="0.009287364640864227 -1.5923009327785505e-06 -0.00017830864227997187 -1.5923009327785505e-06 0.009170261350542941 2.2090300955904382e-06 -0.00017830864227997187 2.2090300955904382e-06 0.0012520742766357438" free_energy=-218.98327494312278 DFT_energy=-222.12183512 pbc="T T T"
Cu       1.28339881       1.28339881      11.83696273       0.00000000       0.00000000       0.00000000       0.00000000      -0.00120965       0.00039388       0.18392100       0.00322791       0.00281583       0.41637262
Cu       3.85019642       1.28339881      11.83696273       0.00000000       0.00000000       0.00000000       0.00000000       0.00128287       0.00015339       0.18431546       0.00335218      -0.00297055       0.41507262
Cu       6.41699404       1.28339881      11.83696273       0.00000000       0.00000000       0.00000000       0.00000000      -0.00031603      -0.00033761       0.18287886       0.00362056       0.00245928       0.41748922
Cu       8.98379165       1.28339881      11.83696273       0.00000000       0.00000000       0.00000000       0.00000000       0.00017719      -0.00010624       0.18293831      -0.00543517       0.00292272       0.42362112
Cu       1.28339881       3.85019642      11.83696273       0.00000000       0.00000000       0.00000000       0.00000000      -0.00120926      -0.00040733       0.18391551       0.00100896      -0.00024952       0.41709716
Cu       3.85019642       3.85019642      11.83696273       0.00000000       0.00000000       0.00000000       0.00000000       0.00128485      -0.00016393       0.18431795       0.00626061       0.00350378       0.41543730
Cu       6.41699404       3.85019642      11.83696273       0.00000000       0.00000000       0.00000000       0.00000000      -0.00030343       0.00034271       0.18290542       0.00422381       0.00167847       0.41429108
Cu       8.98379165       3.85019642      11.83696273       0.00000000       0.00000000       0.00000000       0.00000000       0.00016245       0.00010908       0.18296359      -0.00611247       0.00029035       0.42191307
Cu       1.28339881       6.41699404      11.83696273       0.00000000       0.00000000       0.00000000       0.00000000      -0.00070100       0.00001588       0.18332908       0.02184434      -0.00220177       0.42485715
Cu       3.85019642       6.41699404      11.83696273       0.00000000       0.00000000       0.00000000       0.00000000       0.00098015       0.00001367       0.18358238      -0.01460053      -0.00073859       0.42391843
Cu       6.41699404       6.41699404      11.83696273       0.00000000       0.00000000       0.00000000       0.00000000       0.00108623      -0.00000256       0.18582392       0.02153917      -0.00420776       0.41549644
Cu       8.98379165       6.41699404      11.83696273       0.00000000       0.00000000       0.00000000       0.00000000      -0.00134704      -0.00000103       0.18582947      -0.02226595      -0.00235901       0.41617764
Cu       7.70039285      -0.00000000      13.67392546       0.00000000       0.00000000       0.00000000       0.00000000       0.00020225       0.00018413      -0.09069413       0.00134464      -0.01530960      -0.18795760
Cu       5.13359523      -0.00000000      13.67392546       0.00000000       0.00000000       0.00000000       0.00000000      -0.00107453      -0.00412450      -0.09565267      -0.00836764       0.02132651      -0.14585266
Cu       2.56679762      -0.00000000      13.67392546       0.00000000       0.00000000       0.00000000       0.00000000      -0.00031407       0.00083016      -0.08955175      -0.00238561       0.00598272      -0.18209339
Cu       0.00000000      -0.00000000      13.67392546       0.00000000       0.00000000       0.00000000       0.00000000       0.00098417      -0.00260718      -0.09477591      -0.00802856       0.02596364      -0.14980759
Cu       0.00000000       2.56679762      13.67392546       0.00000000       0.00000000       0.00000000       0.00000000      -0.00011745       0.00002732      -0.08852795      -0.01134145       0.00227366      -0.19377466
Cu       2.56679762       2.56679762      13.67392546       0.00000000       0.00000000       0.00000000       0.00000000      -0.00174949       0.00001176      -0.09408713      -0.00105016      -0.00228747      -0.15110743
Cu       5.13359523       2.56679762      13.67392546       0.00000000       0.00000000       0.00000000       0.00000000       0.00088671       0.00003161      -0.08734403      -0.00513375       0.00157760      -0.17607602
Cu       7.70039285       2.56679762      13.67392546       0.00000000       0.00000000       0.00000000       0.00000000       0.00012617      -0.00007291      -0.09778330      -0.00319683       0.00300009      -0.15423312
Cu       0.00000000       5.13359523      13.67392546       0.00000000       0.00000000       0.00000000       0.00000000       0.00089782       0.00259221      -0.09471485       0.00305329      -0.02657773      -0.16538803
Cu       2.56679762       5.13359523      13.67392546       0.00000000       0.00000000       0.00000000       0.00000000      -0.00030684      -0.00078099      -0.08935936      -0.00652484      -0.00376781      -0.18182774
Cu       5.13359523       5.13359523      13.67392546       0.00000000       0.00000000       0.00000000       0.00000000      -0.00099217       0.00411663      -0.09560446      -0.01219909      -0.02165881      -0.15958348
Cu       7.70039285       5.13359523      13.67392546       0.00000000       0.00000000       0.00000000       0.00000000       0.00020439      -0.00011159      -0.09099546      -0.00123001       0.01053958      -0.18570091
Cu       1.28339881       1.28339881      15.51088819       0.00000000       0.00000000       0.00000000       0.00000000       0.01813899      -0.02508138      -0.26806105       0.09664879       0.03449004      -0.17323964
Cu       3.85019642       1.28339881      15.51088819       0.00000000       0.00000000       0.00000000       0.00000000      -0.06124003      -0.04797976      -0.28371043      -0.05232685       0.03672689      -0.18361331
Cu       6.41699404       1.28339881      15.51088819       0.00000000       0.00000000       0.00000000       0.00000000       0.09460901       0.07366018      -0.16189073       0.07363222       0.14241360      -0.11116647
Cu       8.98379165       1.28339881      15.51088819       0.00000000       0.00000000       0.00000000       0.00000000      -0.09532938       0.08743023      -0.14525148      -0.12378141       0.08030228      -0.14202815
Cu       1.28339881       3.85019642      15.51088819       0.00000000       0.00000000       0.00000000       0.00000000       0.01902852       0.02580518      -0.26766635       0.08447864      -0.04592178      -0.16418242
Cu       3.85019642       3.85019642      15.51088819       0.00000000       0.00000000       0.00000000       0.00000000      -0.06222723       0.04913279      -0.28351134      -0.04413246      -0.04764114      -0.18154141
Cu       6.41699404       3.85019642      15.51088819       0.00000000       0.00000000       0.00000000       0.00000000       0.09425217      -0.07303536      -0.16207057       0.06518908      -0.13270334      -0.10925610
Cu       8.98379165       3.85019642      15.51088819       0.00000000       0.00000000       0.00000000       0.00000000      -0.09479353      -0.08683845      -0.14565459      -0.10872600      -0.07097423      -0.15179387
Cu       1.28339881       6.41699404      15.51088819       0.00000000       0.00000000       0.00000000       0.00000000       0.00168629       0.00032955      -0.25051510      -0.04654295       0.01459840      -0.26026308
Cu       3.85019642       6.41699404      15.51088819       0.00000000       0.00000000       0.00000000       0.00000000      -0.01039868       0.00045043      -0.26911907       0.04157708       0.01081087      -0.30194864
Cu       6.41699404       6.41699404      15.51088819       0.00000000       0.00000000       0.00000000       0.00000000      -0.03781942       0.00006594      -0.30888129      -0.04811400       0.00678090      -0.25096318
Cu       8.98379165       6.41699404      15.51088819       0.00000000       0.00000000       0.00000000       0.00000000       0.05092765      -0.00020704      -0.30365416       0.05938735       0.00363049      -0.25299858
Cu       7.69729989       7.69210257      17.23548065       0.00000000       0.00893309      -0.00517306       0.14318157       0.00316674      -0.00995416       0.13918419       0.01703301      -0.02358602      -0.03586556
Cu       5.13360527       7.69955128      17.24452918       0.00000000       0.00441955      -0.01283142       0.14474702      -0.00062640      -0.01251039       0.13425749      -0.01202977       0.00537412      -0.04212733
Cu       2.56703892       7.68740124      17.22860254       0.00000000      -0.01041907      -0.01278695       0.14353347      -0.00372270      -0.00882101       0.13794574      -0.00820970      -0.00074539      -0.00720232
Cu      10.26407774       7.70232134      17.24920272       0.00000000      -0.00022156      -0.00857886       0.14380021       0.00105285      -0.00590156       0.14367554      -0.00451459      -0.00290897      -0.06642377
Cu      10.27792887       2.56267658      17.21121276       0.00000000      -0.02039103      -0.00090317       0.14500449       0.00229826       0.00010727       0.13446549       0.00060323      -0.00568047      -0.04587345
Cu       2.56072311       2.56861077      17.31837785       0.00000000      -0.01199928       0.00154528       0.17824584      -0.00576306      -0.00021905       0.13448776      -0.10496650      -0.00495069      -0.57490530
Cu       5.09416181       2.56197039      17.25537435       0.00000000       0.01479143       0.00120423       0.16703602      -0.00024754       0.00026336       0.12558678       0.02755965       0.01143678      -0.20298906
Cu       7.69504443       2.55936808      17.34122754       0.00000000       0.02213568       0.02928085       0.16794048       0.00764127       0.00213767       0.13600353       0.03685621      -0.01158956      -0.42564358
Cu      10.26796223       5.13149451      17.24574276       0.00000000       0.00104625       0.00925537       0.14181871       0.00061308       0.00597787       0.14366813       0.01503659       0.01562075      -0.08813830
Cu       2.56731460       5.15160435      17.22636248       0.00000000      -0.01036564       0.01197037       0.14553937      -0.00373460       0.00916066       0.13745396      -0.00698589      -0.00469739       0.00295905
Cu       5.13114790       5.13271772      17.24150261       0.00000000       0.00339693       0.01141957       0.14395800      -0.00000401       0.01267987       0.13425899      -0.01346867      -0.01119819      -0.04542025
Cu       7.69832289       5.15681063      17.22551083       0.00000000       0.00804605       0.00843635       0.14106488       0.00318659       0.00947467       0.14002141       0.00274873       0.02666935      -0.01351820
O        5.02540655       2.55386438      20.15765377       0.00000000      -0.00663086      -0.02158394      -0.01493830       0.01337001       0.00327398       0.02054973       0.16969168      -0.02324178       0.39986402
C        3.95717250       2.57788724      19.63803709       0.00000000       0.00167780      -0.01087302      -0.02891439       0.02046340      -0.00020592       0.03457344       0.04499808      -0.00128188       0.57180787
H        6.78823084       2.65779999      19.73339954       0.00000000       0.03419532       0.04141085       0.04752889       0.00907560       0.00599038       0.00772785      -0.09030700      -0.00669543       0.29895823
O        2.76675709       2.59959772      19.50879154       0.00000000      -0.00540553      -0.00396137      -0.03718124       0.02075500      -0.00303672       0.00566561      -0.18398541      -0.00410693      -0.43468448
O        7.68629392       2.86907076      19.38643023       0.50000000       0.03104782      -0.02011184       0.05027775       0.01019524      -0.03139931       0.03486485       0.13400404       0.05746069      -0.00175493
H        8.31909993       2.28731642      19.84369023       0.50000000       0.01989642      -0.03324022      -0.06901542       0.00681161       0.01914352       0.00796572       0.01704342      -0.05039759       0.00561101
54
Lattice="10.26719046282867 0.0 0.0 0.0 7.700392847121503 0.0 0.0 0.0 27.347850919999996" Properties=species:S:1:pos:R:3:initial_magmoms:R:1:MACE_forces:R:3:forces:R:3:DFT_forces:R:3 MACE_energy=-218.93975238063456 energy=-218.98327494312278 stress="0.009287364640864227 -1.5923009327785505e-06 -0.00017830864227997187 -1.5923009327785505e-06 0.009170261350542941 2.2090300955904382e-06 -0.00017830864227997187 2.2090300955904382e-06 0.0012520742766357438" free_energy=-218.98327494312278 DFT_energy=-222.1667048 pbc="T T T"
Cu       1.28339881       1.28339881      11.83696273       0.00000000       0.00000000       0.00000000       0.00000000      -0.00120965       0.00039388       0.18392100       0.00013222       0.00076342       0.41248932
Cu       3.85019642       1.28339881      11.83696273       0.00000000       0.00000000       0.00000000       0.00000000       0.00128287       0.00015339       0.18431546       0.00449331      -0.00343539       0.41175908
Cu       6.41699404       1.28339881      11.83696273       0.00000000       0.00000000       0.00000000       0.00000000      -0.00031603      -0.00033761       0.18287886       0.00214754       0.00422055       0.41463575
Cu       8.98379165       1.28339881      11.83696273       0.00000000       0.00000000       0.00000000       0.00000000       0.00017719      -0.00010624       0.18293831      -0.00322522       0.00506893       0.41658172
Cu       1.28339881       3.85019642      11.83696273       0.00000000       0.00000000       0.00000000       0.00000000      -0.00120926      -0.00040733       0.18391551      -0.00249256       0.00196835       0.41243458
Cu       3.85019642       3.85019642      11.83696273       0.00000000       0.00000000       0.00000000       0.00000000       0.00128485      -0.00016393       0.18431795       0.00718806       0.00402955       0.41183194
Cu       6.41699404       3.85019642      11.83696273       0.00000000       0.00000000       0.00000000       0.00000000      -0.00030343       0.00034271       0.18290542       0.00284797      -0.00087868       0.41151141
Cu       8.98379165       3.85019642      11.83696273       0.00000000       0.00000000       0.00000000       0.00000000       0.00016245       0.00010908       0.18296359      -0.00352711      -0.00163617       0.41476758
Cu       1.28339881       6.41699404      11.83696273       0.00000000       0.00000000       0.00000000       0.00000000      -0.00070100       0.00001588       0.18332908       0.01911741      -0.00243597       0.42111154
Cu       3.85019642       6.41699404      11.83696273       0.00000000       0.00000000       0.00000000       0.00000000       0.00098015       0.00001367       0.18358238      -0.01419057      -0.00118392       0.41969052
Cu       6.41699404       6.41699404      11.83696273       0.00000000       0.00000000       0.00000000       0.00000000       0.00108623      -0.00000256       0.18582392       0.01736929      -0.00381053       0.41191093
Cu       8.98379165       6.41699404      11.83696273       0.00000000       0.00000000       0.00000000       0.00000000      -0.00134704      -0.00000103       0.18582947      -0.01764560      -0.00279401       0.41126178
Cu       7.70039285      -0.00000000      13.67392546       0.00000000       0.00000000       0.00000000       0.00000000       0.00020225       0.00018413      -0.09069413      -0.00037523      -0.01157141      -0.18071916
Cu       5.13359523      -0.00000000      13.67392546       0.00000000       0.00000000       0.00000000       0.00000000      -0.00107453      -0.00412450      -0.09565267      -0.00292452       0.02094756      -0.14049299
Cu       2.56679762      -0.00000000      13.67392546       0.00000000       0.00000000       0.00000000       0.00000000      -0.00031407       0.00083016      -0.08955175      -0.00217535       0.00623539      -0.17331981
Cu       0.00000000      -0.00000000      13.67392546       0.00000000       0.00000000       0.00000000       0.00000000       0.00098417      -0.00260718      -0.09477591      -0.01119513       0.02240704      -0.14359347
Cu       0.00000000       2.56679762      13.67392546       0.00000000       0.00000000       0.00000000       0.00000000      -0.00011745       0.00002732      -0.08852795      -0.00700304       0.00244581      -0.18616227
Cu       2.56679762       2.56679762      13.67392546       0.00000000       0.00000000       0.00000000       0.00000000      -0.00174949       0.00001176      -0.09408713      -0.00242407      -0.00324921      -0.15076178
Cu       5.13359523       2.56679762      13.67392546       0.00000000       0.00000000       0.00000000       0.00000000       0.00088671       0.00003161      -0.08734403      -0.00782977       0.00126933      -0.17429155
Cu       7.70039285       2.56679762      13.67392546       0.00000000       0.00000000       0.00000000       0.00000000       0.00012617      -0.00007291      -0.09778330      -0.00201440       0.00356910      -0.15041743
Cu       0.00000000       5.13359523      13.67392546       0.00000000       0.00000000       0.00000000       0.00000000       0.00089782       0.00259221      -0.09471485      -0.00065464      -0.02355474      -0.15928520
Cu       2.56679762       5.13359523      13.67392546       0.00000000       0.00000000       0.00000000       0.00000000      -0.00030684      -0.00078099      -0.08935936      -0.00528104      -0.00317812      -0.17346575
Cu       5.13359523       5.13359523      13.67392546       0.00000000       0.00000000       0.00000000       0.00000000      -0.00099217       0.00411663      -0.09560446      -0.00795734      -0.02138836      -0.15551022
Cu       7.70039285       5.13359523      13.67392546       0.00000000       0.00000000       0.00000000       0.00000000       0.00020439      -0.00011159      -0.09099546      -0.00264702       0.00608662      -0.17788942
Cu       1.28339881       1.28339881      15.51088819       0.00000000       0.00000000       0.00000000       0.00000000       0.01813899      -0.02508138      -0.26806105       0.07530705       0.01088859      -0.20009748
Cu       3.85019642       1.28339881      15.51088819       0.00000000       0.00000000       0.00000000       0.00000000      -0.06124003      -0.04797976      -0.28371043      -0.06366658       0.00231207      -0.21807504
Cu       6.41699404       1.28339881      15.51088819       0.00000000       0.00000000       0.00000000       0.00000000       0.09460901       0.07366018      -0.16189073       0.10848081       0.10211702      -0.15303156
Cu       8.98379165       1.28339881      15.51088819       0.00000000       0.00000000       0.00000000       0.00000000      -0.09532938       0.08743023      -0.14525148      -0.11885880       0.07738456      -0.14947427
Cu       1.28339881       3.85019642      15.51088819       0.00000000       0.00000000       0.00000000       0.00000000       0.01902852       0.02580518      -0.26766635       0.06290377      -0.02324944      -0.19047925
Cu       3.85019642       3.85019642      15.51088819       0.00000000       0.00000000       0.00000000       0.00000000      -0.06222723       0.04913279      -0.28351134      -0.05487462      -0.01413771      -0.21393127
Cu       6.41699404       3.85019642      15.51088819       0.00000000       0.00000000       0.00000000       0.00000000       0.09425217      -0.07303536      -0.16207057       0.09830359      -0.09535155      -0.15138366
Cu       8.98379165       3.85019642      15.51088819       0.00000000       0.00000000       0.00000000       0.00000000      -0.09479353      -0.08683845      -0.14565459      -0.10303163      -0.06890487      -0.16066764
Cu       1.28339881       6.41699404      15.51088819       0.00000000       0.00000000       0.00000000       0.00000000       0.00168629       0.00032955      -0.25051510      -0.04656076       0.01547606      -0.26583296
Cu       3.85019642       6.41699404      15.51088819       0.00000000       0.00000000       0.00000000       0.00000000      -0.01039868       0.00045043      -0.26911907       0.04333728       0.01158802      -0.30912567
Cu       6.41699404       6.41699404      15.51088819       0.00000000       0.00000000       0.00000000       0.00000000      -0.03781942       0.00006594      -0.30888129      -0.04271362       0.00735163      -0.26315123
Cu       8.98379165       6.41699404      15.51088819       0.00000000       0.00000000       0.00000000       0.00000000       0.05092765      -0.00020704      -0.30365416       0.05649990       0.00312702      -0.25583492
Cu       7.69761530       7.69164380      17.23602522       0.00000000       0.00862890      -0.00263839       0.14402895       0.00316674      -0.00995416       0.13918419       0.01586534      -0.02156983      -0.03131514
Cu       5.13394961       7.69938255      17.24412092       0.00000000       0.00389805      -0.01349718       0.14638435      -0.00062640      -0.01251039       0.13425749      -0.01321810       0.00871819      -0.03459347
Cu       2.56801658       7.68814958      17.22902024       0.00000000      -0.01116154      -0.01206093       0.14620468      -0.00372270      -0.00882101       0.13794574      -0.00568328       0.01104979       0.00101385
Cu      10.26451493       7.70252779      17.24938182       0.00000000      -0.00069460      -0.00849510       0.14434690       0.00105285      -0.00590156       0.14367554      -0.00463160      -0.00287268      -0.06004491
Cu      10.27698101       2.56263800      17.21017628       0.00000000      -0.01539457      -0.00087434       0.14752858       0.00229826       0.00010727       0.13446549       0.00604256      -0.00478813      -0.02881333
Cu       2.56058829       2.56847925      17.29809577       0.00000000      -0.00694972       0.00106813       0.15850554      -0.00576306      -0.00021905       0.13448776      -0.08161728      -0.00542098      -0.54465434
Cu       5.10778955       2.56213660      17.22056016       0.00000000       0.02227411       0.00195174       0.15978015      -0.00024754       0.00026336       0.12558678       0.03447572       0.00943060      -0.16929812
Cu       7.69706937       2.55883233      17.34093045       0.00000000       0.02958362       0.03538332       0.16866584       0.00764127       0.00213767       0.13600353       0.03459011      -0.00860519      -0.43172874
Cu      10.26843053       5.13153585      17.24571523       0.00000000       0.00053545       0.00887949       0.14238489       0.00061308       0.00597787       0.14366813       0.01582725       0.01453464      -0.08250966
Cu       2.56819500       5.15092918      17.22662213       0.00000000      -0.01067139       0.01058126       0.14859101      -0.00373460       0.00916066       0.13745396      -0.00324056      -0.01755283       0.01197363
Cu       5.13130578       5.13317175      17.24077917       0.00000000       0.00334612       0.01233346       0.14604259      -0.00000401       0.01267987       0.13425899      -0.01536542      -0.01373090      -0.03772207
Cu       7.69844404       5.15617313      17.22547941       0.00000000       0.00781673       0.00942600       0.14216529       0.00318659       0.00947467       0.14002141       0.00124969       0.02944228      -0.01141170
O        5.00703495       2.55249506      20.17944364       0.00000000      -0.00131775      -0.02046635       0.01918624       0.01337001       0.00327398       0.02054973       0.22369861      -0.02582090       0.27390239
C        3.91246456       2.57810082      19.73786400       0.00000000      -0.01932400      -0.01019037       0.07646377       0.02046340      -0.00020592       0.03457344      -0.03971703       0.00151038       0.42594590
H        6.79536255       2.64933415      19.73547926       0.00000000       0.02245648       0.04563209       0.05950157       0.00907560       0.00599038       0.00772785      -0.08211321      -0.02382091       0.31559810
O        2.74070436       2.60109436      19.55383006       0.00000000      -0.03085652      -0.00231932       0.04229393       0.02075500      -0.00303672       0.00566561      -0.23352535       0.00508822      -0.05495579
O        7.68924971       2.87613689      19.39358246       0.50000000       0.02833620      -0.04485517       0.04259259       0.01019524      -0.03139931       0.03486485       0.13803917       0.06388938      -0.01167807
H        8.32324043       2.28753420      19.84102067       0.50000000       0.02972668      -0.02207385      -0.06969317       0.00681161       0.01914352       0.00796572       0.03446385      -0.04797771      -0.00270072
54
Lattice="10.26719046282867 0.0 0.0 0.0 7.700392847121503 0.0 0.0 0.0 27.347850919999996" Properties=species:S:1:pos:R:3:initial_magmoms:R:1:MACE_forces:R:3:forces:R:3:DFT_forces:R:3 MACE_energy=-218.949791256386 energy=-218.98327494312278 stress="0.009287364640864227 -1.5923009327785505e-06 -0.00017830864227997187 -1.5923009327785505e-06 0.009170261350542941 2.2090300955904382e-06 -0.00017830864227997187 2.2090300955904382e-06 0.0012520742766357438" free_energy=-218.98327494312278 DFT_energy=-222.21121753 pbc="T T T"
Cu       1.28339881       1.28339881      11.83696273       0.00000000       0.00000000       0.00000000       0.00000000      -0.00120965       0.00039388       0.18392100      -0.00191482      -0.00052376       0.41146716
Cu       3.85019642       1.28339881      11.83696273       0.00000000       0.00000000       0.00000000       0.00000000       0.00128287       0.00015339       0.18431546       0.00604987      -0.00365193       0.41108378
Cu       6.41699404       1.28339881      11.83696273       0.00000000       0.00000000       0.00000000       0.00000000      -0.00031603      -0.00033761       0.18287886       0.00093875       0.00563918       0.41383844
Cu       8.98379165       1.28339881      11.83696273       0.00000000       0.00000000       0.00000000       0.00000000       0.00017719      -0.00010624       0.18293831      -0.00127420       0.00599873       0.41497706
Cu       1.28339881       3.85019642      11.83696273       0.00000000       0.00000000       0.00000000       0.00000000      -0.00120926      -0.00040733       0.18391551      -0.00428849       0.00350875       0.41098967
Cu       3.85019642       3.85019642      11.83696273       0.00000000       0.00000000       0.00000000       0.00000000       0.00128485      -0.00016393       0.18431795       0.00840910       0.00457886       0.41074846
Cu       6.41699404       3.85019642      11.83696273       0.00000000       0.00000000       0.00000000       0.00000000      -0.00030343       0.00034271       0.18290542       0.00123808      -0.00260185       0.41113342
Cu       8.98379165       3.85019642      11.83696273       0.00000000       0.00000000       0.00000000       0.00000000       0.00016245       0.00010908       0.18296359      -0.00120240      -0.00241823       0.41326913
Cu       1.28339881       6.41699404      11.83696273       0.00000000       0.00000000       0.00000000       0.00000000      -0.00070100       0.00001588       0.18332908       0.01737024      -0.00241444       0.42010052
Cu       3.85019642       6.41699404      11.83696273       0.00000000       0.00000000       0.00000000       0.00000000       0.00098015       0.00001367       0.18358238      -0.01338380      -0.00131075       0.41880442
Cu       6.41699404       6.41699404      11.83696273       0.00000000       0.00000000       0.00000000       0.00000000       0.00108623      -0.00000256       0.18582392       0.01405437      -0.00331819       0.41112195
Cu       8.98379165       6.41699404      11.83696273       0.00000000       0.00000000       0.00000000       0.00000000      -0.00134704      -0.00000103       0.18582947      -0.01349064      -0.00270455       0.40970555
Cu       7.70039285      -0.00000000      13.67392546       0.00000000       0.00000000       0.00000000       0.00000000       0.00020225       0.00018413      -0.09069413      -0.00096174      -0.00956557      -0.17938569
Cu       5.13359523      -0.00000000      13.67392546       0.00000000       0.00000000       0.00000000       0.00000000      -0.00107453      -0.00412450      -0.09565267      -0.00049777       0.01915906      -0.14092432
Cu       2.56679762      -0.00000000      13.67392546       0.00000000       0.00000000       0.00000000       0.00000000      -0.00031407       0.00083016      -0.08955175      -0.00111904       0.00651190      -0.17048026
Cu       0.00000000      -0.00000000      13.67392546       0.00000000       0.00000000       0.00000000       0.00000000       0.00098417      -0.00260718      -0.09477591      -0.01322650       0.02039537      -0.14400856
Cu       0.00000000       2.56679762      13.67392546       0.00000000       0.00000000       0.00000000       0.00000000      -0.00011745       0.00002732      -0.08852795      -0.00593550       0.00277384      -0.18395259
Cu       2.56679762       2.56679762      13.67392546       0.00000000       0.00000000       0.00000000       0.00000000      -0.00174949       0.00001176      -0.09408713      -0.00239534      -0.00361476      -0.15207563
Cu       5.13359523       2.56679762      13.67392546       0.00000000       0.00000000       0.00000000       0.00000000       0.00088671       0.00003161      -0.08734403      -0.00875147       0.00125470      -0.17524714
Cu       7.70039285       2.56679762      13.67392546       0.00000000       0.00000000       0.00000000       0.00000000       0.00012617      -0.00007291      -0.09778330      -0.00091230       0.00419076      -0.15152575
Cu       0.00000000       5.13359523      13.67392546       0.00000000       0.00000000       0.00000000       0.00000000       0.00089782       0.00259221      -0.09471485      -0.00308464      -0.02169332      -0.15884688
Cu       2.56679762       5.13359523      13.67392546       0.00000000       0.00000000       0.00000000       0.00000000      -0.00030684      -0.00078099      -0.08935936      -0.00419752      -0.00282680      -0.17133324
Cu       5.13359523       5.13359523      13.67392546       0.00000000       0.00000000       0.00000000       0.00000000      -0.00099217       0.00411663      -0.09560446      -0.00570648      -0.01942376      -0.15616616
Cu       7.70039285       5.13359523      13.67392546       0.00000000       0.00000000       0.00000000       0.00000000       0.00020439      -0.00011159      -0.09099546      -0.00284853       0.00374094      -0.17585785
Cu       1.28339881       1.28339881      15.51088819       0.00000000       0.00000000       0.00000000       0.00000000       0.01813899      -0.02508138      -0.26806105       0.06366536      -0.00179567      -0.21157305
Cu       3.85019642       1.28339881      15.51088819       0.00000000       0.00000000       0.00000000       0.00000000      -0.06124003      -0.04797976      -0.28371043      -0.06795332      -0.01879557      -0.23197306
Cu       6.41699404       1.28339881      15.51088819       0.00000000       0.00000000       0.00000000       0.00000000       0.09460901       0.07366018      -0.16189073       0.12638719       0.08291283      -0.17040440
Cu       8.98379165       1.28339881      15.51088819       0.00000000       0.00000000       0.00000000       0.00000000      -0.09532938       0.08743023      -0.14525148      -0.11614439       0.07877883      -0.14800279
Cu       1.28339881       3.85019642      15.51088819       0.00000000       0.00000000       0.00000000       0.00000000       0.01902852       0.02580518      -0.26766635       0.05104072      -0.01041209      -0.20161130
Cu       3.85019642       3.85019642      15.51088819       0.00000000       0.00000000       0.00000000       0.00000000      -0.06222723       0.04913279      -0.28351134      -0.05897649       0.00710370      -0.22689987
Cu       6.41699404       3.85019642      15.51088819       0.00000000       0.00000000       0.00000000       0.00000000       0.09425217      -0.07303536      -0.16207057       0.11622288      -0.07692740      -0.16878940
Cu       8.98379165       3.85019642      15.51088819       0.00000000       0.00000000       0.00000000       0.00000000      -0.09479353      -0.08683845      -0.14565459      -0.10031713      -0.07043714      -0.16062329
Cu       1.28339881       6.41699404      15.51088819       0.00000000       0.00000000       0.00000000       0.00000000       0.00168629       0.00032955      -0.25051510      -0.04073374       0.01535868      -0.25859264
Cu       3.85019642       6.41699404      15.51088819       0.00000000       0.00000000       0.00000000       0.00000000      -0.01039868       0.00045043      -0.26911907       0.03843399       0.01173513      -0.30198781
Cu       6.41699404       6.41699404      15.51088819       0.00000000       0.00000000       0.00000000       0.00000000      -0.03781942       0.00006594      -0.30888129      -0.04208870       0.00754818      -0.26191041
Cu       8.98379165       6.41699404      15.51088819       0.00000000       0.00000000       0.00000000       0.00000000       0.05092765      -0.00020704      -0.30365416       0.05738765       0.00281966      -0.25626274
Cu       7.69815328       7.69124777      17.23627464       0.00000000       0.00723210      -0.00201170       0.14338521       0.00316674      -0.00995416       0.13918419       0.01371083      -0.02084022      -0.03109539
Cu       5.13408927       7.69932354      17.24502979       0.00000000       0.00320218      -0.01305562       0.14429747      -0.00062640      -0.01251039       0.13425749      -0.01353262       0.00847982      -0.03636384
Cu       2.56825474       7.68957874      17.23147228       0.00000000      -0.00977659      -0.01098629       0.14504804      -0.00372270      -0.00882101       0.13794574      -0.00316304       0.01654500      -0.00399627
Cu      10.26476641       7.70261361      17.24966336       0.00000000      -0.00059268      -0.00809809       0.14436897       0.00105285      -0.00590156       0.14367554      -0.00470431      -0.00269039      -0.05804591
Cu      10.27696856       2.56276234      17.21105432       0.00000000      -0.00766967      -0.00095114       0.14633420       0.00229826       0.00010727       0.13446549       0.01341651      -0.00430996      -0.02315991
Cu       2.56117574       2.56838519      17.28768790       0.00000000      -0.00388349       0.00073242       0.15747409      -0.00576306      -0.00021905       0.13448776      -0.06231045      -0.00408359      -0.47033292
Cu       5.11395631       2.56247630      17.20424818       0.00000000       0.01267455       0.00136209       0.17230547      -0.00024754       0.00026336       0.12558678       0.02230149       0.00969648      -0.11433123
Cu       7.69995819       2.55913029      17.34249335       0.00000000       0.02318281       0.03121421       0.16403969       0.00764127       0.00213767       0.13600353       0.02844599      -0.01292477      -0.44152305
Cu      10.26855438       5.13150945      17.24603382       0.00000000       0.00050034       0.00830945       0.14261917       0.00061308       0.00597787       0.14366813       0.01615538       0.01382647      -0.08001936
Cu       2.56845701       5.14925198      17.22916297       0.00000000      -0.00930379       0.00982657       0.14702182      -0.00373460       0.00916066       0.13745396      -0.00124202      -0.02225757       0.00698235
Cu       5.13145704       5.13350725      17.24162789       0.00000000       0.00254247       0.01248639       0.14392314      -0.00000401       0.01267987       0.13425899      -0.01641666      -0.01331292      -0.04056662
Cu       7.69888589       5.15575576      17.22586251       0.00000000       0.00658968       0.01089624       0.14157999       0.00318659       0.00947467       0.14002141      -0.00123556       0.03135152      -0.01265605
O        4.98820215       2.55315267      20.20755129       0.00000000      -0.00882121      -0.01866998       0.03834421       0.01337001       0.00327398       0.02054973       0.23476975      -0.02395557       0.21162782
C        3.87555306       2.57944511      19.82231833       0.00000000      -0.01970500      -0.00990285       0.08639236       0.02046340      -0.00020592       0.03457344      -0.07657752       0.00266889       0.31909401
H        6.78950607       2.63977768      19.74264551       0.00000000       0.01497004       0.03472687       0.06111196       0.00907560       0.00599038       0.00772785      -0.09179189       0.01237623       0.31179995
O        2.71275840       2.60309743      19.61579245       0.00000000      -0.01985263      -0.00187053       0.07552757       0.02075500      -0.00303672       0.00566561      -0.23715739      -0.00421531       0.07215655
O        7.67934873       2.87109853      19.39571093       0.50000000       0.01373710      -0.01475713       0.03342178       0.01019524      -0.03139931       0.03486485       0.14472708       0.05321896      -0.01813161
H        8.32243325       2.29698519      19.84769014       0.50000000       0.03743546      -0.04059397      -0.05506950       0.00681161       0.01914352       0.00796572       0.04481118      -0.06914641       0.00975674
54
Lattice="10.26719046282867 0.0 0.0 0.0 7.700392847121503 0.0 0.0 0.0 27.347850919999996" Properties=species:S:1:pos:R:3:initial_magmoms:R:1:MACE_forces:R:3:forces:R:3:DFT_forces:R:3 MACE_energy=-218.96257185851834 energy=-218.98327494312278 stress="0.009287364640864227 -1.5923009327785505e-06 -0.00017830864227997187 -1.5923009327785505e-06 0.009170261350542941 2.2090300955904382e-06 -0.00017830864227997187 2.2090300955904382e-06 0.0012520742766357438" free_energy=-218.98327494312278 DFT_energy=-222.24785443 pbc="T T T"
Cu       1.28339881       1.28339881      11.83696273       0.00000000       0.00000000       0.00000000       0.00000000      -0.00120965       0.00039388       0.18392100      -0.00356073      -0.00151517       0.41078105
Cu       3.85019642       1.28339881      11.83696273       0.00000000       0.00000000       0.00000000       0.00000000       0.00128287       0.00015339       0.18431546       0.00657834      -0.00406953       0.41087173
Cu       6.41699404       1.28339881      11.83696273       0.00000000       0.00000000       0.00000000       0.00000000      -0.00031603      -0.00033761       0.18287886      -0.00014927       0.00672246       0.41328470
Cu       8.98379165       1.28339881      11.83696273       0.00000000       0.00000000       0.00000000       0.00000000       0.00017719      -0.00010624       0.18293831      -0.00053303       0.00662441       0.41439505
Cu       1.28339881       3.85019642      11.83696273       0.00000000       0.00000000       0.00000000       0.00000000      -0.00120926      -0.00040733       0.18391551      -0.00559764       0.00452344       0.41023475
Cu       3.85019642       3.85019642      11.83696273       0.00000000       0.00000000       0.00000000       0.00000000       0.00128485      -0.00016393       0.18431795       0.00873681       0.00516813       0.41018467
Cu       6.41699404       3.85019642      11.83696273       0.00000000       0.00000000       0.00000000       0.00000000      -0.00030343       0.00034271       0.18290542      -0.00037054      -0.00398884       0.41079066
Cu       8.98379165       3.85019642      11.83696273       0.00000000       0.00000000       0.00000000       0.00000000       0.00016245       0.00010908       0.18296359      -0.00015677      -0.00326834       0.41308308
Cu       1.28339881       6.41699404      11.83696273       0.00000000       0.00000000       0.00000000       0.00000000      -0.00070100       0.00001588       0.18332908       0.01574955      -0.00237410       0.41966874
Cu       3.85019642       6.41699404      11.83696273       0.00000000       0.00000000       0.00000000       0.00000000       0.00098015       0.00001367       0.18358238      -0.01314363      -0.00140659       0.41809202
Cu       6.41699404       6.41699404      11.83696273       0.00000000       0.00000000       0.00000000       0.00000000       0.00108623      -0.00000256       0.18582392       0.01113574      -0.00297792       0.41060398
Cu       8.98379165       6.41699404      11.83696273       0.00000000       0.00000000       0.00000000       0.00000000      -0.00134704      -0.00000103       0.18582947      -0.01080026      -0.00241460       0.40896496
Cu       7.70039285      -0.00000000      13.67392546       0.00000000       0.00000000       0.00000000       0.00000000       0.00020225       0.00018413      -0.09069413      -0.00193576      -0.00840858      -0.17892118
Cu       5.13359523      -0.00000000      13.67392546       0.00000000       0.00000000       0.00000000       0.00000000      -0.00107453      -0.00412450      -0.09565267       0.00006506       0.01754418      -0.14134713
Cu       2.56679762      -0.00000000      13.67392546       0.00000000       0.00000000       0.00000000       0.00000000      -0.00031407       0.00083016      -0.08955175      -0.00041910       0.00626082      -0.16845773
Cu       0.00000000      -0.00000000      13.67392546       0.00000000       0.00000000       0.00000000       0.00000000       0.00098417      -0.00260718      -0.09477591      -0.01530733       0.01869757      -0.14500451
Cu       0.00000000       2.56679762      13.67392546       0.00000000       0.00000000       0.00000000       0.00000000      -0.00011745       0.00002732      -0.08852795      -0.00614619       0.00318606      -0.18216484
Cu       2.56679762       2.56679762      13.67392546       0.00000000       0.00000000       0.00000000       0.00000000      -0.00174949       0.00001176      -0.09408713      -0.00268403      -0.00394994      -0.15259240
Cu       5.13359523       2.56679762      13.67392546       0.00000000       0.00000000       0.00000000       0.00000000       0.00088671       0.00003161      -0.08734403      -0.01019702       0.00109284      -0.17500364
Cu       7.70039285       2.56679762      13.67392546       0.00000000       0.00000000       0.00000000       0.00000000       0.00012617      -0.00007291      -0.09778330      -0.00031431       0.00490667      -0.15256728
Cu       0.00000000       5.13359523      13.67392546       0.00000000       0.00000000       0.00000000       0.00000000       0.00089782       0.00259221      -0.09471485      -0.00548823      -0.02033041      -0.15857379
Cu       2.56679762       5.13359523      13.67392546       0.00000000       0.00000000       0.00000000       0.00000000      -0.00030684      -0.00078099      -0.08935936      -0.00366546      -0.00219498      -0.17002520
Cu       5.13359523       5.13359523      13.67392546       0.00000000       0.00000000       0.00000000       0.00000000      -0.00099217       0.00411663      -0.09560446      -0.00525631      -0.01758465      -0.15672668
Cu       7.70039285       5.13359523      13.67392546       0.00000000       0.00000000       0.00000000       0.00000000       0.00020439      -0.00011159      -0.09099546      -0.00330336       0.00196355      -0.17459938
Cu       1.28339881       1.28339881      15.51088819       0.00000000       0.00000000       0.00000000       0.00000000       0.01813899      -0.02508138      -0.26806105       0.05532942      -0.00969723      -0.21738505
Cu       3.85019642       1.28339881      15.51088819       0.00000000       0.00000000       0.00000000       0.00000000      -0.06124003      -0.04797976      -0.28371043      -0.06573345      -0.03092398      -0.23614604
Cu       6.41699404       1.28339881      15.51088819       0.00000000       0.00000000       0.00000000       0.00000000       0.09460901       0.07366018      -0.16189073       0.12916367       0.08005715      -0.17047981
Cu       8.98379165       1.28339881      15.51088819       0.00000000       0.00000000       0.00000000       0.00000000      -0.09532938       0.08743023      -0.14525148      -0.11482391       0.08256312      -0.14215919
Cu       1.28339881       3.85019642      15.51088819       0.00000000       0.00000000       0.00000000       0.00000000       0.01902852       0.02580518      -0.26766635       0.04260271      -0.00208886      -0.20727720
Cu       3.85019642       3.85019642      15.51088819       0.00000000       0.00000000       0.00000000       0.00000000      -0.06222723       0.04913279      -0.28351134      -0.05683955       0.01929934      -0.22956389
Cu       6.41699404       3.85019642      15.51088819       0.00000000       0.00000000       0.00000000       0.00000000       0.09425217      -0.07303536      -0.16207057       0.11987031      -0.07488803      -0.16925557
Cu       8.98379165       3.85019642      15.51088819       0.00000000       0.00000000       0.00000000       0.00000000      -0.09479353      -0.08683845      -0.14565459      -0.09967963      -0.07465675      -0.15593714
Cu       1.28339881       6.41699404      15.51088819       0.00000000       0.00000000       0.00000000       0.00000000       0.00168629       0.00032955      -0.25051510      -0.03302146       0.01477737      -0.24672026
Cu       3.85019642       6.41699404      15.51088819       0.00000000       0.00000000       0.00000000       0.00000000      -0.01039868       0.00045043      -0.26911907       0.03152239       0.01181721      -0.29164032
Cu       6.41699404       6.41699404      15.51088819       0.00000000       0.00000000       0.00000000       0.00000000      -0.03781942       0.00006594      -0.30888129      -0.04354889       0.00717620      -0.25653458
Cu       8.98379165       6.41699404      15.51088819       0.00000000       0.00000000       0.00000000       0.00000000       0.05092765      -0.00020704      -0.30365416       0.05870289       0.00209732      -0.25635103
Cu       7.69871335       7.69063170      17.23634284       0.00000000       0.00597422      -0.00163434       0.14277749       0.00316674      -0.00995416       0.13918419       0.01108004      -0.01996082      -0.03119139
Cu       5.13426833       7.69945321      17.24613898       0.00000000       0.00253772      -0.01266458       0.14198096      -0.00062640      -0.01251039       0.13425749      -0.01396242       0.00783433      -0.03968693
Cu       2.56842503       7.69135285      17.23460088       0.00000000      -0.00829479      -0.01027621       0.14334863      -0.00372270      -0.00882101       0.13794574      -0.00115230       0.01765076      -0.01173852
Cu      10.26502768       7.70266654      17.24997511       0.00000000      -0.00047422      -0.00762735       0.14436088       0.00105285      -0.00590156       0.14367554      -0.00492716      -0.00237757      -0.05722285
Cu      10.27746842       2.56298167      17.21279648       0.00000000      -0.00374748      -0.00105416       0.14493658       0.00229826       0.00010727       0.13446549       0.01567443      -0.00447626      -0.02309468
Cu       2.56172352       2.56827846      17.28099058       0.00000000      -0.00403934       0.00045493       0.15509418      -0.00576306      -0.00021905       0.13448776      -0.04784246      -0.00366317      -0.40340424
Cu       5.11434867       2.56278167      17.20067429       0.00000000       0.00656464       0.00050238       0.17145405      -0.00024754       0.00026336       0.12558678       0.01239490       0.00886645      -0.09138473
Cu       7.70128177       2.55906159      17.34496806       0.00000000       0.01546506       0.02640163       0.15977765       0.00764127       0.00213767       0.13600353       0.02478848      -0.01689792      -0.44856459
Cu      10.26858822       5.13148763      17.24650208       0.00000000       0.00052855       0.00770645       0.14278775       0.00061308       0.00597787       0.14366813       0.01593422       0.01266449      -0.07889056
Cu       2.56861929       5.14713813      17.23244346       0.00000000      -0.00791475       0.00952420       0.14483172      -0.00373460       0.00916066       0.13745396       0.00034439      -0.02282667      -0.00157336
Cu       5.13163725       5.13368695      17.24274702       0.00000000       0.00167263       0.01242622       0.14144437      -0.00000401       0.01267987       0.13425899      -0.01821857      -0.01234334      -0.04428313
Cu       7.69935722       5.15520574      17.22630335       0.00000000       0.00553143       0.01194746       0.14084057       0.00318659       0.00947467       0.14002141      -0.00285915       0.03190148      -0.01390316
O        4.96829308       2.55441186      20.23371249       0.00000000      -0.00608936      -0.01830293       0.04187605       0.01337001       0.00327398       0.02054973       0.23872868      -0.02365532       0.18396663
C        3.84251206       2.58121777      19.89206859       0.00000000      -0.01317236      -0.00980497       0.08512304       0.02046340      -0.00020592       0.03457344      -0.08458479       0.00739304       0.24226003
H        6.77685187       2.62827928      19.75142081       0.00000000       0.01773306       0.02626673       0.05502198       0.00907560       0.00599038       0.00772785      -0.09739324       0.03066322       0.31823915
O        2.68222572       2.60550071      19.68630961       0.00000000      -0.01443014      -0.00119836       0.08187442       0.02075500      -0.00303672       0.00566561      -0.21508146      -0.00830075       0.09836015
O        7.66281914       2.86288890      19.39735780       0.50000000       0.01413013       0.00252639       0.04066336       0.01019524      -0.03139931       0.03486485       0.15886675       0.04454573      -0.02525591
H        8.31760132       2.31021970      19.85894842       0.50000000       0.02295921      -0.04503554      -0.05416967       0.00681161       0.01914352       0.00796572       0.03142862      -0.07475704       0.01184653
54
Lattice="10.26719046282867 0.0 0.0 0.0 7.700392847121503 0.0 0.0 0.0 27.347850919999996" Properties=species:S:1:pos:R:3:initial_magmoms:R:1:MACE_forces:R:3:forces:R:3:DFT_forces:R:3 MACE_energy=-218.97478814588263 energy=-218.98327494312278 stress="0.009287364640864227 -1.5923009327785505e-06 -0.00017830864227997187 -1.5923009327785505e-06 0.009170261350542941 2.2090300955904382e-06 -0.00017830864227997187 2.2090300955904382e-06 0.0012520742766357438" free_energy=-218.98327494312278 DFT_energy=-222.27495372 pbc="T T T"
Cu       1.28339881       1.28339881      11.83696273       0.00000000       0.00000000       0.00000000       0.00000000      -0.00120965       0.00039388       0.18392100      -0.00402292      -0.00239913       0.40940553
Cu       3.85019642       1.28339881      11.83696273       0.00000000       0.00000000       0.00000000       0.00000000       0.00128287       0.00015339       0.18431546       0.00719217      -0.00442282       0.41043469
Cu       6.41699404       1.28339881      11.83696273       0.00000000       0.00000000       0.00000000       0.00000000      -0.00031603      -0.00033761       0.18287886      -0.00015111       0.00788620       0.41215692
Cu       8.98379165       1.28339881      11.83696273       0.00000000       0.00000000       0.00000000       0.00000000       0.00017719      -0.00010624       0.18293831       0.00011426       0.00718440       0.41378826
Cu       1.28339881       3.85019642      11.83696273       0.00000000       0.00000000       0.00000000       0.00000000      -0.00120926      -0.00040733       0.18391551      -0.00535435       0.00539670       0.40916277
Cu       3.85019642       3.85019642      11.83696273       0.00000000       0.00000000       0.00000000       0.00000000       0.00128485      -0.00016393       0.18431795       0.00916982       0.00573863       0.40931245
Cu       6.41699404       3.85019642      11.83696273       0.00000000       0.00000000       0.00000000       0.00000000      -0.00030343       0.00034271       0.18290542      -0.00120436      -0.00534968       0.40958525
Cu       8.98379165       3.85019642      11.83696273       0.00000000       0.00000000       0.00000000       0.00000000       0.00016245       0.00010908       0.18296359       0.00076032      -0.00421116       0.41308660
Cu       1.28339881       6.41699404      11.83696273       0.00000000       0.00000000       0.00000000       0.00000000      -0.00070100       0.00001588       0.18332908       0.01519475      -0.00228997       0.41833294
Cu       3.85019642       6.41699404      11.83696273       0.00000000       0.00000000       0.00000000       0.00000000       0.00098015       0.00001367       0.18358238      -0.01287259      -0.00152836       0.41696300
Cu       6.41699404       6.41699404      11.83696273       0.00000000       0.00000000       0.00000000       0.00000000       0.00108623      -0.00000256       0.18582392       0.00956110      -0.00268184       0.40990173
Cu       8.98379165       6.41699404      11.83696273       0.00000000       0.00000000       0.00000000       0.00000000      -0.00134704      -0.00000103       0.18582947      -0.00826431      -0.00194656       0.40827620
Cu       7.70039285      -0.00000000      13.67392546       0.00000000       0.00000000       0.00000000       0.00000000       0.00020225       0.00018413      -0.09069413      -0.00211189      -0.00739056      -0.17901622
Cu       5.13359523      -0.00000000      13.67392546       0.00000000       0.00000000       0.00000000       0.00000000      -0.00107453      -0.00412450      -0.09565267       0.00089879       0.01615899      -0.14109308
Cu       2.56679762      -0.00000000      13.67392546       0.00000000       0.00000000       0.00000000       0.00000000      -0.00031407       0.00083016      -0.08955175       0.00113493       0.00587928      -0.16624010
Cu       0.00000000      -0.00000000      13.67392546       0.00000000       0.00000000       0.00000000       0.00000000       0.00098417      -0.00260718      -0.09477591      -0.01656334       0.01743737      -0.14612705
Cu       0.00000000       2.56679762      13.67392546       0.00000000       0.00000000       0.00000000       0.00000000      -0.00011745       0.00002732      -0.08852795      -0.00610673       0.00382670      -0.17989483
Cu       2.56679762       2.56679762      13.67392546       0.00000000       0.00000000       0.00000000       0.00000000      -0.00174949       0.00001176      -0.09408713      -0.00233933      -0.00461851      -0.15255956
Cu       5.13359523       2.56679762      13.67392546       0.00000000       0.00000000       0.00000000       0.00000000       0.00088671       0.00003161      -0.08734403      -0.01094235       0.00067585      -0.17432275
Cu       7.70039285       2.56679762      13.67392546       0.00000000       0.00000000       0.00000000       0.00000000       0.00012617      -0.00007291      -0.09778330       0.00114611       0.00609040      -0.15308856
Cu       0.00000000       5.13359523      13.67392546       0.00000000       0.00000000       0.00000000       0.00000000       0.00089782       0.00259221      -0.09471485      -0.00701104      -0.01959275      -0.15782527
Cu       2.56679762       5.13359523      13.67392546       0.00000000       0.00000000       0.00000000       0.00000000      -0.00030684      -0.00078099      -0.08935936      -0.00259305      -0.00116861      -0.16904951
Cu       5.13359523       5.13359523      13.67392546       0.00000000       0.00000000       0.00000000       0.00000000      -0.00099217       0.00411663      -0.09560446      -0.00458962      -0.01562155      -0.15691735
Cu       7.70039285       5.13359523      13.67392546       0.00000000       0.00000000       0.00000000       0.00000000       0.00020439      -0.00011159      -0.09099546      -0.00273467      -0.00011786      -0.17340822
Cu       1.28339881       1.28339881      15.51088819       0.00000000       0.00000000       0.00000000       0.00000000       0.01813899      -0.02508138      -0.26806105       0.05005108      -0.01437315      -0.22032971
Cu       3.85019642       1.28339881      15.51088819       0.00000000       0.00000000       0.00000000       0.00000000      -0.06124003      -0.04797976      -0.28371043      -0.06124089      -0.03835452      -0.23652001
Cu       6.41699404       1.28339881      15.51088819       0.00000000       0.00000000       0.00000000       0.00000000       0.09460901       0.07366018      -0.16189073       0.12489780       0.08459735      -0.16340906
Cu       8.98379165       1.28339881      15.51088819       0.00000000       0.00000000       0.00000000       0.00000000      -0.09532938       0.08743023      -0.14525148      -0.11338496       0.08806434      -0.13501605
Cu       1.28339881       3.85019642      15.51088819       0.00000000       0.00000000       0.00000000       0.00000000       0.01902852       0.02580518      -0.26766635       0.03693771       0.00326964      -0.20986280
Cu       3.85019642       3.85019642      15.51088819       0.00000000       0.00000000       0.00000000       0.00000000      -0.06222723       0.04913279      -0.28351134      -0.05228898       0.02642403      -0.22706628
Cu       6.41699404       3.85019642      15.51088819       0.00000000       0.00000000       0.00000000       0.00000000       0.09425217      -0.07303536      -0.16207057       0.11752822      -0.08031757      -0.16286841
Cu       8.98379165       3.85019642      15.51088819       0.00000000       0.00000000       0.00000000       0.00000000      -0.09479353      -0.08683845      -0.14565459      -0.09977088      -0.08067241      -0.15025398
Cu       1.28339881       6.41699404      15.51088819       0.00000000       0.00000000       0.00000000       0.00000000       0.00168629       0.00032955      -0.25051510      -0.02429835       0.01395315      -0.23429352
Cu       3.85019642       6.41699404      15.51088819       0.00000000       0.00000000       0.00000000       0.00000000      -0.01039868       0.00045043      -0.26911907       0.02454298       0.01226958      -0.28149829
Cu       6.41699404       6.41699404      15.51088819       0.00000000       0.00000000       0.00000000       0.00000000      -0.03781942       0.00006594      -0.30888129      -0.04538516       0.00636645      -0.25049312
Cu       8.98379165       6.41699404      15.51088819       0.00000000       0.00000000       0.00000000       0.00000000       0.05092765      -0.00020704      -0.30365416       0.06072666       0.00092181      -0.25647461
Cu       7.69922296       7.68986181      17.23625774       0.00000000       0.00497631      -0.00153347       0.14240772       0.00316674      -0.00995416       0.13918419       0.00981209      -0.01929838      -0.02951751
Cu       5.13443285       7.69972440      17.24726556       0.00000000       0.00199980      -0.01266920       0.13972223      -0.00062640      -0.01251039       0.13425749      -0.01322588       0.00687995      -0.04280597
Cu       2.56856270       7.69321280      17.23790241       0.00000000      -0.00696079      -0.00996310       0.14145703      -0.00372270      -0.00882101       0.13794574       0.00034408       0.01710103      -0.01926396
Cu      10.26529085       7.70270793      17.25031577       0.00000000      -0.00039341      -0.00717251       0.14431996       0.00105285      -0.00590156       0.14367554      -0.00508998      -0.00215971      -0.05636000
Cu      10.27822249       2.56327322      17.21505834       0.00000000      -0.00283218      -0.00117741       0.14316889       0.00229826       0.00010727       0.13446549       0.01480603      -0.00409346      -0.02569606
Cu       2.56197736       2.56816484      17.27697570       0.00000000      -0.00486095       0.00026427       0.15122620      -0.00576306      -0.00021905       0.13448776      -0.03620424      -0.00236646      -0.35478614
Cu       5.11192128       2.56304732      17.20274092       0.00000000       0.00403453      -0.00027860       0.16105493      -0.00024754       0.00026336       0.12558678       0.00720426       0.00784029      -0.08624389
Cu       7.70133624       2.55863268      17.34767238       0.00000000       0.00933428       0.02136192       0.15670198       0.00764127       0.00213767       0.13600353       0.02496392      -0.02055657      -0.45355061
Cu      10.26855002       5.13146160      17.24709248       0.00000000       0.00060153       0.00719756       0.14282291       0.00061308       0.00597787       0.14366813       0.01579674       0.01170652      -0.07793049
Cu       2.56872073       5.14490421      17.23592544       0.00000000      -0.00670120       0.00957328       0.14247473      -0.00373460       0.00916066       0.13745396       0.00317789      -0.02181732      -0.00899255
Cu       5.13181699       5.13373305      17.24394129       0.00000000       0.00088198       0.01259550       0.13890175      -0.00000401       0.01267987       0.13425899      -0.01953114      -0.01112628      -0.04714696
Cu       7.69978693       5.15455346      17.22674897       0.00000000       0.00470688       0.01255827       0.14011759       0.00318659       0.00947467       0.14002141      -0.00321612       0.03274855      -0.01374026
O        4.94668372       2.55610909      20.25718514       0.00000000      -0.00297598      -0.01860044       0.03853058       0.01337001       0.00327398       0.02054973       0.23990799      -0.02392767       0.16961342
C        3.81051659       2.58331759      19.95305265       0.00000000      -0.01075894      -0.00984276       0.08199316       0.02046340      -0.00020592       0.03457344      -0.08611699       0.00466886       0.19611258
H        6.75999689       2.61533818      19.76160118       0.00000000       0.02382845       0.01962696       0.04428795       0.00907560       0.00599038       0.00772785      -0.10025189       0.04929926       0.32178157
O        2.64973580       2.60815360      19.75925665       0.00000000      -0.00528047      -0.00054438       0.07583736       0.02075500      -0.00303672       0.00566561      -0.22248309      -0.00618084       0.08603163
O        7.64189781       2.85160420      19.39867533       0.50000000       0.01554012       0.02215413       0.05156361       0.01019524      -0.03139931       0.03486485       0.17490876       0.03710429      -0.03370860
H        8.30934025       2.32700923      19.87432528       0.50000000       0.00935031      -0.05111050      -0.05552101       0.00681161       0.01914352       0.00796572       0.01857175      -0.08090593       0.01342579
54
Lattice="10.26719046282867 0.0 0.0 0.0 7.700392847121503 0.0 0.0 0.0 27.347850919999996" Properties=species:S:1:pos:R:3:initial_magmoms:R:1:MACE_forces:R:3:forces:R:3:DFT_forces:R:3 MACE_energy=-218.98267642960477 energy=-218.98327494312278 stress="0.009287364640864227 -1.5923009327785505e-06 -0.00017830864227997187 -1.5923009327785505e-06 0.009170261350542941 2.2090300955904382e-06 -0.00017830864227997187 2.2090300955904382e-06 0.0012520742766357438" free_energy=-218.98327494312278 DFT_energy=-222.29435397 pbc="T T T"
Cu       1.28339881       1.28339881      11.83696273       0.00000000       0.00000000       0.00000000       0.00000000      -0.00120965       0.00039388       0.18392100      -0.00371256      -0.00361368       0.40680243
Cu       3.85019642       1.28339881      11.83696273       0.00000000       0.00000000       0.00000000       0.00000000       0.00128287       0.00015339       0.18431546       0.00683310      -0.00479450       0.40895164
Cu       6.41699404       1.28339881      11.83696273       0.00000000       0.00000000       0.00000000       0.00000000      -0.00031603      -0.00033761       0.18287886       0.00058639       0.00950109       0.40900534
Cu       8.98379165       1.28339881      11.83696273       0.00000000       0.00000000       0.00000000       0.00000000       0.00017719      -0.00010624       0.18293831      -0.00076910       0.00798153       0.41194349
Cu       1.28339881       3.85019642      11.83696273       0.00000000       0.00000000       0.00000000       0.00000000      -0.00120926      -0.00040733       0.18391551      -0.00412523       0.00633622       0.40693429
Cu       3.85019642       3.85019642      11.83696273       0.00000000       0.00000000       0.00000000       0.00000000       0.00128485      -0.00016393       0.18431795       0.00857581       0.00622403       0.40745390
Cu       6.41699404       3.85019642      11.83696273       0.00000000       0.00000000       0.00000000       0.00000000      -0.00030343       0.00034271       0.18290542      -0.00141224      -0.00726638       0.40616896
Cu       8.98379165       3.85019642      11.83696273       0.00000000       0.00000000       0.00000000       0.00000000       0.00016245       0.00010908       0.18296359       0.00012002      -0.00553558       0.41172313
Cu       1.28339881       6.41699404      11.83696273       0.00000000       0.00000000       0.00000000       0.00000000      -0.00070100       0.00001588       0.18332908       0.01521181      -0.00210920       0.41508048
Cu       3.85019642       6.41699404      11.83696273       0.00000000       0.00000000       0.00000000       0.00000000       0.00098015       0.00001367       0.18358238      -0.01396157      -0.00171672       0.41499292
Cu       6.41699404       6.41699404      11.83696273       0.00000000       0.00000000       0.00000000       0.00000000       0.00108623      -0.00000256       0.18582392       0.00883404      -0.00251571       0.40793415
Cu       8.98379165       6.41699404      11.83696273       0.00000000       0.00000000       0.00000000       0.00000000      -0.00134704      -0.00000103       0.18582947      -0.00687328      -0.00148865       0.40647248
Cu       7.70039285      -0.00000000      13.67392546       0.00000000       0.00000000       0.00000000       0.00000000       0.00020225       0.00018413      -0.09069413      -0.00165150      -0.00648684      -0.17923154
Cu       5.13359523      -0.00000000      13.67392546       0.00000000       0.00000000       0.00000000       0.00000000      -0.00107453      -0.00412450      -0.09565267       0.00218496       0.01467767      -0.14066769
Cu       2.56679762      -0.00000000      13.67392546       0.00000000       0.00000000       0.00000000       0.00000000      -0.00031407       0.00083016      -0.08955175       0.00281833       0.00559791      -0.16388085
Cu       0.00000000      -0.00000000      13.67392546       0.00000000       0.00000000       0.00000000       0.00000000       0.00098417      -0.00260718      -0.09477591      -0.01709745       0.01683509      -0.14764249
Cu       0.00000000       2.56679762      13.67392546       0.00000000       0.00000000       0.00000000       0.00000000      -0.00011745       0.00002732      -0.08852795      -0.00546297       0.00435945      -0.17684303
Cu       2.56679762       2.56679762      13.67392546       0.00000000       0.00000000       0.00000000       0.00000000      -0.00174949       0.00001176      -0.09408713      -0.00207095      -0.00547707      -0.15242242
Cu       5.13359523       2.56679762      13.67392546       0.00000000       0.00000000       0.00000000       0.00000000       0.00088671       0.00003161      -0.08734403      -0.01121109       0.00001632      -0.17396739
Cu       7.70039285       2.56679762      13.67392546       0.00000000       0.00000000       0.00000000       0.00000000       0.00012617      -0.00007291      -0.09778330       0.00321232       0.00734285      -0.15348413
Cu       0.00000000       5.13359523      13.67392546       0.00000000       0.00000000       0.00000000       0.00000000       0.00089782       0.00259221      -0.09471485      -0.00768996      -0.01952880      -0.15690448
Cu       2.56679762       5.13359523      13.67392546       0.00000000       0.00000000       0.00000000       0.00000000      -0.00030684      -0.00078099      -0.08935936      -0.00113092      -0.00026660      -0.16834089
Cu       5.13359523       5.13359523      13.67392546       0.00000000       0.00000000       0.00000000       0.00000000      -0.00099217       0.00411663      -0.09560446      -0.00355300      -0.01354428      -0.15673348
Cu       7.70039285       5.13359523      13.67392546       0.00000000       0.00000000       0.00000000       0.00000000       0.00020439      -0.00011159      -0.09099546      -0.00183218      -0.00239536      -0.17203726
Cu       1.28339881       1.28339881      15.51088819       0.00000000       0.00000000       0.00000000       0.00000000       0.01813899      -0.02508138      -0.26806105       0.04670708      -0.01746095      -0.22223932
Cu       3.85019642       1.28339881      15.51088819       0.00000000       0.00000000       0.00000000       0.00000000      -0.06124003      -0.04797976      -0.28371043      -0.06143988      -0.04550576      -0.23943821
Cu       6.41699404       1.28339881      15.51088819       0.00000000       0.00000000       0.00000000       0.00000000       0.09460901       0.07366018      -0.16189073       0.11886458       0.08819991      -0.15856689
Cu       8.98379165       1.28339881      15.51088819       0.00000000       0.00000000       0.00000000       0.00000000      -0.09532938       0.08743023      -0.14525148      -0.11244378       0.09264078      -0.13046160
Cu       1.28339881       3.85019642      15.51088819       0.00000000       0.00000000       0.00000000       0.00000000       0.01902852       0.02580518      -0.26766635       0.03315157       0.00724324      -0.21117859
Cu       3.85019642       3.85019642      15.51088819       0.00000000       0.00000000       0.00000000       0.00000000      -0.06222723       0.04913279      -0.28351134      -0.05223609       0.03312498      -0.22634393
Cu       6.41699404       3.85019642      15.51088819       0.00000000       0.00000000       0.00000000       0.00000000       0.09425217      -0.07303536      -0.16207057       0.11473170      -0.08561429      -0.15751674
Cu       8.98379165       3.85019642      15.51088819       0.00000000       0.00000000       0.00000000       0.00000000      -0.09479353      -0.08683845      -0.14565459      -0.10164042      -0.08676547      -0.14580362
Cu       1.28339881       6.41699404      15.51088819       0.00000000       0.00000000       0.00000000       0.00000000       0.00168629       0.00032955      -0.25051510      -0.01658893       0.01281811      -0.22330339
Cu       3.85019642       6.41699404      15.51088819       0.00000000       0.00000000       0.00000000       0.00000000      -0.01039868       0.00045043      -0.26911907       0.01633819       0.01259467      -0.27394658
Cu       6.41699404       6.41699404      15.51088819       0.00000000       0.00000000       0.00000000       0.00000000      -0.03781942       0.00006594      -0.30888129      -0.04747499       0.00478278      -0.24673834
Cu       8.98379165       6.41699404      15.51088819       0.00000000       0.00000000       0.00000000       0.00000000       0.05092765      -0.00020704      -0.30365416       0.06163450      -0.00072589      -0.25632058
Cu       7.69957408       7.68869972      17.23581784       0.00000000       0.00466877      -0.00205172       0.14319885       0.00316674      -0.00995416       0.13918419       0.00918979      -0.01979572      -0.02542130
Cu       5.13446289       7.69994996      17.24795837       0.00000000       0.00199219      -0.01239138       0.13931329      -0.00062640      -0.01251039       0.13425749      -0.01151027       0.00585649      -0.04357682
Cu       2.56878073       7.69498641      17.24085711       0.00000000      -0.00656992      -0.01030513       0.14022297      -0.00372270      -0.00882101       0.13794574       0.00072208       0.01495401      -0.02461418
Cu      10.26559569       7.70276088      17.25060842       0.00000000      -0.00055411      -0.00684401       0.14442921       0.00105285      -0.00590156       0.14367554      -0.00512690      -0.00255238      -0.05489245
Cu      10.27930776       2.56365446      17.21706654       0.00000000      -0.00452236      -0.00133971       0.14292148       0.00229826       0.00010727       0.13446549       0.01109959      -0.00391278      -0.02604769
Cu       2.56200077       2.56803430      17.27481484       0.00000000      -0.00557620       0.00026972       0.14843309      -0.00576306      -0.00021905       0.13448776      -0.02893465      -0.00108605      -0.31984621
Cu       5.10831969       2.56327937      17.20423994       0.00000000       0.00571489      -0.00059514       0.15635212      -0.00024754       0.00026336       0.12558678       0.00674555       0.00692548      -0.07564167
Cu       7.70054740       2.55704869      17.34876212       0.00000000       0.00753010       0.01840546       0.16257741       0.00764127       0.00213767       0.13600353       0.02792720      -0.02327284      -0.44540092
Cu      10.26845064       5.13140546      17.24777127       0.00000000       0.00081214       0.00710006       0.14264048       0.00061308       0.00597787       0.14366813       0.01628080       0.01133766      -0.07602545
Cu       2.56888357       5.14275844      17.23902844       0.00000000      -0.00646022       0.01009364       0.14104790      -0.00373460       0.00916066       0.13745396       0.00410745      -0.02001708      -0.01372677
Cu       5.13195668       5.13382736      17.24478442       0.00000000       0.00043187       0.01239657       0.13803721      -0.00000401       0.01267987       0.13425899      -0.02028571      -0.01039585      -0.04760886
Cu       7.70008990       5.15390783      17.22712846       0.00000000       0.00443828       0.01107271       0.14002625       0.00318659       0.00947467       0.14002141      -0.00282575       0.03130930      -0.01184258
O        4.92385263       2.55889810      20.27806542       0.00000000      -0.00151406      -0.01918321       0.03488028       0.01337001       0.00327398       0.02054973       0.23778678      -0.02418690       0.16093773
C        3.77945246       2.58596334      20.00693443       0.00000000      -0.00995103      -0.00975438       0.07629537       0.02046340      -0.00020592       0.03457344      -0.08214905       0.00320900       0.16123864
H        6.74106456       2.60150694      19.77255670       0.00000000       0.02277652       0.01402736       0.03252761       0.00907560       0.00599038       0.00772785      -0.09806706       0.07596489       0.32361353
O        2.61724218       2.61087896      19.82859978       0.00000000       0.00368046      -0.00005106       0.06555868       0.02075500      -0.00303672       0.00566561      -0.22647925      -0.00080596       0.06882211
O        7.61881653       2.83540859      19.39883124       0.50000000       0.01633715       0.04756800       0.06372129       0.01019524      -0.03139931       0.03486485       0.18184032       0.02931765      -0.04201579
H        8.29842845       2.34904012      19.89662857       0.50000000       0.00494682      -0.06125154      -0.06155502       0.00681161       0.01914352       0.00796572       0.01425277      -0.09031383       0.01259894
54
Lattice="10.26719046282867 0.0 0.0 0.0 7.700392847121503 0.0 0.0 0.0 27.347850919999996" Properties=species:S:1:pos:R:3:initial_magmoms:R:1:MACE_forces:R:3:forces:R:3:DFT_forces:R:3 MACE_energy=-218.9871665869243 energy=-218.98327494312278 stress="0.009287364640864227 -1.5923009327785505e-06 -0.00017830864227997187 -1.5923009327785505e-06 0.009170261350542941 2.2090300955904382e-06 -0.00017830864227997187 2.2090300955904382e-06 0.0012520742766357438" free_energy=-218.98327494312278 DFT_energy=-222.30757313 pbc="T T T"
Cu       1.28339881       1.28339881      11.83696273       0.00000000       0.00000000       0.00000000       0.00000000      -0.00120965       0.00039388       0.18392100      -0.00215906      -0.00504994       0.40313111
Cu       3.85019642       1.28339881      11.83696273       0.00000000       0.00000000       0.00000000       0.00000000       0.00128287       0.00015339       0.18431546       0.00572005      -0.00537052       0.40567899
Cu       6.41699404       1.28339881      11.83696273       0.00000000       0.00000000       0.00000000       0.00000000      -0.00031603      -0.00033761       0.18287886       0.00271235       0.01189281       0.40422280
Cu       8.98379165       1.28339881      11.83696273       0.00000000       0.00000000       0.00000000       0.00000000       0.00017719      -0.00010624       0.18293831      -0.00286333       0.00956285       0.40833133
Cu       1.28339881       3.85019642      11.83696273       0.00000000       0.00000000       0.00000000       0.00000000      -0.00120926      -0.00040733       0.18391551      -0.00210299       0.00756539       0.40335405
Cu       3.85019642       3.85019642      11.83696273       0.00000000       0.00000000       0.00000000       0.00000000       0.00128485      -0.00016393       0.18431795       0.00717063       0.00691914       0.40423455
Cu       6.41699404       3.85019642      11.83696273       0.00000000       0.00000000       0.00000000       0.00000000      -0.00030343       0.00034271       0.18290542       0.00038080      -0.00971608       0.40139252
Cu       8.98379165       3.85019642      11.83696273       0.00000000       0.00000000       0.00000000       0.00000000       0.00016245       0.00010908       0.18296359      -0.00181787      -0.00735115       0.40831288
Cu       1.28339881       6.41699404      11.83696273       0.00000000       0.00000000       0.00000000       0.00000000      -0.00070100       0.00001588       0.18332908       0.01667959      -0.00164349       0.41063437
Cu       3.85019642       6.41699404      11.83696273       0.00000000       0.00000000       0.00000000       0.00000000       0.00098015       0.00001367       0.18358238      -0.01599627      -0.00157044       0.41135465
Cu       6.41699404       6.41699404      11.83696273       0.00000000       0.00000000       0.00000000       0.00000000       0.00108623      -0.00000256       0.18582392       0.00912767      -0.00224104       0.40472218
Cu       8.98379165       6.41699404      11.83696273       0.00000000       0.00000000       0.00000000       0.00000000      -0.00134704      -0.00000103       0.18582947      -0.00631294      -0.00103018       0.40335019
Cu       7.70039285      -0.00000000      13.67392546       0.00000000       0.00000000       0.00000000       0.00000000       0.00020225       0.00018413      -0.09069413      -0.00070613      -0.00542366      -0.17819603
Cu       5.13359523      -0.00000000      13.67392546       0.00000000       0.00000000       0.00000000       0.00000000      -0.00107453      -0.00412450      -0.09565267       0.00475135       0.01362481      -0.14116519
Cu       2.56679762      -0.00000000      13.67392546       0.00000000       0.00000000       0.00000000       0.00000000      -0.00031407       0.00083016      -0.08955175       0.00440682       0.00565911      -0.16196183
Cu       0.00000000      -0.00000000      13.67392546       0.00000000       0.00000000       0.00000000       0.00000000       0.00098417      -0.00260718      -0.09477591      -0.01634052       0.01663999      -0.14867040
Cu       0.00000000       2.56679762      13.67392546       0.00000000       0.00000000       0.00000000       0.00000000      -0.00011745       0.00002732      -0.08852795      -0.00363870       0.00435301      -0.17431281
Cu       2.56679762       2.56679762      13.67392546       0.00000000       0.00000000       0.00000000       0.00000000      -0.00174949       0.00001176      -0.09408713      -0.00108964      -0.00547760      -0.15156389
Cu       5.13359523       2.56679762      13.67392546       0.00000000       0.00000000       0.00000000       0.00000000       0.00088671       0.00003161      -0.08734403      -0.00967230      -0.00019388      -0.17312860
Cu       7.70039285       2.56679762      13.67392546       0.00000000       0.00000000       0.00000000       0.00000000       0.00012617      -0.00007291      -0.09778330       0.00517494       0.00757212      -0.15488412
Cu       0.00000000       5.13359523      13.67392546       0.00000000       0.00000000       0.00000000       0.00000000       0.00089782       0.00259221      -0.09471485      -0.00739389      -0.01904811      -0.15609704
Cu       2.56679762       5.13359523      13.67392546       0.00000000       0.00000000       0.00000000       0.00000000      -0.00030684      -0.00078099      -0.08935936       0.00075837      -0.00022625      -0.16727415
Cu       5.13359523       5.13359523      13.67392546       0.00000000       0.00000000       0.00000000       0.00000000      -0.00099217       0.00411663      -0.09560446      -0.00088635      -0.01206581      -0.15611098
Cu       7.70039285       5.13359523      13.67392546       0.00000000       0.00000000       0.00000000       0.00000000       0.00020439      -0.00011159      -0.09099546      -0.00084789      -0.00340448      -0.17067831
Cu       1.28339881       1.28339881      15.51088819       0.00000000       0.00000000       0.00000000       0.00000000       0.01813899      -0.02508138      -0.26806105       0.04280276      -0.02130909      -0.22559613
Cu       3.85019642       1.28339881      15.51088819       0.00000000       0.00000000       0.00000000       0.00000000      -0.06124003      -0.04797976      -0.28371043      -0.06187833      -0.05295634      -0.24427161
Cu       6.41699404       1.28339881      15.51088819       0.00000000       0.00000000       0.00000000       0.00000000       0.09460901       0.07366018      -0.16189073       0.11387627       0.09084966      -0.15585164
Cu       8.98379165       1.28339881      15.51088819       0.00000000       0.00000000       0.00000000       0.00000000      -0.09532938       0.08743023      -0.14525148      -0.11226102       0.09624637      -0.12763308
Cu       1.28339881       3.85019642      15.51088819       0.00000000       0.00000000       0.00000000       0.00000000       0.01902852       0.02580518      -0.26766635       0.02986553       0.01255090      -0.21469128
Cu       3.85019642       3.85019642      15.51088819       0.00000000       0.00000000       0.00000000       0.00000000      -0.06222723       0.04913279      -0.28351134      -0.05314012       0.04126233      -0.22980627
Cu       6.41699404       3.85019642      15.51088819       0.00000000       0.00000000       0.00000000       0.00000000       0.09425217      -0.07303536      -0.16207057       0.11228444      -0.08949628      -0.15344085
Cu       8.98379165       3.85019642      15.51088819       0.00000000       0.00000000       0.00000000       0.00000000      -0.09479353      -0.08683845      -0.14565459      -0.10413914      -0.09202491      -0.14068717
Cu       1.28339881       6.41699404      15.51088819       0.00000000       0.00000000       0.00000000       0.00000000       0.00168629       0.00032955      -0.25051510      -0.00942624       0.01137673      -0.21368024
Cu       3.85019642       6.41699404      15.51088819       0.00000000       0.00000000       0.00000000       0.00000000      -0.01039868       0.00045043      -0.26911907       0.00773097       0.01199951      -0.26605172
Cu       6.41699404       6.41699404      15.51088819       0.00000000       0.00000000       0.00000000       0.00000000      -0.03781942       0.00006594      -0.30888129      -0.04840310       0.00345148      -0.24461116
Cu       8.98379165       6.41699404      15.51088819       0.00000000       0.00000000       0.00000000       0.00000000       0.05092765      -0.00020704      -0.30365416       0.06078086      -0.00154578      -0.25705585
Cu       7.69987237       7.68761720      17.23527449       0.00000000       0.00440239      -0.00295199       0.14389220       0.00316674      -0.00995416       0.13918419       0.00871331      -0.02136455      -0.02135228
Cu       5.13444078       7.70012894      17.24859778       0.00000000       0.00195000      -0.01224668       0.13888195      -0.00062640      -0.01251039       0.13425749      -0.00956343       0.00426750      -0.04261230
Cu       2.56889004       7.69654580      17.24364417       0.00000000      -0.00619458      -0.01048571       0.13937534      -0.00372270      -0.00882101       0.13794574       0.00185440       0.01414286      -0.02694215
Cu      10.26585334       7.70277792      17.25089525       0.00000000      -0.00067298      -0.00654170       0.14456361       0.00105285      -0.00590156       0.14367554      -0.00363410      -0.00277471      -0.05284719
Cu      10.28052209       2.56406903      17.21919786       0.00000000      -0.00543033      -0.00151614       0.14247152       0.00229826       0.00010727       0.13446549       0.00795715      -0.00354198      -0.02665467
Cu       2.56205078       2.56784875      17.27116330       0.00000000      -0.00574492       0.00026084       0.14559380      -0.00576306      -0.00021905       0.13448776      -0.02350052      -0.00056202      -0.28217333
Cu       5.10509772       2.56356064      17.20544681       0.00000000       0.00700158      -0.00096604       0.15148211      -0.00024754       0.00026336       0.12558678       0.00533771       0.00651075      -0.06357582
Cu       7.69981558       2.55595020      17.34911153       0.00000000       0.00630538       0.01332986       0.16724501       0.00764127       0.00213767       0.13600353       0.03204563      -0.02568020      -0.43670692
Cu      10.26827087       5.13136693      17.24848698       0.00000000       0.00103116       0.00704343       0.14252386       0.00061308       0.00597787       0.14366813       0.01730970       0.01053543      -0.07260543
Cu       2.56895094       5.14074504      17.24202429       0.00000000      -0.00622188       0.01034576       0.14000551      -0.00373460       0.00916066       0.13745396       0.00548640      -0.01893540      -0.01682254
Cu       5.13214065       5.13390533      17.24566979       0.00000000      -0.00004688       0.01241528       0.13712366      -0.00000401       0.01267987       0.13425899      -0.01978000      -0.00910200      -0.04616512
Cu       7.70034500       5.15338474      17.22752981       0.00000000       0.00422038       0.00974216       0.13986243       0.00318659       0.00947467       0.14002141      -0.00241556       0.02936940      -0.00920693
O        4.90165304       2.56180218      20.29560919       0.00000000       0.00055639      -0.01925466       0.03142700       0.01337001       0.00327398       0.02054973       0.23746241      -0.02295197       0.14809413
C        3.74999714       2.58864487      20.05710003       0.00000000      -0.01075711      -0.00930243       0.07493803       0.02046340      -0.00020592       0.03457344      -0.08473457       0.00614871       0.14502245
H        6.72181349       2.58964599      19.78455590       0.00000000       0.02291432       0.00459604       0.02078027       0.00907560       0.00599038       0.00772785      -0.10473066       0.11348594       0.32418826
O        2.58575331       2.61361078      19.89880634       0.00000000       0.00951103       0.00048638       0.05925305       0.02075500      -0.00303672       0.00566561      -0.23090158      -0.01010684       0.05156138
O        7.59581443       2.81370995      19.39711243       0.50000000       0.01731717       0.07932145       0.07646069       0.01019524      -0.03139931       0.03486485       0.18976301       0.01717580      -0.04847257
H        8.28711055       2.37355378      19.92026694       0.50000000       0.00151134      -0.07314655      -0.06399345       0.00681161       0.01914352       0.00796572       0.01018312      -0.10099789       0.01597177
54
Lattice="10.26719046282867 0.0 0.0 0.0 7.700392847121503 0.0 0.0 0.0 27.347850919999996" Properties=species:S:1:pos:R:3:initial_magmoms:R:1:MACE_forces:R:3:forces:R:3:DFT_forces:R:3 MACE_energy=-218.9881705772305 energy=-218.98327494312278 stress="0.009287364640864227 -1.5923009327785505e-06 -0.00017830864227997187 -1.5923009327785505e-06 0.009170261350542941 2.2090300955904382e-06 -0.00017830864227997187 2.2090300955904382e-06 0.0012520742766357438" free_energy=-218.98327494312278 DFT_energy=-222.31505337 pbc="T T T"
Cu       1.28339881       1.28339881      11.83696273       0.00000000       0.00000000       0.00000000       0.00000000      -0.00120965       0.00039388       0.18392100      -0.00117964      -0.00645304       0.40031406
Cu       3.85019642       1.28339881      11.83696273       0.00000000       0.00000000       0.00000000       0.00000000       0.00128287       0.00015339       0.18431546       0.00371647      -0.00620243       0.40253916
Cu       6.41699404       1.28339881      11.83696273       0.00000000       0.00000000       0.00000000       0.00000000      -0.00031603      -0.00033761       0.18287886       0.00410502       0.01405609       0.40046329
Cu       8.98379165       1.28339881      11.83696273       0.00000000       0.00000000       0.00000000       0.00000000       0.00017719      -0.00010624       0.18293831      -0.00568373       0.01115872       0.40500696
Cu       1.28339881       3.85019642      11.83696273       0.00000000       0.00000000       0.00000000       0.00000000      -0.00120926      -0.00040733       0.18391551      -0.00127441       0.00869924       0.40048803
Cu       3.85019642       3.85019642      11.83696273       0.00000000       0.00000000       0.00000000       0.00000000       0.00128485      -0.00016393       0.18431795       0.00489458       0.00756160       0.40147003
Cu       6.41699404       3.85019642      11.83696273       0.00000000       0.00000000       0.00000000       0.00000000      -0.00030343       0.00034271       0.18290542       0.00216768      -0.01202348       0.39790915
Cu       8.98379165       3.85019642      11.83696273       0.00000000       0.00000000       0.00000000       0.00000000       0.00016245       0.00010908       0.18296359      -0.00461270      -0.00910879       0.40487688
Cu       1.28339881       6.41699404      11.83696273       0.00000000       0.00000000       0.00000000       0.00000000      -0.00070100       0.00001588       0.18332908       0.01799915      -0.00103696       0.40688196
Cu       3.85019642       6.41699404      11.83696273       0.00000000       0.00000000       0.00000000       0.00000000       0.00098015       0.00001367       0.18358238      -0.01875890      -0.00108970       0.40739025
Cu       6.41699404       6.41699404      11.83696273       0.00000000       0.00000000       0.00000000       0.00000000       0.00108623      -0.00000256       0.18582392       0.00866938      -0.00187291       0.40259817
Cu       8.98379165       6.41699404      11.83696273       0.00000000       0.00000000       0.00000000       0.00000000      -0.00134704      -0.00000103       0.18582947      -0.00695512      -0.00065868       0.40100040
Cu       7.70039285      -0.00000000      13.67392546       0.00000000       0.00000000       0.00000000       0.00000000       0.00020225       0.00018413      -0.09069413      -0.00045009      -0.00418555      -0.17591564
Cu       5.13359523      -0.00000000      13.67392546       0.00000000       0.00000000       0.00000000       0.00000000      -0.00107453      -0.00412450      -0.09565267       0.00628821       0.01290742      -0.14268642
Cu       2.56679762      -0.00000000      13.67392546       0.00000000       0.00000000       0.00000000       0.00000000      -0.00031407       0.00083016      -0.08955175       0.00462722       0.00564077      -0.16081037
Cu       0.00000000      -0.00000000      13.67392546       0.00000000       0.00000000       0.00000000       0.00000000       0.00098417      -0.00260718      -0.09477591      -0.01549177       0.01634960      -0.14905964
Cu       0.00000000       2.56679762      13.67392546       0.00000000       0.00000000       0.00000000       0.00000000      -0.00011745       0.00002732      -0.08852795      -0.00260234       0.00384208      -0.17323674
Cu       2.56679762       2.56679762      13.67392546       0.00000000       0.00000000       0.00000000       0.00000000      -0.00174949       0.00001176      -0.09408713      -0.00069992      -0.00440220      -0.14925479
Cu       5.13359523       2.56679762      13.67392546       0.00000000       0.00000000       0.00000000       0.00000000       0.00088671       0.00003161      -0.08734403      -0.00803616      -0.00009309      -0.17185320
Cu       7.70039285       2.56679762      13.67392546       0.00000000       0.00000000       0.00000000       0.00000000       0.00012617      -0.00007291      -0.09778330       0.00567289       0.00635067      -0.15609072
Cu       0.00000000       5.13359523      13.67392546       0.00000000       0.00000000       0.00000000       0.00000000       0.00089782       0.00259221      -0.09471485      -0.00772048      -0.01800674      -0.15531791
Cu       2.56679762       5.13359523      13.67392546       0.00000000       0.00000000       0.00000000       0.00000000      -0.00030684      -0.00078099      -0.08935936       0.00163080      -0.00096063      -0.16517051
Cu       5.13359523       5.13359523      13.67392546       0.00000000       0.00000000       0.00000000       0.00000000      -0.00099217       0.00411663      -0.09560446       0.00168076      -0.01130259      -0.15515795
Cu       7.70039285       5.13359523      13.67392546       0.00000000       0.00000000       0.00000000       0.00000000       0.00020439      -0.00011159      -0.09099546      -0.00084682      -0.00311520      -0.16961016
Cu       1.28339881       1.28339881      15.51088819       0.00000000       0.00000000       0.00000000       0.00000000       0.01813899      -0.02508138      -0.26806105       0.03835376      -0.02444910      -0.22783017
Cu       3.85019642       1.28339881      15.51088819       0.00000000       0.00000000       0.00000000       0.00000000      -0.06124003      -0.04797976      -0.28371043      -0.06358993      -0.05917106      -0.24824146
Cu       6.41699404       1.28339881      15.51088819       0.00000000       0.00000000       0.00000000       0.00000000       0.09460901       0.07366018      -0.16189073       0.10951924       0.09203235      -0.15516955
Cu       8.98379165       1.28339881      15.51088819       0.00000000       0.00000000       0.00000000       0.00000000      -0.09532938       0.08743023      -0.14525148      -0.11275670       0.09873943      -0.12541780
Cu       1.28339881       3.85019642      15.51088819       0.00000000       0.00000000       0.00000000       0.00000000       0.01902852       0.02580518      -0.26766635       0.02746054       0.01766098      -0.21840885
Cu       3.85019642       3.85019642      15.51088819       0.00000000       0.00000000       0.00000000       0.00000000      -0.06222723       0.04913279      -0.28351134      -0.05617750       0.04941111      -0.23568784
Cu       6.41699404       3.85019642      15.51088819       0.00000000       0.00000000       0.00000000       0.00000000       0.09425217      -0.07303536      -0.16207057       0.10920148      -0.09173986      -0.15026023
Cu       8.98379165       3.85019642      15.51088819       0.00000000       0.00000000       0.00000000       0.00000000      -0.09479353      -0.08683845      -0.14565459      -0.10684964      -0.09660285      -0.13350545
Cu       1.28339881       6.41699404      15.51088819       0.00000000       0.00000000       0.00000000       0.00000000       0.00168629       0.00032955      -0.25051510      -0.00375238       0.00944980      -0.20491802
Cu       3.85019642       6.41699404      15.51088819       0.00000000       0.00000000       0.00000000       0.00000000      -0.01039868       0.00045043      -0.26911907      -0.00087971       0.01022245      -0.25699408
Cu       6.41699404       6.41699404      15.51088819       0.00000000       0.00000000       0.00000000       0.00000000      -0.03781942       0.00006594      -0.30888129      -0.04924662       0.00255729      -0.24287477
Cu       8.98379165       6.41699404      15.51088819       0.00000000       0.00000000       0.00000000       0.00000000       0.05092765      -0.00020704      -0.30365416       0.05856143      -0.00140983      -0.25823326
Cu       7.70012821       7.68662468      17.23461289       0.00000000       0.00413680      -0.00418856       0.14428364       0.00316674      -0.00995416       0.13918419       0.00740579      -0.02375973      -0.01893138
Cu       5.13434731       7.70027703      17.24917295       0.00000000       0.00182196      -0.01215996       0.13838714      -0.00062640      -0.01251039       0.13425749      -0.01001505       0.00273343      -0.04142781
Cu       2.56890745       7.69787361      17.24611936       0.00000000      -0.00581238      -0.01053569       0.13874581      -0.00372270      -0.00882101       0.13794574       0.00259819       0.01346963      -0.02900767
Cu      10.26607836       7.70276827      17.25115184       0.00000000      -0.00070372      -0.00629515       0.14465572       0.00105285      -0.00590156       0.14367554      -0.00122171      -0.00276654      -0.05040471
Cu      10.28173944       2.56452937      17.22133855       0.00000000      -0.00532809      -0.00166062       0.14158578       0.00229826       0.00010727       0.13446549       0.00492550      -0.00329657      -0.02560951
Cu       2.56213180       2.56764711      17.26775313       0.00000000      -0.00578865       0.00025873       0.14387446      -0.00576306      -0.00021905       0.13448776      -0.01952310      -0.00009817      -0.24918349
Cu       5.10246065       2.56392913      17.20594018       0.00000000       0.00719372      -0.00138893       0.14709441      -0.00024754       0.00026336       0.12558678       0.00334056       0.00633648      -0.04914284
Cu       7.69918720       2.55565358      17.34882165       0.00000000       0.00555313       0.00619149       0.16862533       0.00764127       0.00213767       0.13600353       0.03663264      -0.02774428      -0.43190100
Cu      10.26801793       5.13133438      17.24921821       0.00000000       0.00119364       0.00700130       0.14249635       0.00061308       0.00597787       0.14366813       0.01697957       0.00969589      -0.06850833
Cu       2.56893995       5.13893555      17.24475067       0.00000000      -0.00595349       0.01042276       0.13916833      -0.00373460       0.00916066       0.13745396       0.00545067      -0.01729660      -0.02059601
Cu       5.13236595       5.13394804      17.24660159       0.00000000      -0.00048789       0.01255694       0.13623076      -0.00000401       0.01267987       0.13425899      -0.01935086      -0.00719717      -0.04545041
Cu       7.70055855       5.15295737      17.22798877       0.00000000       0.00402208       0.00881248       0.13954896       0.00318659       0.00947467       0.14002141      -0.00222335       0.02732723      -0.00712077
O        4.87942057       2.56496320      20.31213104       0.00000000       0.00256767      -0.01831113       0.02959852       0.01337001       0.00327398       0.02054973       0.24416414      -0.02290122       0.14116256
C        3.72164743       2.59137717      20.10506480       0.00000000      -0.01150815      -0.00840521       0.07401683       0.02046340      -0.00020592       0.03457344      -0.08134469       0.00526596       0.12144128
H        6.70156292       2.58027712      19.79775651       0.00000000       0.02361091      -0.00874185       0.01219611       0.00907560       0.00599038       0.00772785      -0.10594696       0.14625935       0.32448975
O        2.55538894       2.61625080      19.96840138       0.00000000       0.01271399       0.00077507       0.05241473       0.02075500      -0.00303672       0.00566561      -0.22186798      -0.00878333       0.02377329
O        7.57238690       2.78411754      19.39353998       0.50000000       0.01767788       0.11462057       0.08533919       0.01019524      -0.03139931       0.03486485       0.19611673       0.00077661      -0.05000673
H        8.27495626       2.40186387      19.94523504       0.50000000      -0.00015595      -0.08517651      -0.05902160       0.00681161       0.01914352       0.00796572       0.00689584      -0.11077588       0.02719096
54
Lattice="10.26719046282867 0.0 0.0 0.0 7.700392847121503 0.0 0.0 0.0 27.347850919999996" Properties=species:S:1:pos:R:3:initial_magmoms:R:1:MACE_forces:R:3:forces:R:3:DFT_forces:R:3 MACE_energy=-218.98469287026992 energy=-218.98327494312278 stress="0.009287364640864227 -1.5923009327785505e-06 -0.00017830864227997187 -1.5923009327785505e-06 0.009170261350542941 2.2090300955904382e-06 -0.00017830864227997187 2.2090300955904382e-06 0.0012520742766357438" free_energy=-218.98327494312278 DFT_energy=-222.30386412 pbc="T T T"
Cu       1.28339881       1.28339881      11.83696273       0.00000000       0.00000000       0.00000000       0.00000000      -0.00120965       0.00039388       0.18392100      -0.00034849      -0.00823042       0.39751117
Cu       3.85019642       1.28339881      11.83696273       0.00000000       0.00000000       0.00000000       0.00000000       0.00128287       0.00015339       0.18431546       0.00231981      -0.00725234       0.39934057
Cu       6.41699404       1.28339881      11.83696273       0.00000000       0.00000000       0.00000000       0.00000000      -0.00031603      -0.00033761       0.18287886       0.00525299       0.01573478       0.39690942
Cu       8.98379165       1.28339881      11.83696273       0.00000000       0.00000000       0.00000000       0.00000000       0.00017719      -0.00010624       0.18293831      -0.00777719       0.01215792       0.40187584
Cu       1.28339881       3.85019642      11.83696273       0.00000000       0.00000000       0.00000000       0.00000000      -0.00120926      -0.00040733       0.18391551      -0.00072858       0.00933573       0.39756417
Cu       3.85019642       3.85019642      11.83696273       0.00000000       0.00000000       0.00000000       0.00000000       0.00128485      -0.00016393       0.18431795       0.00330634       0.00797219       0.39851580
Cu       6.41699404       3.85019642      11.83696273       0.00000000       0.00000000       0.00000000       0.00000000      -0.00030343       0.00034271       0.18290542       0.00384504      -0.01430696       0.39485369
Cu       8.98379165       3.85019642      11.83696273       0.00000000       0.00000000       0.00000000       0.00000000       0.00016245       0.00010908       0.18296359      -0.00672920      -0.01103240       0.40171358
Cu       1.28339881       6.41699404      11.83696273       0.00000000       0.00000000       0.00000000       0.00000000      -0.00070100       0.00001588       0.18332908       0.01935518      -0.00093186       0.40351952
Cu       3.85019642       6.41699404      11.83696273       0.00000000       0.00000000       0.00000000       0.00000000       0.00098015       0.00001367       0.18358238      -0.02117783      -0.00074923       0.40389375
Cu       6.41699404       6.41699404      11.83696273       0.00000000       0.00000000       0.00000000       0.00000000       0.00108623      -0.00000256       0.18582392       0.00846566      -0.00151646       0.39987847
Cu       8.98379165       6.41699404      11.83696273       0.00000000       0.00000000       0.00000000       0.00000000      -0.00134704      -0.00000103       0.18582947      -0.00733132      -0.00056732       0.39825061
Cu       7.70039285      -0.00000000      13.67392546       0.00000000       0.00000000       0.00000000       0.00000000       0.00020225       0.00018413      -0.09069413      -0.00042239      -0.00328853      -0.17390394
Cu       5.13359523      -0.00000000      13.67392546       0.00000000       0.00000000       0.00000000       0.00000000      -0.00107453      -0.00412450      -0.09565267       0.00712462       0.01194414      -0.14485674
Cu       2.56679762      -0.00000000      13.67392546       0.00000000       0.00000000       0.00000000       0.00000000      -0.00031407       0.00083016      -0.08955175       0.00410614       0.00515191      -0.16080154
Cu       0.00000000      -0.00000000      13.67392546       0.00000000       0.00000000       0.00000000       0.00000000       0.00098417      -0.00260718      -0.09477591      -0.01480814       0.01566273      -0.14942125
Cu       0.00000000       2.56679762      13.67392546       0.00000000       0.00000000       0.00000000       0.00000000      -0.00011745       0.00002732      -0.08852795      -0.00195913       0.00257481      -0.17261319
Cu       2.56679762       2.56679762      13.67392546       0.00000000       0.00000000       0.00000000       0.00000000      -0.00174949       0.00001176      -0.09408713      -0.00062686      -0.00324803      -0.14728897
Cu       5.13359523       2.56679762      13.67392546       0.00000000       0.00000000       0.00000000       0.00000000       0.00088671       0.00003161      -0.08734403      -0.00685285       0.00004654      -0.17101677
Cu       7.70039285       2.56679762      13.67392546       0.00000000       0.00000000       0.00000000       0.00000000       0.00012617      -0.00007291      -0.09778330       0.00545420       0.00434186      -0.15777498
Cu       0.00000000       5.13359523      13.67392546       0.00000000       0.00000000       0.00000000       0.00000000       0.00089782       0.00259221      -0.09471485      -0.00856661      -0.01729396      -0.15443266
Cu       2.56679762       5.13359523      13.67392546       0.00000000       0.00000000       0.00000000       0.00000000      -0.00030684      -0.00078099      -0.08935936       0.00192290      -0.00238096      -0.16374056
Cu       5.13359523       5.13359523      13.67392546       0.00000000       0.00000000       0.00000000       0.00000000      -0.00099217       0.00411663      -0.09560446       0.00392164      -0.01075873      -0.15423184
Cu       7.70039285       5.13359523      13.67392546       0.00000000       0.00000000       0.00000000       0.00000000       0.00020439      -0.00011159      -0.09099546      -0.00120333      -0.00215894      -0.16957949
Cu       1.28339881       1.28339881      15.51088819       0.00000000       0.00000000       0.00000000       0.00000000       0.01813899      -0.02508138      -0.26806105       0.03526348      -0.02579203      -0.22846933
Cu       3.85019642       1.28339881      15.51088819       0.00000000       0.00000000       0.00000000       0.00000000      -0.06124003      -0.04797976      -0.28371043      -0.06569785      -0.06372301      -0.25121677
Cu       6.41699404       1.28339881      15.51088819       0.00000000       0.00000000       0.00000000       0.00000000       0.09460901       0.07366018      -0.16189073       0.10577826       0.09216604      -0.15587844
Cu       8.98379165       1.28339881      15.51088819       0.00000000       0.00000000       0.00000000       0.00000000      -0.09532938       0.08743023      -0.14525148      -0.11197021       0.10078481      -0.12398275
Cu       1.28339881       3.85019642      15.51088819       0.00000000       0.00000000       0.00000000       0.00000000       0.01902852       0.02580518      -0.26766635       0.02720238       0.02108596      -0.22111371
Cu       3.85019642       3.85019642      15.51088819       0.00000000       0.00000000       0.00000000       0.00000000      -0.06222723       0.04913279      -0.28351134      -0.06003207       0.05595873      -0.24182684
Cu       6.41699404       3.85019642      15.51088819       0.00000000       0.00000000       0.00000000       0.00000000       0.09425217      -0.07303536      -0.16207057       0.10617556      -0.09338672      -0.14896212
Cu       8.98379165       3.85019642      15.51088819       0.00000000       0.00000000       0.00000000       0.00000000      -0.09479353      -0.08683845      -0.14565459      -0.10825815      -0.10096296      -0.12708431
Cu       1.28339881       6.41699404      15.51088819       0.00000000       0.00000000       0.00000000       0.00000000       0.00168629       0.00032955      -0.25051510       0.00164107       0.00722623      -0.19822559
Cu       3.85019642       6.41699404      15.51088819       0.00000000       0.00000000       0.00000000       0.00000000      -0.01039868       0.00045043      -0.26911907      -0.00788745       0.00739411      -0.24933484
Cu       6.41699404       6.41699404      15.51088819       0.00000000       0.00000000       0.00000000       0.00000000      -0.03781942       0.00006594      -0.30888129      -0.05000002       0.00160321      -0.24147159
Cu       8.98379165       6.41699404      15.51088819       0.00000000       0.00000000       0.00000000       0.00000000       0.05092765      -0.00020704      -0.30365416       0.05753888      -0.00098445      -0.25987783
Cu       7.70035428       7.68571770      17.23377878       0.00000000       0.00386317      -0.00579102       0.14404843       0.00316674      -0.00995416       0.13918419       0.00574644      -0.02685188      -0.01784465
Cu       5.13415123       7.70042282      17.24968953       0.00000000       0.00156491      -0.01217411       0.13764310      -0.00062640      -0.01251039       0.13425749      -0.01116354      -0.00000066      -0.04274195
Cu       2.56884059       7.69900149      17.24825097       0.00000000      -0.00532322      -0.01043799       0.13820024      -0.00372270      -0.00882101       0.13794574       0.00377643       0.01303078      -0.02970970
Cu      10.26628997       7.70274576      17.25136251       0.00000000      -0.00054069      -0.00613076       0.14460470       0.00105285      -0.00590156       0.14367554       0.00193850      -0.00313091      -0.05001904
Cu      10.28267429       2.56506329      17.22348793       0.00000000      -0.00399557      -0.00166673       0.13983479       0.00229826       0.00010727       0.13446549       0.00196942      -0.00266862      -0.02691597
Cu       2.56196694       2.56746058      17.26615971       0.00000000      -0.00577339       0.00025423       0.14244680      -0.00576306      -0.00021905       0.13448776      -0.01594683      -0.00006615      -0.22546215
Cu       5.10010257       2.56444710      17.20604123       0.00000000       0.00608555      -0.00174890       0.14196101      -0.00024754       0.00026336       0.12558678      -0.00138873       0.00596429      -0.03668880
Cu       7.69846093       2.55668602      17.34818936       0.00000000       0.00563189      -0.00211911       0.16397672       0.00764127       0.00213767       0.13600353       0.04296070      -0.02859787      -0.43322947
Cu      10.26769642       5.13128656      17.24996505       0.00000000       0.00123638       0.00692860       0.14258418       0.00061308       0.00597787       0.14366813       0.01606636       0.00811149      -0.06470302
Cu       2.56886490       5.13735531      17.24714862       0.00000000      -0.00554540       0.01039523       0.13837449      -0.00373460       0.00916066       0.13745396       0.00550410      -0.01568327      -0.02440503
Cu       5.13263840       5.13391059      17.24762856       0.00000000      -0.00074550       0.01279951       0.13534465      -0.00000401       0.01267987       0.13425899      -0.01823867      -0.00514037      -0.04546957
Cu       7.70073839       5.15256701      17.22858467       0.00000000       0.00383367       0.00854550       0.13900531       0.00318659       0.00947467       0.14002141      -0.00208949       0.02492864      -0.00691049
O        4.85649401       2.56857383      20.32932162       0.00000000       0.00389787      -0.01558488       0.03103490       0.01337001       0.00327398       0.02054973       0.25005135      -0.01953919       0.13952478
C        3.69372773       2.59423366      20.15203094       0.00000000      -0.01131004      -0.00693205       0.06962340       0.02046340      -0.00020592       0.03457344      -0.08238745       0.00539886       0.11029631
H        6.67913336       2.57449273      19.81226724       0.00000000       0.02279565      -0.02400014       0.01148713       0.00907560       0.00599038       0.00772785      -0.10676646       0.17816654       0.30790911
O        2.52575694       2.61877926      20.03672887       0.00000000       0.01421292       0.00047207       0.04194667       0.02075500      -0.00303672       0.00566561      -0.21454505      -0.00371648       0.01150646
O        7.54761639       2.74170973      19.38838572       0.50000000       0.01672448       0.14385443       0.08191628       0.01019524      -0.03139931       0.03486485       0.19975396      -0.01837171      -0.04311297
H        8.26095049       2.43686935      19.97196704       0.50000000       0.00277922      -0.09234145      -0.04078724       0.00681161       0.01914352       0.00796572       0.00846250      -0.11440988       0.05125561
54
Lattice="10.26719046282867 0.0 0.0 0.0 7.700392847121503 0.0 0.0 0.0 27.347850919999996" Properties=species:S:1:pos:R:3:initial_magmoms:R:1:MACE_forces:R:3:forces:R:3:DFT_forces:R:3 MACE_energy=-218.97468760808394 energy=-218.98327494312278 stress="0.009287364640864227 -1.5923009327785505e-06 -0.00017830864227997187 -1.5923009327785505e-06 0.009170261350542941 2.2090300955904382e-06 -0.00017830864227997187 2.2090300955904382e-06 0.0012520742766357438" free_energy=-218.98327494312278 DFT_energy=-222.29532668 pbc="T T T"
Cu       1.28339881       1.28339881      11.83696273       0.00000000       0.00000000       0.00000000       0.00000000      -0.00120965       0.00039388       0.18392100       0.00003537      -0.00905464       0.39733071
Cu       3.85019642       1.28339881      11.83696273       0.00000000       0.00000000       0.00000000       0.00000000       0.00128287       0.00015339       0.18431546       0.00236796      -0.00795982       0.39865468
Cu       6.41699404       1.28339881      11.83696273       0.00000000       0.00000000       0.00000000       0.00000000      -0.00031603      -0.00033761       0.18287886       0.00546889       0.01622444       0.39678570
Cu       8.98379165       1.28339881      11.83696273       0.00000000       0.00000000       0.00000000       0.00000000       0.00017719      -0.00010624       0.18293831      -0.00769568       0.01256597       0.40110351
Cu       1.28339881       3.85019642      11.83696273       0.00000000       0.00000000       0.00000000       0.00000000      -0.00120926      -0.00040733       0.18391551      -0.00048580       0.00965514       0.39731635
Cu       3.85019642       3.85019642      11.83696273       0.00000000       0.00000000       0.00000000       0.00000000       0.00128485      -0.00016393       0.18431795       0.00296596       0.00827592       0.39794091
Cu       6.41699404       3.85019642      11.83696273       0.00000000       0.00000000       0.00000000       0.00000000      -0.00030343       0.00034271       0.18290542       0.00477181      -0.01543799       0.39539130
Cu       8.98379165       3.85019642      11.83696273       0.00000000       0.00000000       0.00000000       0.00000000       0.00016245       0.00010908       0.18296359      -0.00681466      -0.01208854       0.40129072
Cu       1.28339881       6.41699404      11.83696273       0.00000000       0.00000000       0.00000000       0.00000000      -0.00070100       0.00001588       0.18332908       0.02025770      -0.00058308       0.40318037
Cu       3.85019642       6.41699404      11.83696273       0.00000000       0.00000000       0.00000000       0.00000000       0.00098015       0.00001367       0.18358238      -0.02151842      -0.00036269       0.40271572
Cu       6.41699404       6.41699404      11.83696273       0.00000000       0.00000000       0.00000000       0.00000000       0.00108623      -0.00000256       0.18582392       0.00793030      -0.00089697       0.39997991
Cu       8.98379165       6.41699404      11.83696273       0.00000000       0.00000000       0.00000000       0.00000000      -0.00134704      -0.00000103       0.18582947      -0.00659438      -0.00014186       0.39760587
Cu       7.70039285      -0.00000000      13.67392546       0.00000000       0.00000000       0.00000000       0.00000000       0.00020225       0.00018413      -0.09069413      -0.00009874      -0.00228231      -0.17224547
Cu       5.13359523      -0.00000000      13.67392546       0.00000000       0.00000000       0.00000000       0.00000000      -0.00107453      -0.00412450      -0.09565267       0.00750566       0.01130096      -0.14766372
Cu       2.56679762      -0.00000000      13.67392546       0.00000000       0.00000000       0.00000000       0.00000000      -0.00031407       0.00083016      -0.08955175       0.00397333       0.00450319      -0.16123571
Cu       0.00000000      -0.00000000      13.67392546       0.00000000       0.00000000       0.00000000       0.00000000       0.00098417      -0.00260718      -0.09477591      -0.01356181       0.01508108      -0.15023502
Cu       0.00000000       2.56679762      13.67392546       0.00000000       0.00000000       0.00000000       0.00000000      -0.00011745       0.00002732      -0.08852795      -0.00126377       0.00159645      -0.17326622
Cu       2.56679762       2.56679762      13.67392546       0.00000000       0.00000000       0.00000000       0.00000000      -0.00174949       0.00001176      -0.09408713      -0.00002455      -0.00164923      -0.14568395
Cu       5.13359523       2.56679762      13.67392546       0.00000000       0.00000000       0.00000000       0.00000000       0.00088671       0.00003161      -0.08734403      -0.00589818       0.00011947      -0.17076065
Cu       7.70039285       2.56679762      13.67392546       0.00000000       0.00000000       0.00000000       0.00000000       0.00012617      -0.00007291      -0.09778330       0.00542313       0.00203004      -0.15928775
Cu       0.00000000       5.13359523      13.67392546       0.00000000       0.00000000       0.00000000       0.00000000       0.00089782       0.00259221      -0.09471485      -0.00943607      -0.01608729      -0.15330967
Cu       2.56679762       5.13359523      13.67392546       0.00000000       0.00000000       0.00000000       0.00000000      -0.00030684      -0.00078099      -0.08935936       0.00251940      -0.00333885      -0.16253039
Cu       5.13359523       5.13359523      13.67392546       0.00000000       0.00000000       0.00000000       0.00000000      -0.00099217       0.00411663      -0.09560446       0.00608293      -0.01039273      -0.15324148
Cu       7.70039285       5.13359523      13.67392546       0.00000000       0.00000000       0.00000000       0.00000000       0.00020439      -0.00011159      -0.09099546      -0.00104441      -0.00065229      -0.16995231
Cu       1.28339881       1.28339881      15.51088819       0.00000000       0.00000000       0.00000000       0.00000000       0.01813899      -0.02508138      -0.26806105       0.03180165      -0.02649846      -0.22783494
Cu       3.85019642       1.28339881      15.51088819       0.00000000       0.00000000       0.00000000       0.00000000      -0.06124003      -0.04797976      -0.28371043      -0.06731252      -0.06755003      -0.25406501
Cu       6.41699404       1.28339881      15.51088819       0.00000000       0.00000000       0.00000000       0.00000000       0.09460901       0.07366018      -0.16189073       0.10215274       0.09175460      -0.15707462
Cu       8.98379165       1.28339881      15.51088819       0.00000000       0.00000000       0.00000000       0.00000000      -0.09532938       0.08743023      -0.14525148      -0.10938689       0.10210266      -0.12242563
Cu       1.28339881       3.85019642      15.51088819       0.00000000       0.00000000       0.00000000       0.00000000       0.01902852       0.02580518      -0.26766635       0.02715910       0.02436656      -0.22319761
Cu       3.85019642       3.85019642      15.51088819       0.00000000       0.00000000       0.00000000       0.00000000      -0.06222723       0.04913279      -0.28351134      -0.06392911       0.06316266      -0.24907712
Cu       6.41699404       3.85019642      15.51088819       0.00000000       0.00000000       0.00000000       0.00000000       0.09425217      -0.07303536      -0.16207057       0.10335207      -0.09270485      -0.14953606
Cu       8.98379165       3.85019642      15.51088819       0.00000000       0.00000000       0.00000000       0.00000000      -0.09479353      -0.08683845      -0.14565459      -0.10787136      -0.10341778      -0.12158057
Cu       1.28339881       6.41699404      15.51088819       0.00000000       0.00000000       0.00000000       0.00000000       0.00168629       0.00032955      -0.25051510       0.00567985       0.00463049      -0.19229595
Cu       3.85019642       6.41699404      15.51088819       0.00000000       0.00000000       0.00000000       0.00000000      -0.01039868       0.00045043      -0.26911907      -0.01269537       0.00418432      -0.24257841
Cu       6.41699404       6.41699404      15.51088819       0.00000000       0.00000000       0.00000000       0.00000000      -0.03781942       0.00006594      -0.30888129      -0.05039390       0.00146640      -0.24054109
Cu       8.98379165       6.41699404      15.51088819       0.00000000       0.00000000       0.00000000       0.00000000       0.05092765      -0.00020704      -0.30365416       0.05820450       0.00007962      -0.26089412
Cu       7.70043271       7.68491999      17.23249422       0.00000000       0.00407529      -0.00817388       0.14320035       0.00316674      -0.00995416       0.13918419       0.00558638      -0.02822842      -0.01576954
Cu       5.13373315       7.70040452      17.24978815       0.00000000       0.00138422      -0.01179491       0.13755479      -0.00062640      -0.01251039       0.13425749      -0.01314011      -0.00198434      -0.04467597
Cu       2.56873892       7.69995908      17.24988355       0.00000000      -0.00503589      -0.01079956       0.13794638      -0.00372270      -0.00882101       0.13794574       0.00455752       0.01234310      -0.03093174
Cu      10.26647853       7.70269905      17.25144583       0.00000000      -0.00007998      -0.00620258       0.14438114       0.00105285      -0.00590156       0.14367554       0.00563412      -0.00389669      -0.05135441
Cu      10.28317740       2.56572107      17.22519224       0.00000000      -0.00189943      -0.00135080       0.13817254       0.00229826       0.00010727       0.13446549      -0.00026189      -0.00230095      -0.02856286
Cu       2.56142862       2.56725651      17.26505426       0.00000000      -0.00711839       0.00025069       0.14001855      -0.00576306      -0.00021905       0.13448776      -0.01377426      -0.00086455      -0.20825599
Cu       5.09741386       2.56519403      17.20506798       0.00000000       0.00735534      -0.00143396       0.13909296      -0.00024754       0.00026336       0.12558678      -0.00122649       0.00449572      -0.02428307
Cu       7.69747127       2.56004699      17.34647508       0.00000000       0.00838129      -0.00703332       0.15571704       0.00764127       0.00213767       0.13600353       0.05218390      -0.02185688      -0.43817963
Cu      10.26726234       5.13115910      17.25070755       0.00000000       0.00119778       0.00708647       0.14279489       0.00061308       0.00597787       0.14366813       0.01518117       0.00805503      -0.06170196
Cu       2.56882429       5.13605214      17.24897850       0.00000000      -0.00536036       0.01081226       0.13797069      -0.00373460       0.00916066       0.13745396       0.00574923      -0.01361947      -0.02844725
Cu       5.13297923       5.13387420      17.24848495       0.00000000      -0.00041542       0.01249091       0.13571454      -0.00000401       0.01267987       0.13425899      -0.01700494      -0.00279091      -0.04520686
Cu       7.70079933       5.15236913      17.22943559       0.00000000       0.00400904       0.00790835       0.13886939       0.00318659       0.00947467       0.14002141      -0.00101083       0.02214548      -0.00818595
O        4.83710972       2.57314288      20.34357521       0.00000000      -0.01484748      -0.00909051       0.05371964       0.01337001       0.00327398       0.02054973       0.23227026      -0.01586736       0.14706766
C        3.67019784       2.59728112      20.19485136       0.00000000      -0.00609465      -0.00361734       0.03121749       0.02046340      -0.00020592       0.03457344      -0.07727850       0.00015660       0.10798711
H        6.65612412       2.57813490      19.82635561       0.00000000       0.02043875      -0.03223710       0.02041467       0.00907560       0.00599038       0.00772785      -0.11627909       0.16009357       0.27505197
O        2.50110602       2.62100199      20.09606372       0.00000000       0.02381065      -0.00142083       0.05196561       0.02075500      -0.00303672       0.00566561      -0.20824092       0.00176268      -0.03398468
O        7.52394951       2.67571628      19.38207021       0.50000000       0.01666151       0.13080816       0.06477403       0.01019524      -0.03139931       0.03486485       0.19858422      -0.02993583      -0.02520554
H        8.24543268       2.48285446      20.00058131       0.50000000       0.01174734      -0.07480748      -0.01265687       0.00681161       0.01914352       0.00796572       0.01684351      -0.08970735       0.08585644
54
Lattice="10.26719046282867 0.0 0.0 0.0 7.700392847121503 0.0 0.0 0.0 27.347850919999996" Properties=species:S:1:pos:R:3:initial_magmoms:R:1:MACE_forces:R:3:forces:R:3:DFT_forces:R:3 MACE_energy=-218.96997632226328 energy=-218.98327494312278 stress="0.009287364640864227 -1.5923009327785505e-06 -0.00017830864227997187 -1.5923009327785505e-06 0.009170261350542941 2.2090300955904382e-06 -0.00017830864227997187 2.2090300955904382e-06 0.0012520742766357438" free_energy=-218.98327494312278 DFT_energy=-222.28261865 pbc="T T T"
Cu       1.28339881       1.28339881      11.83696273       0.00000000       0.00000000       0.00000000       0.00000000      -0.00120965       0.00039388       0.18392100       0.00040411      -0.00924531       0.39721370
Cu       3.85019642       1.28339881      11.83696273       0.00000000       0.00000000       0.00000000       0.00000000       0.00128287       0.00015339       0.18431546       0.00222610      -0.00818675       0.39824460
Cu       6.41699404       1.28339881      11.83696273       0.00000000       0.00000000       0.00000000       0.00000000      -0.00031603      -0.00033761       0.18287886       0.00511356       0.01622124       0.39640395
Cu       8.98379165       1.28339881      11.83696273       0.00000000       0.00000000       0.00000000       0.00000000       0.00017719      -0.00010624       0.18293831      -0.00738535       0.01262233       0.40013407
Cu       1.28339881       3.85019642      11.83696273       0.00000000       0.00000000       0.00000000       0.00000000      -0.00120926      -0.00040733       0.18391551      -0.00026006       0.00980944       0.39740176
Cu       3.85019642       3.85019642      11.83696273       0.00000000       0.00000000       0.00000000       0.00000000       0.00128485      -0.00016393       0.18431795       0.00253471       0.00841824       0.39762561
Cu       6.41699404       3.85019642      11.83696273       0.00000000       0.00000000       0.00000000       0.00000000      -0.00030343       0.00034271       0.18290542       0.00488605      -0.01576677       0.39561526
Cu       8.98379165       3.85019642      11.83696273       0.00000000       0.00000000       0.00000000       0.00000000       0.00016245       0.00010908       0.18296359      -0.00652837      -0.01238552       0.40079814
Cu       1.28339881       6.41699404      11.83696273       0.00000000       0.00000000       0.00000000       0.00000000      -0.00070100       0.00001588       0.18332908       0.02092674      -0.00015860       0.40339877
Cu       3.85019642       6.41699404      11.83696273       0.00000000       0.00000000       0.00000000       0.00000000       0.00098015       0.00001367       0.18358238      -0.02177100       0.00009239       0.40186199
Cu       6.41699404       6.41699404      11.83696273       0.00000000       0.00000000       0.00000000       0.00000000       0.00108623      -0.00000256       0.18582392       0.00698452      -0.00018071       0.40011812
Cu       8.98379165       6.41699404      11.83696273       0.00000000       0.00000000       0.00000000       0.00000000      -0.00134704      -0.00000103       0.18582947      -0.00590691       0.00045932       0.39761899
Cu       7.70039285      -0.00000000      13.67392546       0.00000000       0.00000000       0.00000000       0.00000000       0.00020225       0.00018413      -0.09069413       0.00001920      -0.00089713      -0.17055333
Cu       5.13359523      -0.00000000      13.67392546       0.00000000       0.00000000       0.00000000       0.00000000      -0.00107453      -0.00412450      -0.09565267       0.00702025       0.01129869      -0.14976777
Cu       2.56679762      -0.00000000      13.67392546       0.00000000       0.00000000       0.00000000       0.00000000      -0.00031407       0.00083016      -0.08955175       0.00369344       0.00433496      -0.16135727
Cu       0.00000000      -0.00000000      13.67392546       0.00000000       0.00000000       0.00000000       0.00000000       0.00098417      -0.00260718      -0.09477591      -0.01267488       0.01486159      -0.15107974
Cu       0.00000000       2.56679762      13.67392546       0.00000000       0.00000000       0.00000000       0.00000000      -0.00011745       0.00002732      -0.08852795      -0.00128263       0.00105887      -0.17353460
Cu       2.56679762       2.56679762      13.67392546       0.00000000       0.00000000       0.00000000       0.00000000      -0.00174949       0.00001176      -0.09408713       0.00057066      -0.00029442      -0.14379049
Cu       5.13359523       2.56679762      13.67392546       0.00000000       0.00000000       0.00000000       0.00000000       0.00088671       0.00003161      -0.08734403      -0.00539884       0.00005373      -0.16941903
Cu       7.70039285       2.56679762      13.67392546       0.00000000       0.00000000       0.00000000       0.00000000       0.00012617      -0.00007291      -0.09778330       0.00490794       0.00033018      -0.15913888
Cu       0.00000000       5.13359523      13.67392546       0.00000000       0.00000000       0.00000000       0.00000000       0.00089782       0.00259221      -0.09471485      -0.01069115      -0.01503995      -0.15181291
Cu       2.56679762       5.13359523      13.67392546       0.00000000       0.00000000       0.00000000       0.00000000      -0.00030684      -0.00078099      -0.08935936       0.00269345      -0.00406871      -0.16139014
Cu       5.13359523       5.13359523      13.67392546       0.00000000       0.00000000       0.00000000       0.00000000      -0.00099217       0.00411663      -0.09560446       0.00754807      -0.01015758      -0.15193107
Cu       7.70039285       5.13359523      13.67392546       0.00000000       0.00000000       0.00000000       0.00000000       0.00020439      -0.00011159      -0.09099546      -0.00104468       0.00034099      -0.16987322
Cu       1.28339881       1.28339881      15.51088819       0.00000000       0.00000000       0.00000000       0.00000000       0.01813899      -0.02508138      -0.26806105       0.02591775      -0.02037825      -0.22055531
Cu       3.85019642       1.28339881      15.51088819       0.00000000       0.00000000       0.00000000       0.00000000      -0.06124003      -0.04797976      -0.28371043      -0.06320926      -0.05844416      -0.23768614
Cu       6.41699404       1.28339881      15.51088819       0.00000000       0.00000000       0.00000000       0.00000000       0.09460901       0.07366018      -0.16189073       0.09777898       0.10217591      -0.14181408
Cu       8.98379165       1.28339881      15.51088819       0.00000000       0.00000000       0.00000000       0.00000000      -0.09532938       0.08743023      -0.14525148      -0.11456062       0.11111640      -0.11119317
Cu       1.28339881       3.85019642      15.51088819       0.00000000       0.00000000       0.00000000       0.00000000       0.01902852       0.02580518      -0.26766635       0.02436378       0.02029080      -0.21802098
Cu       3.85019642       3.85019642      15.51088819       0.00000000       0.00000000       0.00000000       0.00000000      -0.06222723       0.04913279      -0.28351134      -0.06215108       0.05753831      -0.23686285
Cu       6.41699404       3.85019642      15.51088819       0.00000000       0.00000000       0.00000000       0.00000000       0.09425217      -0.07303536      -0.16207057       0.09868381      -0.09864886      -0.13799497
Cu       8.98379165       3.85019642      15.51088819       0.00000000       0.00000000       0.00000000       0.00000000      -0.09479353      -0.08683845      -0.14565459      -0.11279655      -0.10948989      -0.11148901
Cu       1.28339881       6.41699404      15.51088819       0.00000000       0.00000000       0.00000000       0.00000000       0.00168629       0.00032955      -0.25051510       0.00482562       0.00244211      -0.19021302
Cu       3.85019642       6.41699404      15.51088819       0.00000000       0.00000000       0.00000000       0.00000000      -0.01039868       0.00045043      -0.26911907      -0.01225280       0.00091380      -0.23342049
Cu       6.41699404       6.41699404      15.51088819       0.00000000       0.00000000       0.00000000       0.00000000      -0.03781942       0.00006594      -0.30888129      -0.05231803       0.00237281      -0.23198100
Cu       8.98379165       6.41699404      15.51088819       0.00000000       0.00000000       0.00000000       0.00000000       0.05092765      -0.00020704      -0.30365416       0.05536864       0.00198671      -0.26025634
Cu       7.70034237       7.68607047      17.23193959       0.00000000       0.00320149      -0.01268843       0.13837029       0.00316674      -0.00995416       0.13918419       0.00460018      -0.03165285      -0.01666000
Cu       5.13289647       7.70069336      17.25141717       0.00000000       0.00066465      -0.01470136       0.12868497      -0.00062640      -0.01251039       0.13425749      -0.01664824      -0.00582083      -0.05300728
Cu       2.56717353       7.69967120      17.25080894       0.00000000       0.00050676      -0.00530428       0.13823071      -0.00372270      -0.00882101       0.13794574       0.01001429       0.01727571      -0.03085103
Cu      10.26577656       7.70252516      17.25167375       0.00000000       0.00239770      -0.00547373       0.14326564       0.00105285      -0.00590156       0.14367554       0.00947174      -0.00329809      -0.05313323
Cu      10.28009694       2.56611604      17.22903585       0.00000000       0.00733306       0.00006020       0.12739124       0.00229826       0.00010727       0.13446549       0.00799348      -0.00191589      -0.04157956
Cu       2.55833187       2.56710482      17.26748175       0.00000000       0.00217623      -0.00029366       0.12375235      -0.00576306      -0.00021905       0.13448776      -0.00119873      -0.00151004      -0.21131406
Cu       5.09697974       2.56597895      17.21153973       0.00000000      -0.00781344      -0.00114202       0.10034932      -0.00024754       0.00026336       0.12558678      -0.01661248       0.00287660      -0.06087327
Cu       7.69602730       2.56750273      17.35469348       0.00000000       0.00761034      -0.01006690       0.11783361       0.00764127       0.00213767       0.13600353       0.05803645      -0.01316934      -0.48499546
Cu      10.26641775       5.13101712      17.25133160       0.00000000       0.00148291       0.00580563       0.14320018       0.00061308       0.00597787       0.14366813       0.01383067       0.00624410      -0.05833423
Cu       2.56759455       5.13590260      17.25031396       0.00000000      -0.00004897       0.00628515       0.13702951      -0.00373460       0.00916066       0.13745396       0.01085236      -0.01711280      -0.03099900
Cu       5.13307074       5.13296919      17.25111301       0.00000000      -0.00016423       0.01636746       0.12704979      -0.00000401       0.01267987       0.13425899      -0.01579233       0.00160177      -0.05217765
Cu       7.70084327       5.15208740      17.23107144       0.00000000       0.00309600       0.01066343       0.13696253       0.00318659       0.00947467       0.14002141      -0.00206243       0.02619737      -0.01363164
O        4.83214703       2.57565852      20.34501344       0.00000000      -0.00964611      -0.00054780       0.08684716       0.01337001       0.00327398       0.02054973       0.25626786      -0.01106674       0.16352171
C        3.66279468       2.59937231      20.21962088       0.00000000       0.00519756      -0.00020876       0.02042446       0.02046340      -0.00020592       0.03457344      -0.13634141      -0.00136074       0.10452307
H        6.62985156       2.59628109      19.83772314       0.00000000       0.03924168      -0.02527081       0.01648246       0.00907560       0.00599038       0.00772785      -0.10965707       0.06473582       0.24236876
O        2.49319233       2.62326193      20.14055577       0.00000000      -0.03854784      -0.00232072       0.04402212       0.02075500      -0.00303672       0.00566561      -0.19648564       0.00997189      -0.04797721
O        7.49775232       2.60320413      19.38385937       0.50000000       0.03454496       0.05648896       0.04003022       0.01019524      -0.03139931       0.03486485       0.20609130      -0.02565394      -0.01702888
H        8.22321209       2.52457104      20.02104275       0.50000000       0.03009775      -0.02632511       0.01801983       0.00681161       0.01914352       0.00796572       0.03140483      -0.03173820       0.12084980
54
Lattice="10.26719046282867 0.0 0.0 0.0 7.700392847121503 0.0 0.0 0.0 27.347850919999996" Properties=species:S:1:pos:R:3:initial_magmoms:R:1:MACE_forces:R:3:forces:R:3:DFT_forces:R:3 MACE_energy=-218.97536292505242 energy=-218.98327494312278 stress="0.009287364640864227 -1.5923009327785505e-06 -0.00017830864227997187 -1.5923009327785505e-06 0.009170261350542941 2.2090300955904382e-06 -0.00017830864227997187 2.2090300955904382e-06 0.0012520742766357438" free_energy=-218.98327494312278 DFT_energy=-222.29217162 pbc="T T T"
Cu       1.28339881       1.28339881      11.83696273       0.00000000       0.00000000       0.00000000       0.00000000      -0.00120965       0.00039388       0.18392100       0.00031559      -0.00952072       0.39734165
Cu       3.85019642       1.28339881      11.83696273       0.00000000       0.00000000       0.00000000       0.00000000       0.00128287       0.00015339       0.18431546       0.00212630      -0.00840770       0.39828990
Cu       6.41699404       1.28339881      11.83696273       0.00000000       0.00000000       0.00000000       0.00000000      -0.00031603      -0.00033761       0.18287886       0.00456334       0.01599592       0.39692882
Cu       8.98379165       1.28339881      11.83696273       0.00000000       0.00000000       0.00000000       0.00000000       0.00017719      -0.00010624       0.18293831      -0.00676690       0.01240405       0.39997410
Cu       1.28339881       3.85019642      11.83696273       0.00000000       0.00000000       0.00000000       0.00000000      -0.00120926      -0.00040733       0.18391551      -0.00023879       0.00979397       0.39761996
Cu       3.85019642       3.85019642      11.83696273       0.00000000       0.00000000       0.00000000       0.00000000       0.00128485      -0.00016393       0.18431795       0.00225223       0.00845020       0.39753365
Cu       6.41699404       3.85019642      11.83696273       0.00000000       0.00000000       0.00000000       0.00000000      -0.00030343       0.00034271       0.18290542       0.00438061      -0.01589359       0.39632595
Cu       8.98379165       3.85019642      11.83696273       0.00000000       0.00000000       0.00000000       0.00000000       0.00016245       0.00010908       0.18296359      -0.00592861      -0.01262137       0.40083098
Cu       1.28339881       6.41699404      11.83696273       0.00000000       0.00000000       0.00000000       0.00000000      -0.00070100       0.00001588       0.18332908       0.02090783      -0.00021291       0.40324092
Cu       3.85019642       6.41699404      11.83696273       0.00000000       0.00000000       0.00000000       0.00000000       0.00098015       0.00001367       0.18358238      -0.02169409      -0.00003351       0.40114805
Cu       6.41699404       6.41699404      11.83696273       0.00000000       0.00000000       0.00000000       0.00000000       0.00108623      -0.00000256       0.18582392       0.00588725      -0.00016484       0.40050560
Cu       8.98379165       6.41699404      11.83696273       0.00000000       0.00000000       0.00000000       0.00000000      -0.00134704      -0.00000103       0.18582947      -0.00498388       0.00051695       0.39761418
Cu       7.70039285      -0.00000000      13.67392546       0.00000000       0.00000000       0.00000000       0.00000000       0.00020225       0.00018413      -0.09069413       0.00000180      -0.00031714      -0.16977102
Cu       5.13359523      -0.00000000      13.67392546       0.00000000       0.00000000       0.00000000       0.00000000      -0.00107453      -0.00412450      -0.09565267       0.00718583       0.01066299      -0.15084412
Cu       2.56679762      -0.00000000      13.67392546       0.00000000       0.00000000       0.00000000       0.00000000      -0.00031407       0.00083016      -0.08955175       0.00336021       0.00353507      -0.16088955
Cu       0.00000000      -0.00000000      13.67392546       0.00000000       0.00000000       0.00000000       0.00000000       0.00098417      -0.00260718      -0.09477591      -0.01250980       0.01403301      -0.15119869
Cu       0.00000000       2.56679762      13.67392546       0.00000000       0.00000000       0.00000000       0.00000000      -0.00011745       0.00002732      -0.08852795      -0.00130708       0.00076396      -0.17325544
Cu       2.56679762       2.56679762      13.67392546       0.00000000       0.00000000       0.00000000       0.00000000      -0.00174949       0.00001176      -0.09408713       0.00079935      -0.00019584      -0.14315723
Cu       5.13359523       2.56679762      13.67392546       0.00000000       0.00000000       0.00000000       0.00000000       0.00088671       0.00003161      -0.08734403      -0.00514011      -0.00019969      -0.16893204
Cu       7.70039285       2.56679762      13.67392546       0.00000000       0.00000000       0.00000000       0.00000000       0.00012617      -0.00007291      -0.09778330       0.00454963      -0.00020915      -0.15962132
Cu       0.00000000       5.13359523      13.67392546       0.00000000       0.00000000       0.00000000       0.00000000       0.00089782       0.00259221      -0.09471485      -0.01126988      -0.01424612      -0.15118765
Cu       2.56679762       5.13359523      13.67392546       0.00000000       0.00000000       0.00000000       0.00000000      -0.00030684      -0.00078099      -0.08935936       0.00266297      -0.00375482      -0.16076202
Cu       5.13359523       5.13359523      13.67392546       0.00000000       0.00000000       0.00000000       0.00000000      -0.00099217       0.00411663      -0.09560446       0.00816306      -0.00966884      -0.15203904
Cu       7.70039285       5.13359523      13.67392546       0.00000000       0.00000000       0.00000000       0.00000000       0.00020439      -0.00011159      -0.09099546      -0.00099433      -0.00000520      -0.16935176
Cu       1.28339881       1.28339881      15.51088819       0.00000000       0.00000000       0.00000000       0.00000000       0.01813899      -0.02508138      -0.26806105       0.02321660      -0.02192477      -0.22144737
Cu       3.85019642       1.28339881      15.51088819       0.00000000       0.00000000       0.00000000       0.00000000      -0.06124003      -0.04797976      -0.28371043      -0.06305167      -0.06243734      -0.24293027
Cu       6.41699404       1.28339881      15.51088819       0.00000000       0.00000000       0.00000000       0.00000000       0.09460901       0.07366018      -0.16189073       0.09845565       0.10128807      -0.14032142
Cu       8.98379165       1.28339881      15.51088819       0.00000000       0.00000000       0.00000000       0.00000000      -0.09532938       0.08743023      -0.14525148      -0.11466339       0.11336896      -0.10475343
Cu       1.28339881       3.85019642      15.51088819       0.00000000       0.00000000       0.00000000       0.00000000       0.01902852       0.02580518      -0.26766635       0.02242148       0.02254489      -0.21964832
Cu       3.85019642       3.85019642      15.51088819       0.00000000       0.00000000       0.00000000       0.00000000      -0.06222723       0.04913279      -0.28351134      -0.06273976       0.06235635      -0.24297501
Cu       6.41699404       3.85019642      15.51088819       0.00000000       0.00000000       0.00000000       0.00000000       0.09425217      -0.07303536      -0.16207057       0.09907080      -0.09832062      -0.13859295
Cu       8.98379165       3.85019642      15.51088819       0.00000000       0.00000000       0.00000000       0.00000000      -0.09479353      -0.08683845      -0.14565459      -0.11327606      -0.11286728      -0.10489900
Cu       1.28339881       6.41699404      15.51088819       0.00000000       0.00000000       0.00000000       0.00000000       0.00168629       0.00032955      -0.25051510       0.00813480       0.00161090      -0.18491274
Cu       3.85019642       6.41699404      15.51088819       0.00000000       0.00000000       0.00000000       0.00000000      -0.01039868       0.00045043      -0.26911907      -0.01495886       0.00021597      -0.22800512
Cu       6.41699404       6.41699404      15.51088819       0.00000000       0.00000000       0.00000000       0.00000000      -0.03781942       0.00006594      -0.30888129      -0.05155708       0.00126954      -0.23077861
Cu       8.98379165       6.41699404      15.51088819       0.00000000       0.00000000       0.00000000       0.00000000       0.05092765      -0.00020704      -0.30365416       0.05602234       0.00146289      -0.25974288
Cu       7.70064558       7.68532288      17.23176831       0.00000000       0.00319647      -0.01176926       0.13857914       0.00316674      -0.00995416       0.13918419       0.00399358      -0.02921257      -0.01600950
Cu       5.13304024       7.70088224      17.25151276       0.00000000       0.00025173      -0.01398314       0.13074721      -0.00062640      -0.01251039       0.13425749      -0.01586945      -0.00659857      -0.05272635
Cu       2.56762794       7.70057103      17.25217748       0.00000000      -0.00105341      -0.00635032       0.13850293      -0.00372270      -0.00882101       0.13794574       0.00852611       0.01504001      -0.03143047
Cu      10.26615630       7.70261463      17.25188047       0.00000000       0.00192831      -0.00566425       0.14343326       0.00105285      -0.00590156       0.14367554       0.00972346      -0.00365078      -0.05323212
Cu      10.28011792       2.56643426      17.23039724       0.00000000       0.00589688       0.00015985       0.13028920       0.00229826       0.00010727       0.13446549       0.00415490      -0.00154095      -0.04065913
Cu       2.55847483       2.56702355      17.26527870       0.00000000      -0.00037801      -0.00031889       0.12589067      -0.00576306      -0.00021905       0.13448776      -0.00023687      -0.00130610      -0.18691181
Cu       5.09628917       2.56640323      17.21022062       0.00000000      -0.00542767      -0.00057011       0.10970788      -0.00024754       0.00026336       0.12558678      -0.02088433       0.00239645      -0.03982461
Cu       7.69408354       2.56806300      17.35696753       0.00000000       0.00787375      -0.00505547       0.12402946       0.00764127       0.00213767       0.13600353       0.06149820      -0.00552234      -0.46826497
Cu      10.26648345       5.13107190      17.25175659       0.00000000       0.00110669       0.00586321       0.14345979       0.00061308       0.00597787       0.14366813       0.01214673       0.00537078      -0.05685991
Cu       2.56792189       5.13482289      17.25176589       0.00000000      -0.00142379       0.00701992       0.13763685      -0.00373460       0.00916066       0.13745396       0.00966428      -0.01520086      -0.03267283
Cu       5.13330980       5.13295770      17.25143018       0.00000000       0.00000999       0.01515102       0.12969993      -0.00000401       0.01267987       0.13425899      -0.01451614       0.00313839      -0.05145187
Cu       7.70096744       5.15112925      17.23157047       0.00000000       0.00314574       0.01028023       0.13809933       0.00318659       0.00947467       0.14002141      -0.00095077       0.02586587      -0.01512272
O        4.80184029       2.57672237      20.37066788       0.00000000       0.00394143       0.00132072       0.06376551       0.01337001       0.00327398       0.02054973       0.24529713      -0.00758995       0.14925177
C        3.62986621       2.60106836      20.27053134       0.00000000       0.01501796       0.00010619       0.02122342       0.02046340      -0.00020592       0.03457344      -0.12661944      -0.00168184       0.08581745
H        6.61569761       2.58859177      19.84684060       0.00000000       0.02797750      -0.01345034       0.01538333       0.00907560       0.00599038       0.00772785      -0.12282067       0.02160518       0.22465789
O        2.45929122       2.62573112      20.20998222       0.00000000      -0.02204046      -0.00250611       0.03556359       0.02075500      -0.00303672       0.00566561      -0.17790486       0.01211684      -0.07021119
O        7.48307049       2.57901809      19.39173155       0.50000000       0.02015726       0.01964042       0.03588759       0.01019524      -0.03139931       0.03486485       0.21090987      -0.01338361      -0.02460392
H        8.20938635       2.54708975      20.03207883       0.50000000       0.02181170      -0.00697584       0.01881875       0.00681161       0.01914352       0.00796572       0.03049088      -0.00911819       0.12291753
54
Lattice="10.26719046282867 0.0 0.0 0.0 7.700392847121503 0.0 0.0 0.0 27.347850919999996" Properties=species:S:1:pos:R:3:initial_magmoms:R:1:MACE_forces:R:3:forces:R:3:DFT_forces:R:3 MACE_energy=-218.97964776231242 energy=-218.98327494312278 stress="0.009287364640864227 -1.5923009327785505e-06 -0.00017830864227997187 -1.5923009327785505e-06 0.009170261350542941 2.2090300955904382e-06 -0.00017830864227997187 2.2090300955904382e-06 0.0012520742766357438" free_energy=-218.98327494312278 DFT_energy=-222.29927632 pbc="T T T"
Cu       1.28339881       1.28339881      11.83696273       0.00000000       0.00000000       0.00000000       0.00000000      -0.00120965       0.00039388       0.18392100       0.00046807      -0.00957455       0.39741084
Cu       3.85019642       1.28339881      11.83696273       0.00000000       0.00000000       0.00000000       0.00000000       0.00128287       0.00015339       0.18431546       0.00236012      -0.00841936       0.39829740
Cu       6.41699404       1.28339881      11.83696273       0.00000000       0.00000000       0.00000000       0.00000000      -0.00031603      -0.00033761       0.18287886       0.00429921       0.01581052       0.39745462
Cu       8.98379165       1.28339881      11.83696273       0.00000000       0.00000000       0.00000000       0.00000000       0.00017719      -0.00010624       0.18293831      -0.00593449       0.01224846       0.39995107
Cu       1.28339881       3.85019642      11.83696273       0.00000000       0.00000000       0.00000000       0.00000000      -0.00120926      -0.00040733       0.18391551       0.00007420       0.00986554       0.39775445
Cu       3.85019642       3.85019642      11.83696273       0.00000000       0.00000000       0.00000000       0.00000000       0.00128485      -0.00016393       0.18431795       0.00231378       0.00856433       0.39744601
Cu       6.41699404       3.85019642      11.83696273       0.00000000       0.00000000       0.00000000       0.00000000      -0.00030343       0.00034271       0.18290542       0.00409168      -0.01578041       0.39697557
Cu       8.98379165       3.85019642      11.83696273       0.00000000       0.00000000       0.00000000       0.00000000       0.00016245       0.00010908       0.18296359      -0.00506629      -0.01262872       0.40099859
Cu       1.28339881       6.41699404      11.83696273       0.00000000       0.00000000       0.00000000       0.00000000      -0.00070100       0.00001588       0.18332908       0.02106006      -0.00016910       0.40296586
Cu       3.85019642       6.41699404      11.83696273       0.00000000       0.00000000       0.00000000       0.00000000       0.00098015       0.00001367       0.18358238      -0.02128278      -0.00006154       0.40048612
Cu       6.41699404       6.41699404      11.83696273       0.00000000       0.00000000       0.00000000       0.00000000       0.00108623      -0.00000256       0.18582392       0.00525780      -0.00003909       0.40061441
Cu       8.98379165       6.41699404      11.83696273       0.00000000       0.00000000       0.00000000       0.00000000      -0.00134704      -0.00000103       0.18582947      -0.00396910       0.00070494       0.39738843
Cu       7.70039285      -0.00000000      13.67392546       0.00000000       0.00000000       0.00000000       0.00000000       0.00020225       0.00018413      -0.09069413       0.00032051       0.00034621      -0.16956612
Cu       5.13359523      -0.00000000      13.67392546       0.00000000       0.00000000       0.00000000       0.00000000      -0.00107453      -0.00412450      -0.09565267       0.00747292       0.01028555      -0.15198444
Cu       2.56679762      -0.00000000      13.67392546       0.00000000       0.00000000       0.00000000       0.00000000      -0.00031407       0.00083016      -0.08955175       0.00332972       0.00292708      -0.16066849
Cu       0.00000000      -0.00000000      13.67392546       0.00000000       0.00000000       0.00000000       0.00000000       0.00098417      -0.00260718      -0.09477591      -0.01209364       0.01351514      -0.15169301
Cu       0.00000000       2.56679762      13.67392546       0.00000000       0.00000000       0.00000000       0.00000000      -0.00011745       0.00002732      -0.08852795      -0.00108712       0.00068581      -0.17323754
Cu       2.56679762       2.56679762      13.67392546       0.00000000       0.00000000       0.00000000       0.00000000      -0.00174949       0.00001176      -0.09408713       0.00119930      -0.00006319      -0.14298354
Cu       5.13359523       2.56679762      13.67392546       0.00000000       0.00000000       0.00000000       0.00000000       0.00088671       0.00003161      -0.08734403      -0.00473491      -0.00033399      -0.16883772
Cu       7.70039285       2.56679762      13.67392546       0.00000000       0.00000000       0.00000000       0.00000000       0.00012617      -0.00007291      -0.09778330       0.00448224      -0.00043155      -0.16004542
Cu       0.00000000       5.13359523      13.67392546       0.00000000       0.00000000       0.00000000       0.00000000       0.00089782       0.00259221      -0.09471485      -0.01141379      -0.01356983      -0.15099597
Cu       2.56679762       5.13359523      13.67392546       0.00000000       0.00000000       0.00000000       0.00000000      -0.00030684      -0.00078099      -0.08935936       0.00286501      -0.00323197      -0.16057212
Cu       5.13359523       5.13359523      13.67392546       0.00000000       0.00000000       0.00000000       0.00000000      -0.00099217       0.00411663      -0.09560446       0.00876026      -0.00914886      -0.15250542
Cu       7.70039285       5.13359523      13.67392546       0.00000000       0.00000000       0.00000000       0.00000000       0.00020439      -0.00011159      -0.09099546      -0.00062244      -0.00036489      -0.16922556
Cu       1.28339881       1.28339881      15.51088819       0.00000000       0.00000000       0.00000000       0.00000000       0.01813899      -0.02508138      -0.26806105       0.02143146      -0.02258664      -0.22167016
Cu       3.85019642       1.28339881      15.51088819       0.00000000       0.00000000       0.00000000       0.00000000      -0.06124003      -0.04797976      -0.28371043      -0.06246300      -0.06475394      -0.24636052
Cu       6.41699404       1.28339881      15.51088819       0.00000000       0.00000000       0.00000000       0.00000000       0.09460901       0.07366018      -0.16189073       0.09904669       0.10111052      -0.13833203
Cu       8.98379165       1.28339881      15.51088819       0.00000000       0.00000000       0.00000000       0.00000000      -0.09532938       0.08743023      -0.14525148      -0.11469061       0.11569292      -0.09906526
Cu       1.28339881       3.85019642      15.51088819       0.00000000       0.00000000       0.00000000       0.00000000       0.01902852       0.02580518      -0.26766635       0.02112061       0.02400680      -0.22043859
Cu       3.85019642       3.85019642      15.51088819       0.00000000       0.00000000       0.00000000       0.00000000      -0.06222723       0.04913279      -0.28351134      -0.06273348       0.06558374      -0.24699466
Cu       6.41699404       3.85019642      15.51088819       0.00000000       0.00000000       0.00000000       0.00000000       0.09425217      -0.07303536      -0.16207057       0.09950118      -0.09835775      -0.13846479
Cu       8.98379165       3.85019642      15.51088819       0.00000000       0.00000000       0.00000000       0.00000000      -0.09479353      -0.08683845      -0.14565459      -0.11360782      -0.11585418      -0.09927647
Cu       1.28339881       6.41699404      15.51088819       0.00000000       0.00000000       0.00000000       0.00000000       0.00168629       0.00032955      -0.25051510       0.01092414       0.00107651      -0.18090997
Cu       3.85019642       6.41699404      15.51088819       0.00000000       0.00000000       0.00000000       0.00000000      -0.01039868       0.00045043      -0.26911907      -0.01665480      -0.00019609      -0.22357755
Cu       6.41699404       6.41699404      15.51088819       0.00000000       0.00000000       0.00000000       0.00000000      -0.03781942       0.00006594      -0.30888129      -0.05067654       0.00041081      -0.22976800
Cu       8.98379165       6.41699404      15.51088819       0.00000000       0.00000000       0.00000000       0.00000000       0.05092765      -0.00020704      -0.30365416       0.05683148       0.00106156      -0.25909313
Cu       7.70090869       7.68473577      17.23166500       0.00000000       0.00315447      -0.01094608       0.13873049       0.00316674      -0.00995416       0.13918419       0.00368974      -0.02696186      -0.01518853
Cu       5.13317660       7.70105308      17.25162078       0.00000000      -0.00022283      -0.01338907       0.13225908      -0.00062640      -0.01251039       0.13425749      -0.01518649      -0.00721935      -0.05347183
Cu       2.56798372       7.70126938      17.25332439       0.00000000      -0.00220989      -0.00722554       0.13841494      -0.00372270      -0.00882101       0.13794574       0.00723941       0.01278749      -0.03415555
Cu      10.26647117       7.70269429      17.25206973       0.00000000       0.00152370      -0.00576507       0.14353301       0.00105285      -0.00590156       0.14367554       0.01041216      -0.00382648      -0.05359651
Cu      10.27999034       2.56669554      17.23164893       0.00000000       0.00426902       0.00020852       0.13227977       0.00229826       0.00010727       0.13446549       0.00099764      -0.00125607      -0.04094806
Cu       2.55847050       2.56696477      17.26384777       0.00000000      -0.00263465      -0.00031704       0.12838664      -0.00576306      -0.00021905       0.13448776       0.00120350      -0.00104164      -0.16822239
Cu       5.09574268       2.56677221      17.20959219       0.00000000      -0.00346249      -0.00013255       0.11614280      -0.00024754       0.00026336       0.12558678      -0.02368105       0.00159613      -0.02604615
Cu       7.69226404       2.56851807      17.35937707       0.00000000       0.00776650      -0.00121160       0.12926538       0.00764127       0.00213767       0.13600353       0.06306687      -0.00016391      -0.45503198
Cu      10.26654248       5.13112740      17.25212415       0.00000000       0.00079913       0.00586462       0.14360650       0.00061308       0.00597787       0.14366813       0.01116431       0.00506412      -0.05604247
Cu       2.56816692       5.13398908      17.25296607       0.00000000      -0.00239738       0.00771564       0.13775776      -0.00373460       0.00916066       0.13745396       0.00819965      -0.01366155      -0.03471271
Cu       5.13352472       5.13293312      17.25173956       0.00000000       0.00000945       0.01410600       0.13173829      -0.00000401       0.01267987       0.13425899      -0.01352601       0.00502975      -0.05140137
Cu       7.70107416       5.15025551      17.23203909       0.00000000       0.00314820       0.00994790       0.13902895       0.00318659       0.00947467       0.14002141       0.00030530       0.02610460      -0.01633121
O        4.77447268       2.57753716      20.39389586       0.00000000       0.00464039       0.00264282       0.04952323       0.01337001       0.00327398       0.02054973       0.22432085      -0.00756767       0.13918208
C        3.60059525       2.60251912      20.31580364       0.00000000       0.00369211       0.00085968       0.01296713       0.02046340      -0.00020592       0.03457344      -0.08887726      -0.00072234       0.08543110
H        6.60363431       2.58187754      19.85483995       0.00000000       0.01565515      -0.00321912       0.01478717       0.00907560       0.00599038       0.00772785      -0.12698043      -0.00953847       0.21278252
O        2.42913449       2.62793080      20.27097600       0.00000000       0.01897207      -0.00344326       0.03106092       0.02075500      -0.00303672       0.00566561      -0.18749829       0.00637450      -0.09105025
O        7.47065570       2.55873708      19.39956013       0.50000000       0.01985438      -0.00997003       0.03562672       0.01019524      -0.03139931       0.03486485       0.20823811      -0.00290368      -0.03080105
H        8.19655947       2.56609177      20.04144944       0.50000000       0.01053486       0.00850081       0.01296028       0.00681161       0.01914352       0.00796572       0.02673238       0.00957569       0.11812746
54
Lattice="10.26719046282867 0.0 0.0 0.0 7.700392847121503 0.0 0.0 0.0 27.347850919999996" Properties=species:S:1:pos:R:3:initial_magmoms:R:1:MACE_forces:R:3:forces:R:3:DFT_forces:R:3 MACE_energy=-218.98327494312278 energy=-218.98327494312278 stress="0.009287364640864227 -1.5923009327785505e-06 -0.00017830864227997187 -1.5923009327785505e-06 0.009170261350542941 2.2090300955904382e-06 -0.00017830864227997187 2.2090300955904382e-06 0.0012520742766357438" free_energy=-218.98327494312278 DFT_energy=-222.30583252 pbc="T T T"
Cu       1.28339881       1.28339881      11.83696273       0.00000000       0.00000000       0.00000000       0.00000000      -0.00120965       0.00039388       0.18392100       0.00014705      -0.00973038       0.39739503
Cu       3.85019642       1.28339881      11.83696273       0.00000000       0.00000000       0.00000000       0.00000000       0.00128287       0.00015339       0.18431546       0.00195251      -0.00853114       0.39833850
Cu       6.41699404       1.28339881      11.83696273       0.00000000       0.00000000       0.00000000       0.00000000      -0.00031603      -0.00033761       0.18287886       0.00347271       0.01547843       0.39793825
Cu       8.98379165       1.28339881      11.83696273       0.00000000       0.00000000       0.00000000       0.00000000       0.00017719      -0.00010624       0.18293831      -0.00569868       0.01195766       0.39998385
Cu       1.28339881       3.85019642      11.83696273       0.00000000       0.00000000       0.00000000       0.00000000      -0.00120926      -0.00040733       0.18391551      -0.00013027       0.00975612       0.39778033
Cu       3.85019642       3.85019642      11.83696273       0.00000000       0.00000000       0.00000000       0.00000000       0.00128485      -0.00016393       0.18431795       0.00178759       0.00850850       0.39732572
Cu       6.41699404       3.85019642      11.83696273       0.00000000       0.00000000       0.00000000       0.00000000      -0.00030343       0.00034271       0.18290542       0.00329194      -0.01572940       0.39755269
Cu       8.98379165       3.85019642      11.83696273       0.00000000       0.00000000       0.00000000       0.00000000       0.00016245       0.00010908       0.18296359      -0.00487874      -0.01271644       0.40118081
Cu       1.28339881       6.41699404      11.83696273       0.00000000       0.00000000       0.00000000       0.00000000      -0.00070100       0.00001588       0.18332908       0.02065498      -0.00025785       0.40260983
Cu       3.85019642       6.41699404      11.83696273       0.00000000       0.00000000       0.00000000       0.00000000       0.00098015       0.00001367       0.18358238      -0.02146236      -0.00021996       0.39992378
Cu       6.41699404       6.41699404      11.83696273       0.00000000       0.00000000       0.00000000       0.00000000       0.00108623      -0.00000256       0.18582392       0.00408326      -0.00010227       0.40085572
Cu       8.98379165       6.41699404      11.83696273       0.00000000       0.00000000       0.00000000       0.00000000      -0.00134704      -0.00000103       0.18582947      -0.00353221       0.00069793       0.39742209
Cu       7.70039285      -0.00000000      13.67392546       0.00000000       0.00000000       0.00000000       0.00000000       0.00020225       0.00018413      -0.09069413       0.00004898       0.00085492      -0.16883457
Cu       5.13359523      -0.00000000      13.67392546       0.00000000       0.00000000       0.00000000       0.00000000      -0.00107453      -0.00412450      -0.09565267       0.00722079       0.00970673      -0.15249963
Cu       2.56679762      -0.00000000      13.67392546       0.00000000       0.00000000       0.00000000       0.00000000      -0.00031407       0.00083016      -0.08955175       0.00273518       0.00219108      -0.16006188
Cu       0.00000000      -0.00000000      13.67392546       0.00000000       0.00000000       0.00000000       0.00000000       0.00098417      -0.00260718      -0.09477591      -0.01231413       0.01287990      -0.15162821
Cu       0.00000000       2.56679762      13.67392546       0.00000000       0.00000000       0.00000000       0.00000000      -0.00011745       0.00002732      -0.08852795      -0.00150979       0.00050363      -0.17250724
Cu       2.56679762       2.56679762      13.67392546       0.00000000       0.00000000       0.00000000       0.00000000      -0.00174949       0.00001176      -0.09408713       0.00100100      -0.00009543      -0.14247920
Cu       5.13359523       2.56679762      13.67392546       0.00000000       0.00000000       0.00000000       0.00000000       0.00088671       0.00003161      -0.08734403      -0.00484777      -0.00059491      -0.16825627
Cu       7.70039285       2.56679762      13.67392546       0.00000000       0.00000000       0.00000000       0.00000000       0.00012617      -0.00007291      -0.09778330       0.00390295      -0.00075539      -0.16007145
Cu       0.00000000       5.13359523      13.67392546       0.00000000       0.00000000       0.00000000       0.00000000       0.00089782       0.00259221      -0.09471485      -0.01210415      -0.01308938      -0.15038156
Cu       2.56679762       5.13359523      13.67392546       0.00000000       0.00000000       0.00000000       0.00000000      -0.00030684      -0.00078099      -0.08935936       0.00243159      -0.00285324      -0.15987230
Cu       5.13359523       5.13359523      13.67392546       0.00000000       0.00000000       0.00000000       0.00000000      -0.00099217       0.00411663      -0.09560446       0.00873758      -0.00869447      -0.15254267
Cu       7.70039285       5.13359523      13.67392546       0.00000000       0.00000000       0.00000000       0.00000000       0.00020439      -0.00011159      -0.09099546      -0.00080062      -0.00085643      -0.16866031
Cu       1.28339881       1.28339881      15.51088819       0.00000000       0.00000000       0.00000000       0.00000000       0.01813899      -0.02508138      -0.26806105       0.01929842      -0.02322197      -0.22139968
Cu       3.85019642       1.28339881      15.51088819       0.00000000       0.00000000       0.00000000       0.00000000      -0.06124003      -0.04797976      -0.28371043      -0.06272226      -0.06729408      -0.25019515
Cu       6.41699404       1.28339881      15.51088819       0.00000000       0.00000000       0.00000000       0.00000000       0.09460901       0.07366018      -0.16189073       0.09941379       0.10102629      -0.13574725
Cu       8.98379165       1.28339881      15.51088819       0.00000000       0.00000000       0.00000000       0.00000000      -0.09532938       0.08743023      -0.14525148      -0.11567099       0.11817091      -0.09288511
Cu       1.28339881       3.85019642      15.51088819       0.00000000       0.00000000       0.00000000       0.00000000       0.01902852       0.02580518      -0.26766635       0.01940575       0.02509463      -0.22067995
Cu       3.85019642       3.85019642      15.51088819       0.00000000       0.00000000       0.00000000       0.00000000      -0.06222723       0.04913279      -0.28351134      -0.06346847       0.06860672      -0.25128835
Cu       6.41699404       3.85019642      15.51088819       0.00000000       0.00000000       0.00000000       0.00000000       0.09425217      -0.07303536      -0.16207057       0.09963016      -0.09899185      -0.13736025
Cu       8.98379165       3.85019642      15.51088819       0.00000000       0.00000000       0.00000000       0.00000000      -0.09479353      -0.08683845      -0.14565459      -0.11489661      -0.11942302      -0.09291201
Cu       1.28339881       6.41699404      15.51088819       0.00000000       0.00000000       0.00000000       0.00000000       0.00168629       0.00032955      -0.25051510       0.01342188       0.00048757      -0.17646765
Cu       3.85019642       6.41699404      15.51088819       0.00000000       0.00000000       0.00000000       0.00000000      -0.01039868       0.00045043      -0.26911907      -0.01912137      -0.00061194      -0.21893182
Cu       6.41699404       6.41699404      15.51088819       0.00000000       0.00000000       0.00000000       0.00000000      -0.03781942       0.00006594      -0.30888129      -0.05004994      -0.00063278      -0.22903108
Cu       8.98379165       6.41699404      15.51088819       0.00000000       0.00000000       0.00000000       0.00000000       0.05092765      -0.00020704      -0.30365416       0.05708462       0.00042544      -0.25810950
Cu       7.70118142       7.68419710      17.23165161       0.00000000       0.00316674      -0.00995416       0.13918419       0.00316674      -0.00995416       0.13918419       0.00294974      -0.02426871      -0.01436297
Cu       5.13337938       7.70122172      17.25169450       0.00000000      -0.00062640      -0.01251039       0.13425749      -0.00062640      -0.01251039       0.13425749      -0.01448841      -0.00778628      -0.05320200
Cu       2.56843023       7.70206125      17.25457846       0.00000000      -0.00372270      -0.00882101       0.13794574      -0.00372270      -0.00882101       0.13794574       0.00481509       0.00975528      -0.03835462
Cu      10.26680739       7.70280228      17.25229727       0.00000000       0.00105285      -0.00590156       0.14367554       0.00105285      -0.00590156       0.14367554       0.00957674      -0.00430428      -0.05382426
Cu      10.27974229       2.56694068      17.23297740       0.00000000       0.00229826       0.00010727       0.13446549       0.00229826       0.00010727       0.13446549      -0.00213834      -0.00107710      -0.04023462
Cu       2.55855269       2.56691032      17.26251811       0.00000000      -0.00576306      -0.00021905       0.13448776      -0.00576306      -0.00021905       0.13448776       0.00077755      -0.00097215      -0.14902791
Cu       5.09499983       2.56709293      17.20899049       0.00000000      -0.00024754       0.00026336       0.12558678      -0.00024754       0.00026336       0.12558678      -0.02414056       0.00064954      -0.01071772
Cu       7.69007679       2.56850672      17.36247702       0.00000000       0.00764127       0.00213767       0.13600353       0.00764127       0.00213767       0.13600353       0.06369874       0.00477667      -0.43883350
Cu      10.26662363       5.13117590      17.25251528       0.00000000       0.00061308       0.00597787       0.14366813       0.00061308       0.00597787       0.14366813       0.00958609       0.00475323      -0.05525230
Cu       2.56848457       5.13305959      17.25426129       0.00000000      -0.00373460       0.00916066       0.13745396      -0.00373460       0.00916066       0.13745396       0.00586624      -0.01124771      -0.03844871
Cu       5.13374772       5.13294102      17.25197427       0.00000000      -0.00000401       0.01267987       0.13425899      -0.00000401       0.01267987       0.13425899      -0.01306024       0.00586403      -0.05084388
Cu       7.70118029       5.14930463      17.23248169       0.00000000       0.00318659       0.00947467       0.14002141       0.00318659       0.00947467       0.14002141       0.00112063       0.02563746      -0.01670739
O        4.74160524       2.57796393      20.42329106       0.00000000       0.01337001       0.00327398       0.02054973       0.01337001       0.00327398       0.02054973       0.22409825      -0.00735674       0.11593897
C        3.56636872       2.60409500      20.36621949       0.00000000       0.02046340      -0.00020592       0.03457344       0.02046340      -0.00020592       0.03457344      -0.08805624      -0.00071616       0.06328160
H        6.59148319       2.57353352      19.86544690       0.00000000       0.00907560       0.00599038       0.00772785       0.00907560       0.00599038       0.00772785      -0.14006558      -0.03676864       0.20468493
O        2.39447167       2.63057347      20.34060667       0.00000000       0.02075500      -0.00303672       0.00566561       0.02075500      -0.00303672       0.00566561      -0.14850161       0.01183343      -0.09162759
O        7.45818528       2.54271475      19.40996701       0.50000000       0.01019524      -0.03139931       0.03486485       0.01019524      -0.03139931       0.03486485       0.20069139       0.00626749      -0.04221517
H        8.18212469       2.58288249      20.05303295       0.50000000       0.00681161       0.01914352       0.00796572       0.00681161       0.01914352       0.00796572       0.03075619       0.02301649       0.11424364
