40
Lattice="6.2873444314750255 0.0 0.0 0.0 10.26719046282867 0.0 0.0 0.0 28.249757996450562" Properties=species:S:1:pos:R:3:MACE_forces:R:3:forces:R:3:DFT_forces:R:3 adsorbate_info="_JSON {\"top layer atom index\": 0, \"sites\": {}}" method=neb MACE_energy=-161.304937683156 energy=-161.29518959014217 stress="0.007046669745975515 -5.081940709053173e-06 -2.8341301429322483e-05 -5.081940709053173e-06 0.008150504215825277 0.00014417181696233446 -2.8341301429322483e-05 0.00014417181696233446 0.0014519238666479957" free_energy=-161.29518959014217 DFT_energy=-163.57128773 pbc="T T T"
Cu       4.10959964       1.26464723      18.09869190      -0.02217352      -0.00897254       0.12777912      -0.00655368       0.00987067       0.14676571       0.02505377       0.09548237      -0.19911603
Cu       4.13784468       3.78136287      18.14405306      -0.01335865       0.01341970       0.14335985      -0.00849748      -0.00975303       0.14360010      -0.04686423      -0.01859404      -0.10030186
Cu       4.14782684       6.48612058      18.13610386      -0.02112090      -0.00926142       0.14664678      -0.00932419       0.00818123       0.14051927      -0.02262538      -0.09883070      -0.10069745
Cu       4.13063321       9.00272495      18.12375116      -0.01695337      -0.01245657       0.15123767      -0.00333753      -0.00521405       0.16530096       0.00142947       0.04970464      -0.76231492
Cu       2.04394053      10.26654592      17.40795214       0.00706822      -0.00074070       0.08958819       0.00524779       0.00953182       0.13054977      -0.07831305       0.06363951      -0.09941929
Cu       2.05736791       2.56430458      17.40522105       0.00384496       0.00398115       0.08885692       0.00578190      -0.00050047       0.13574989      -0.00301786      -0.02766592      -0.03652993
Cu       2.03574154       5.13282940      17.37404496       0.00301644      -0.00307349       0.09041325       0.00082278      -0.00629671       0.12543010      -0.03799239       0.02378188      -0.07623134
Cu       2.05541652       7.70344486      17.40690489       0.00120241       0.00234013       0.09588157       0.00273760       0.00679402       0.12253414      -0.09679018      -0.06648388      -0.17766690
Cu       6.27049335       1.28287943      16.73279732       0.00119280       0.00672354       0.07775797      -0.00189632       0.00325088       0.10749546      -0.00729581       0.00986239      -0.03933012
Cu       6.27236842       3.84104412      16.71351384      -0.01282177      -0.00119818       0.08552076      -0.00209162      -0.00290750       0.10428321       0.08408104      -0.00851316      -0.06545992
Cu       6.27508181       6.42453422      16.70848804      -0.00346843      -0.00553350       0.08385315       0.00233948      -0.00227907       0.09118126       0.03955225       0.02598824      -0.06645052
Cu       6.27274060       8.98544720      16.72148743      -0.00290219      -0.00050902       0.07933045       0.00136989       0.00873066       0.09511712       0.02950024      -0.02627122      -0.03633362
Cu       4.19156295       0.00000000      15.99982400       0.00000000       0.00000000       0.00000000       0.07701543      -0.01228276      -0.39741454       0.10880989      -0.10934717      -0.35881814
Cu       4.19156295       2.56679762      15.99982400       0.00000000       0.00000000       0.00000000       0.06079125       0.02260139      -0.48390274       0.09718054       0.12784711      -0.18193828
Cu       4.19156295       5.13359523      15.99982400       0.00000000       0.00000000       0.00000000       0.06161371       0.02956463      -0.34893328       0.10834754       0.00298632      -0.25826435
Cu       4.19156295       7.70039285      15.99982400       0.00000000       0.00000000       0.00000000       0.08823876       0.01395026      -0.20936861       0.07861200      -0.01777707      -0.17212410
Cu       2.09578148       1.28339881      15.24984600       0.00000000       0.00000000       0.00000000      -0.00300318       0.00259424      -0.31174978      -0.02804065      -0.03583938      -0.28396236
Cu       2.09578148       3.85019642      15.24984600       0.00000000       0.00000000       0.00000000      -0.00920874      -0.00854497      -0.31767027       0.05553851      -0.03638359      -0.26408242
Cu       2.09578148       6.41699404      15.24984600       0.00000000       0.00000000       0.00000000       0.02946652       0.00743201      -0.29188558       0.05221747       0.03443292      -0.25205651
Cu       2.09578148       8.98379165      15.24984600       0.00000000       0.00000000       0.00000000       0.02264743      -0.00868581      -0.29977313       0.01134481       0.03317754      -0.22460451
Cu       0.00000000       0.00000000      14.49986800       0.00000000       0.00000000       0.00000000      -0.07379243       0.00916075      -0.21769639      -0.11927936       0.01614966      -0.19992140
Cu       0.00000000       2.56679762      14.49986800       0.00000000       0.00000000       0.00000000      -0.07617192      -0.00172173      -0.19074166      -0.14122008      -0.04396760      -0.23505441
Cu       0.00000000       5.13359523      14.49986800       0.00000000       0.00000000       0.00000000      -0.07447422      -0.01155827      -0.21418018      -0.15043485       0.02077608      -0.23452715
Cu       0.00000000       7.70039285      14.49986800       0.00000000       0.00000000       0.00000000      -0.07841858       0.00020544      -0.23319078      -0.10015214       0.00736773      -0.27294167
Cu       4.19156295       1.28339881      13.74989000       0.00000000       0.00000000       0.00000000      -0.04401218       0.00087082      -0.12751483      -0.09964918      -0.00011003       0.01669728
Cu       4.19156295       3.85019642      13.74989000       0.00000000       0.00000000       0.00000000      -0.04499185      -0.00104151      -0.12463264      -0.07547741      -0.03148660      -0.03124836
Cu       4.19156295       6.41699404      13.74989000       0.00000000       0.00000000       0.00000000      -0.04595640       0.00070768      -0.12530437      -0.07101785       0.01877998      -0.00995504
Cu       4.19156295       8.98379165      13.74989000       0.00000000       0.00000000       0.00000000      -0.04433637      -0.00060256      -0.12767009      -0.07007890       0.01339026      -0.04946034
Cu       2.09578148       0.00000000      12.99991200       0.00000000       0.00000000       0.00000000      -0.07822369       0.00001504       0.16954259      -0.03957084       0.00772076       0.19833680
Cu       2.09578148       2.56679762      12.99991200       0.00000000       0.00000000       0.00000000      -0.07930530       0.00002612       0.17075797      -0.06968560      -0.00070588       0.24259340
Cu       2.09578148       5.13359523      12.99991200       0.00000000       0.00000000       0.00000000      -0.08149751       0.00014622       0.17001056      -0.08051411      -0.00647374       0.25749974
Cu       2.09578148       7.70039285      12.99991200       0.00000000       0.00000000       0.00000000      -0.08028805      -0.00008474       0.16792623      -0.09727993      -0.00044123       0.26635808
Cu      -0.00000000       1.28339881      12.24993400       0.00000000       0.00000000       0.00000000       0.11790950      -0.00030574       0.43623852       0.10825272       0.00094303       0.67819302
Cu      -0.00000000       3.85019642      12.24993400       0.00000000       0.00000000       0.00000000       0.11789996       0.00084411       0.43603460       0.10348008       0.00935752       0.74083533
Cu      -0.00000000       6.41699404      12.24993400       0.00000000       0.00000000       0.00000000       0.11771568       0.00033151       0.43674773       0.11037691      -0.00873329       0.71694228
Cu      -0.00000000       8.98379165      12.24993400       0.00000000       0.00000000       0.00000000       0.11774150      -0.00094163       0.43702592       0.12350544       0.00094751       0.68077007
O        4.30379655       5.13571541      19.51442268       0.00846282      -0.00153371       0.03952857       0.00646220      -0.03106808       0.00948445       0.11215259      -0.04975393       0.12206959
C        4.14865137       8.93295707      19.89962762      -0.02124562       0.01695295       0.03945860       0.00145617      -0.01160697       0.04851044      -0.11717413      -0.04104550      -0.39664505
H        5.21931151       5.12715212      19.84632181       0.01756604      -0.00180937      -0.01189075       0.00139965      -0.02412027      -0.02015204       0.23694708       0.06001633       1.16064867
O        4.21589934       8.92337468      21.05854768      -0.00542869       0.00816401       0.02701095       0.00672406       0.00470636       0.05097493       0.06609158       0.00607212       0.10451171
40
Lattice="6.2873444314750255 0.0 0.0 0.0 10.26719046282867 0.0 0.0 0.0 28.249757996450562" Properties=species:S:1:pos:R:3:MACE_forces:R:3:forces:R:3:DFT_forces:R:3 adsorbate_info="_JSON {\"top layer atom index\": 0, \"sites\": {}}" method=neb MACE_energy=-161.29904505637808 energy=-161.29518959014217 stress="0.007046669745975515 -5.081940709053173e-06 -2.8341301429322483e-05 -5.081940709053173e-06 0.008150504215825277 0.00014417181696233446 -2.8341301429322483e-05 0.00014417181696233446 0.0014519238666479957" free_energy=-161.29518959014217 DFT_energy=-163.55962365 pbc="T T T"
Cu       4.10740921       1.26508962      18.09587750      -0.01977740      -0.00092039       0.13400734      -0.00655368       0.00987067       0.14676571       0.03154149       0.09560164      -0.18795915
Cu       4.13562369       3.78309181      18.14251964      -0.01527153       0.00434061       0.14415577      -0.00849748      -0.00975303       0.14360010      -0.04833186      -0.03286979      -0.10233597
Cu       4.14513927       6.48531041      18.13629743      -0.01812580      -0.01153073       0.13928932      -0.00932419       0.00818123       0.14051927      -0.01861438      -0.09750898      -0.10372907
Cu       4.13068985       9.00201524      18.10581047      -0.02024021      -0.00973989       0.15244571      -0.00333753      -0.00521405       0.16530096       0.01213969       0.06345413      -0.76478559
Cu       2.04395943      10.26602932      17.40494554      -0.00042115       0.00489173       0.10596426       0.00524779       0.00953182       0.13054977      -0.09600235       0.07935974      -0.09209468
Cu       2.05645130       2.56497284      17.40054480       0.00202560       0.00291826       0.10707018       0.00578190      -0.00050047       0.13574989      -0.00603033      -0.02778040      -0.01752610
Cu       2.03438376       5.13279346      17.37011498       0.00127598      -0.00239896       0.10725082       0.00082278      -0.00629671       0.12543010      -0.03890164       0.02615438      -0.05633168
Cu       2.05426508       7.70373634      17.40634176      -0.00232583      -0.00146810       0.10730366       0.00273760       0.00679402       0.12253414      -0.11861424      -0.08461633      -0.18727142
Cu       6.27050844       1.28298685      16.73028815      -0.00280029       0.00476328       0.08713782      -0.00189632       0.00325088       0.10749546      -0.01034520       0.00782335      -0.02870698
Cu       6.27037690       3.84113792      16.71212800      -0.00728892      -0.00171490       0.08989692      -0.00209162      -0.00290750       0.10428321       0.08883717      -0.00859822      -0.06223357
Cu       6.27375939       6.42408574      16.70770377      -0.00249573      -0.00226551       0.08807343       0.00233948      -0.00227907       0.09118126       0.03930742       0.03011384      -0.06295432
Cu       6.27339143       8.98549208      16.71881249       0.00270900      -0.00041319       0.08057764       0.00136989       0.00873066       0.09511712       0.02939008      -0.02583449      -0.03299864
Cu       4.19156295       0.00000000      15.99982400       0.00000000       0.00000000       0.00000000       0.07701543      -0.01228276      -0.39741454       0.11468496      -0.09255477      -0.40001344
Cu       4.19156295       2.56679762      15.99982400       0.00000000       0.00000000       0.00000000       0.06079125       0.02260139      -0.48390274       0.09526013       0.13187824      -0.19248184
Cu       4.19156295       5.13359523      15.99982400       0.00000000       0.00000000       0.00000000       0.06161371       0.02956463      -0.34893328       0.10552929       0.00634604      -0.26327852
Cu       4.19156295       7.70039285      15.99982400       0.00000000       0.00000000       0.00000000       0.08823876       0.01395026      -0.20936861       0.08020536      -0.04315033      -0.21931775
Cu       2.09578148       1.28339881      15.24984600       0.00000000       0.00000000       0.00000000      -0.00300318       0.00259424      -0.31174978      -0.02525749      -0.03818227      -0.29566338
Cu       2.09578148       3.85019642      15.24984600       0.00000000       0.00000000       0.00000000      -0.00920874      -0.00854497      -0.31767027       0.05487940      -0.03625626      -0.28008006
Cu       2.09578148       6.41699404      15.24984600       0.00000000       0.00000000       0.00000000       0.02946652       0.00743201      -0.29188558       0.05269849       0.04057980      -0.25691446
Cu       2.09578148       8.98379165      15.24984600       0.00000000       0.00000000       0.00000000       0.02264743      -0.00868581      -0.29977313       0.01560431       0.03059370      -0.23061943
Cu       0.00000000       0.00000000      14.49986800       0.00000000       0.00000000       0.00000000      -0.07379243       0.00916075      -0.21769639      -0.11752989       0.01742379      -0.21074605
Cu       0.00000000       2.56679762      14.49986800       0.00000000       0.00000000       0.00000000      -0.07617192      -0.00172173      -0.19074166      -0.14246262      -0.04462488      -0.23859200
Cu       0.00000000       5.13359523      14.49986800       0.00000000       0.00000000       0.00000000      -0.07447422      -0.01155827      -0.21418018      -0.14984349       0.02212902      -0.23757357
Cu       0.00000000       7.70039285      14.49986800       0.00000000       0.00000000       0.00000000      -0.07841858       0.00020544      -0.23319078      -0.09938817       0.00591315      -0.28129000
Cu       4.19156295       1.28339881      13.74989000       0.00000000       0.00000000       0.00000000      -0.04401218       0.00087082      -0.12751483      -0.09996835       0.00099687       0.01711610
Cu       4.19156295       3.85019642      13.74989000       0.00000000       0.00000000       0.00000000      -0.04499185      -0.00104151      -0.12463264      -0.07583769      -0.03150632      -0.03183034
Cu       4.19156295       6.41699404      13.74989000       0.00000000       0.00000000       0.00000000      -0.04595640       0.00070768      -0.12530437      -0.07056193       0.01731543      -0.01108174
Cu       4.19156295       8.98379165      13.74989000       0.00000000       0.00000000       0.00000000      -0.04433637      -0.00060256      -0.12767009      -0.06946102       0.01399285      -0.05129657
Cu       2.09578148       0.00000000      12.99991200       0.00000000       0.00000000       0.00000000      -0.07822369       0.00001504       0.16954259      -0.04049201       0.00745612       0.19804759
Cu       2.09578148       2.56679762      12.99991200       0.00000000       0.00000000       0.00000000      -0.07930530       0.00002612       0.17075797      -0.06820410       0.00144907       0.24147517
Cu       2.09578148       5.13359523      12.99991200       0.00000000       0.00000000       0.00000000      -0.08149751       0.00014622       0.17001056      -0.08135239      -0.00878500       0.25745333
Cu       2.09578148       7.70039285      12.99991200       0.00000000       0.00000000       0.00000000      -0.08028805      -0.00008474       0.16792623      -0.09849874       0.00089592       0.26645758
Cu      -0.00000000       1.28339881      12.24993400       0.00000000       0.00000000       0.00000000       0.11790950      -0.00030574       0.43623852       0.10861974      -0.00003038       0.67849121
Cu      -0.00000000       3.85019642      12.24993400       0.00000000       0.00000000       0.00000000       0.11789996       0.00084411       0.43603460       0.10339925       0.01056597       0.74136436
Cu      -0.00000000       6.41699404      12.24993400       0.00000000       0.00000000       0.00000000       0.11771568       0.00033151       0.43674773       0.11088047      -0.00868051       0.71685311
Cu      -0.00000000       8.98379165      12.24993400       0.00000000       0.00000000       0.00000000       0.11774150      -0.00094163       0.43702592       0.12403551       0.00147753       0.68092075
O        4.30329034       5.13473922      19.51386718       0.00959335      -0.00192509       0.04351548       0.00646220      -0.03106808       0.00948445       0.11524579      -0.04524184       0.13043725
C        4.08347243       8.90193432      19.87539279      -0.01508754       0.01727957       0.08798347       0.00145617      -0.01160697       0.04851044      -0.13281284      -0.06908113      -0.36501592
H        5.22044511       5.12581610      19.84126581       0.01876018      -0.00100366      -0.00687995       0.00139965      -0.02412027      -0.02015204       0.26037700       0.07693964       1.22749317
O        4.12843770       8.89279428      21.03537272      -0.01764016       0.00520234       0.04981823       0.00672406       0.00470636       0.05097493       0.06587518       0.00684167       0.10861262
40
Lattice="6.2873444314750255 0.0 0.0 0.0 10.26719046282867 0.0 0.0 0.0 28.249757996450562" Properties=species:S:1:pos:R:3:MACE_forces:R:3:forces:R:3:DFT_forces:R:3 adsorbate_info="_JSON {\"top layer atom index\": 0, \"sites\": {}}" method=neb MACE_energy=-161.29525394116558 energy=-161.29518959014217 stress="0.007046669745975515 -5.081940709053173e-06 -2.8341301429322483e-05 -5.081940709053173e-06 0.008150504215825277 0.00014417181696233446 -2.8341301429322483e-05 0.00014417181696233446 0.0014519238666479957" free_energy=-161.29518959014217 DFT_energy=-163.54532471 pbc="T T T"
Cu       4.10723866       1.26692676      18.09480210      -0.02088628       0.00104941       0.13341997      -0.00655368       0.00987067       0.14676571       0.03356272       0.08708832      -0.18366556
Cu       4.13467247       3.78360871      18.14206973      -0.01497661       0.00444891       0.14512262      -0.00849748      -0.00975303       0.14360010      -0.04731203      -0.03585662      -0.10303658
Cu       4.14457198       6.48472432      18.13669443      -0.01569256      -0.01443964       0.13590027      -0.00932419       0.00818123       0.14051927      -0.01478879      -0.09853072      -0.10100521
Cu       4.13333411       9.00349663      18.09054456      -0.02479867      -0.01452775       0.16801795      -0.00333753      -0.00521405       0.16530096       0.02195279       0.06668621      -0.73619337
Cu       2.04409766      10.26606906      17.40579997      -0.00188049       0.00735154       0.10905479       0.00524779       0.00953182       0.13054977      -0.10474889       0.09173742      -0.09938541
Cu       2.05588129       2.56503920      17.40013664       0.00136884       0.00370081       0.10829673       0.00578190      -0.00050047       0.13574989      -0.00630125      -0.02620273      -0.01639644
Cu       2.03363802       5.13271389      17.36971413       0.00130558      -0.00182405       0.10881279       0.00082278      -0.00629671       0.12543010      -0.03745282       0.02749898      -0.05419190
Cu       2.05371860       7.70397103      17.40861544      -0.00067260      -0.00131510       0.11013366       0.00273760       0.00679402       0.12253414      -0.13320653      -0.09791972      -0.20564351
Cu       6.27051412       1.28270813      16.73028432      -0.00352421       0.00464703       0.08806619      -0.00189632       0.00325088       0.10749546      -0.00958811       0.00829245      -0.02702567
Cu       6.26994662       3.84099238      16.71202304      -0.00691221      -0.00140705       0.09031585      -0.00209162      -0.00290750       0.10428321       0.08861820      -0.00865992      -0.06138492
Cu       6.27330854       6.42410349      16.70785025      -0.00105779      -0.00186996       0.08877480       0.00233948      -0.00227907       0.09118126       0.03971960       0.03087109      -0.06206620
Cu       6.27483029       8.98571756      16.71767293       0.00855697      -0.00080576       0.07629139       0.00136989       0.00873066       0.09511712       0.02937127      -0.02701854      -0.03406409
Cu       4.19156295       0.00000000      15.99982400       0.00000000       0.00000000       0.00000000       0.07701543      -0.01228276      -0.39741454       0.11944347      -0.07386577      -0.43272328
Cu       4.19156295       2.56679762      15.99982400       0.00000000       0.00000000       0.00000000       0.06079125       0.02260139      -0.48390274       0.09373228       0.13600252      -0.19890591
Cu       4.19156295       5.13359523      15.99982400       0.00000000       0.00000000       0.00000000       0.06161371       0.02956463      -0.34893328       0.10473201       0.00799457      -0.26281334
Cu       4.19156295       7.70039285      15.99982400       0.00000000       0.00000000       0.00000000       0.08823876       0.01395026      -0.20936861       0.08321124      -0.06672897      -0.26065588
Cu       2.09578148       1.28339881      15.24984600       0.00000000       0.00000000       0.00000000      -0.00300318       0.00259424      -0.31174978      -0.02482469      -0.04034743      -0.29409671
Cu       2.09578148       3.85019642      15.24984600       0.00000000       0.00000000       0.00000000      -0.00920874      -0.00854497      -0.31767027       0.05450624      -0.03692427      -0.28243495
Cu       2.09578148       6.41699404      15.24984600       0.00000000       0.00000000       0.00000000       0.02946652       0.00743201      -0.29188558       0.05342741       0.04505585      -0.25073882
Cu       2.09578148       8.98379165      15.24984600       0.00000000       0.00000000       0.00000000       0.02264743      -0.00868581      -0.29977313       0.01934464       0.02890107      -0.22526078
Cu       0.00000000       0.00000000      14.49986800       0.00000000       0.00000000       0.00000000      -0.07379243       0.00916075      -0.21769639      -0.11542491       0.01906239      -0.21686755
Cu       0.00000000       2.56679762      14.49986800       0.00000000       0.00000000       0.00000000      -0.07617192      -0.00172173      -0.19074166      -0.14324319      -0.04652741      -0.23733696
Cu       0.00000000       5.13359523      14.49986800       0.00000000       0.00000000       0.00000000      -0.07447422      -0.01155827      -0.21418018      -0.14893592       0.02297029      -0.23740558
Cu       0.00000000       7.70039285      14.49986800       0.00000000       0.00000000       0.00000000      -0.07841858       0.00020544      -0.23319078      -0.09824276       0.00505752      -0.28696188
Cu       4.19156295       1.28339881      13.74989000       0.00000000       0.00000000       0.00000000      -0.04401218       0.00087082      -0.12751483      -0.10003571       0.00175828       0.01774504
Cu       4.19156295       3.85019642      13.74989000       0.00000000       0.00000000       0.00000000      -0.04499185      -0.00104151      -0.12463264      -0.07608029      -0.03173528      -0.03250103
Cu       4.19156295       6.41699404      13.74989000       0.00000000       0.00000000       0.00000000      -0.04595640       0.00070768      -0.12530437      -0.06952319       0.01551481      -0.01277327
Cu       4.19156295       8.98379165      13.74989000       0.00000000       0.00000000       0.00000000      -0.04433637      -0.00060256      -0.12767009      -0.06861125       0.01433869      -0.05334110
Cu       2.09578148       0.00000000      12.99991200       0.00000000       0.00000000       0.00000000      -0.07822369       0.00001504       0.16954259      -0.04138796       0.00707807       0.19729396
Cu       2.09578148       2.56679762      12.99991200       0.00000000       0.00000000       0.00000000      -0.07930530       0.00002612       0.17075797      -0.06654457       0.00324312       0.23963377
Cu       2.09578148       5.13359523      12.99991200       0.00000000       0.00000000       0.00000000      -0.08149751       0.00014622       0.17001056      -0.08243669      -0.01156772       0.25721228
Cu       2.09578148       7.70039285      12.99991200       0.00000000       0.00000000       0.00000000      -0.08028805      -0.00008474       0.16792623      -0.09937114       0.00220146       0.26606294
Cu      -0.00000000       1.28339881      12.24993400       0.00000000       0.00000000       0.00000000       0.11790950      -0.00030574       0.43623852       0.10896619      -0.00098420       0.67782956
Cu      -0.00000000       3.85019642      12.24993400       0.00000000       0.00000000       0.00000000       0.11789996       0.00084411       0.43603460       0.10368397       0.01144012       0.74071923
Cu      -0.00000000       6.41699404      12.24993400       0.00000000       0.00000000       0.00000000       0.11771568       0.00033151       0.43674773       0.11146946      -0.00883520       0.71686366
Cu      -0.00000000       8.98379165      12.24993400       0.00000000       0.00000000       0.00000000       0.11774150      -0.00094163       0.43702592       0.12428171       0.00149894       0.68082934
O        4.30189140       5.13341457      19.51454593       0.00997361      -0.00045810       0.04376630       0.00646220      -0.03106808       0.00948445       0.11741671      -0.03848554       0.13112977
C        4.01913607       8.86837332      19.85265675      -0.01298190       0.01794456       0.11085747       0.00145617      -0.01160697       0.04851044      -0.15535540      -0.09247189      -0.32359756
H        5.21927141       5.12432750      19.84139555       0.01895896      -0.00085860      -0.00594472       0.00139965      -0.02412027      -0.02015204       0.27142047       0.10138935       1.25813152
O        4.04003739       8.86085302      21.01322705      -0.03054390       0.00037124       0.07455817       0.00672406       0.00470636       0.05097493       0.06455571       0.00698042       0.10902240
40
Lattice="6.2873444314750255 0.0 0.0 0.0 10.26719046282867 0.0 0.0 0.0 28.249757996450562" Properties=species:S:1:pos:R:3:MACE_forces:R:3:forces:R:3:DFT_forces:R:3 adsorbate_info="_JSON {\"top layer atom index\": 0, \"sites\": {}}" method=neb MACE_energy=-161.2946916449256 energy=-161.29518959014217 stress="0.007046669745975515 -5.081940709053173e-06 -2.8341301429322483e-05 -5.081940709053173e-06 0.008150504215825277 0.00014417181696233446 -2.8341301429322483e-05 0.00014417181696233446 0.0014519238666479957" free_energy=-161.29518959014217 DFT_energy=-163.54046516 pbc="T T T"
Cu       4.10113307       1.26763280      18.09083977      -0.01329926      -0.00013493       0.14561746      -0.00655368       0.00987067       0.14676571       0.04726111       0.07933515      -0.16552265
Cu       4.12951232       3.78542742      18.13974706      -0.01434946      -0.00347420       0.14951282      -0.00849748      -0.00975303       0.14360010      -0.04549195      -0.04655602      -0.09851944
Cu       4.14048049       6.48085329      18.13267742      -0.01332214      -0.00812528       0.14349342      -0.00932419       0.00818123       0.14051927      -0.01176727      -0.08888230      -0.08949509
Cu       4.12974575       8.99906762      18.09121042      -0.00848133       0.00792157       0.16776611      -0.00333753      -0.00521405       0.16530096       0.04843296       0.09681324      -0.73033036
Cu       2.04197197      10.26684038      17.40270153       0.00179507       0.00230549       0.12405292       0.00524779       0.00953182       0.13054977      -0.10455093       0.09086343      -0.08731658
Cu       2.05297305       2.56687243      17.39417956      -0.00053358      -0.00118766       0.13045643       0.00578190      -0.00050047       0.13574989      -0.00939303      -0.02967168       0.00298839
Cu       2.03065783       5.13340515      17.36558313       0.00067329      -0.00433451       0.12548457       0.00082278      -0.00629671       0.12543010      -0.03704750       0.02402622      -0.03315128
Cu       2.05197180       7.70387673      17.40807994      -0.00105859       0.00075057       0.11961284       0.00273760       0.00679402       0.12253414      -0.14322290      -0.10418332      -0.20960911
Cu       6.26880221       1.28294302      16.72674826      -0.00505770       0.00298337       0.10141426      -0.00189632       0.00325088       0.10749546      -0.01065770       0.00684248      -0.01247222
Cu       6.26687209       3.84163382      16.71000481      -0.00166091      -0.00262105       0.09686790      -0.00209162      -0.00290750       0.10428321       0.09269334      -0.00984236      -0.05631116
Cu       6.27162175       6.42414667      16.70699169      -0.00033411       0.00106665       0.09118597       0.00233948      -0.00227907       0.09118126       0.04029189       0.03453811      -0.05889720
Cu       6.27658617       8.98534479      16.71143971      -0.01641717       0.00221655       0.10204405       0.00136989       0.00873066       0.09511712      -0.00199349      -0.02372334      -0.00751907
Cu       4.19156295       0.00000000      15.99982400       0.00000000       0.00000000       0.00000000       0.07701543      -0.01228276      -0.39741454       0.11955191      -0.08727933      -0.42712992
Cu       4.19156295       2.56679762      15.99982400       0.00000000       0.00000000       0.00000000       0.06079125       0.02260139      -0.48390274       0.08725840       0.13989935      -0.21415864
Cu       4.19156295       5.13359523      15.99982400       0.00000000       0.00000000       0.00000000       0.06161371       0.02956463      -0.34893328       0.09810026       0.00698869      -0.27850837
Cu       4.19156295       7.70039285      15.99982400       0.00000000       0.00000000       0.00000000       0.08823876       0.01395026      -0.20936861       0.08117996      -0.06665276      -0.27404057
Cu       2.09578148       1.28339881      15.24984600       0.00000000       0.00000000       0.00000000      -0.00300318       0.00259424      -0.31174978      -0.02274635      -0.04314495      -0.30812123
Cu       2.09578148       3.85019642      15.24984600       0.00000000       0.00000000       0.00000000      -0.00920874      -0.00854497      -0.31767027       0.05392552      -0.03509501      -0.30112069
Cu       2.09578148       6.41699404      15.24984600       0.00000000       0.00000000       0.00000000       0.02946652       0.00743201      -0.29188558       0.05401143       0.05138004      -0.25838859
Cu       2.09578148       8.98379165      15.24984600       0.00000000       0.00000000       0.00000000       0.02264743      -0.00868581      -0.29977313       0.02686414       0.02653944      -0.23379929
Cu       0.00000000       0.00000000      14.49986800       0.00000000       0.00000000       0.00000000      -0.07379243       0.00916075      -0.21769639      -0.11501034       0.02121645      -0.23075336
Cu       0.00000000       2.56679762      14.49986800       0.00000000       0.00000000       0.00000000      -0.07617192      -0.00172173      -0.19074166      -0.14327774      -0.04651124      -0.24250183
Cu       0.00000000       5.13359523      14.49986800       0.00000000       0.00000000       0.00000000      -0.07447422      -0.01155827      -0.21418018      -0.14829223       0.02384695      -0.24161064
Cu       0.00000000       7.70039285      14.49986800       0.00000000       0.00000000       0.00000000      -0.07841858       0.00020544      -0.23319078      -0.09809287       0.00093207      -0.29871126
Cu       4.19156295       1.28339881      13.74989000       0.00000000       0.00000000       0.00000000      -0.04401218       0.00087082      -0.12751483      -0.10027519       0.00139842       0.01801302
Cu       4.19156295       3.85019642      13.74989000       0.00000000       0.00000000       0.00000000      -0.04499185      -0.00104151      -0.12463264      -0.07642006      -0.03166412      -0.03267361
Cu       4.19156295       6.41699404      13.74989000       0.00000000       0.00000000       0.00000000      -0.04595640       0.00070768      -0.12530437      -0.06948505       0.01453052      -0.01344192
Cu       4.19156295       8.98379165      13.74989000       0.00000000       0.00000000       0.00000000      -0.04433637      -0.00060256      -0.12767009      -0.06850648       0.01458101      -0.05249080
Cu       2.09578148       0.00000000      12.99991200       0.00000000       0.00000000       0.00000000      -0.07822369       0.00001504       0.16954259      -0.04131407       0.00638374       0.19670252
Cu       2.09578148       2.56679762      12.99991200       0.00000000       0.00000000       0.00000000      -0.07930530       0.00002612       0.17075797      -0.06596167       0.00429035       0.23964522
Cu       2.09578148       5.13359523      12.99991200       0.00000000       0.00000000       0.00000000      -0.08149751       0.00014622       0.17001056      -0.08286415      -0.01355819       0.25779682
Cu       2.09578148       7.70039285      12.99991200       0.00000000       0.00000000       0.00000000      -0.08028805      -0.00008474       0.16792623      -0.09922896       0.00280918       0.26608667
Cu      -0.00000000       1.28339881      12.24993400       0.00000000       0.00000000       0.00000000       0.11790950      -0.00030574       0.43623852       0.10941284      -0.00226543       0.67830460
Cu      -0.00000000       3.85019642      12.24993400       0.00000000       0.00000000       0.00000000       0.11789996       0.00084411       0.43603460       0.10417730       0.01174846       0.74089526
Cu      -0.00000000       6.41699404      12.24993400       0.00000000       0.00000000       0.00000000       0.11771568       0.00033151       0.43674773       0.11158751      -0.00907790       0.71730052
Cu      -0.00000000       8.98379165      12.24993400       0.00000000       0.00000000       0.00000000       0.11774150      -0.00094163       0.43702592       0.12411148       0.00193315       0.68035254
O        4.30421643       5.13350241      19.51280835       0.01326077      -0.00694174       0.04581627       0.00646220      -0.03106808       0.00948445       0.12249173      -0.04457385       0.13496714
C        3.95453981       8.84240295      19.84841384      -0.01787246       0.01290962       0.11747698       0.00145617      -0.01160697       0.04851044      -0.15774405      -0.09776030      -0.35289932
H        5.22574658       5.12375719      19.82801515       0.01918252      -0.00029757       0.00292632       0.00139965      -0.02412027      -0.02015204       0.26801080       0.11216789       1.26159442
O        3.94111771       8.82928373      21.00926109      -0.03508011       0.00241840       0.04872818       0.00672406       0.00470636       0.05097493       0.06398138       0.00737779       0.11484707
40
Lattice="6.2873444314750255 0.0 0.0 0.0 10.26719046282867 0.0 0.0 0.0 28.249757996450562" Properties=species:S:1:pos:R:3:MACE_forces:R:3:forces:R:3:DFT_forces:R:3 adsorbate_info="_JSON {\"top layer atom index\": 0, \"sites\": {}}" method=neb MACE_energy=-161.29511413245987 energy=-161.29518959014217 stress="0.007046669745975515 -5.081940709053173e-06 -2.8341301429322483e-05 -5.081940709053173e-06 0.008150504215825277 0.00014417181696233446 -2.8341301429322483e-05 0.00014417181696233446 0.0014519238666479957" free_energy=-161.29518959014217 DFT_energy=-163.526752 pbc="T T T"
Cu       4.10069188       1.26992819      18.08967612      -0.01277943      -0.00129666       0.14610970      -0.00655368       0.00987067       0.14676571       0.05135275       0.06657645      -0.15919207
Cu       4.12855819       3.78613718      18.13948802      -0.01424756      -0.00402056       0.14966358      -0.00849748      -0.00975303       0.14360010      -0.04402363      -0.04896392      -0.09974782
Cu       4.14102948       6.47949652      18.13219380      -0.01149929      -0.00781744       0.14401713      -0.00932419       0.00818123       0.14051927      -0.01092864      -0.08705514      -0.08283883
Cu       4.13307088       8.99982746      18.08455592      -0.00739111       0.00845790       0.17779436      -0.00333753      -0.00521405       0.16530096       0.06401948       0.10413047      -0.70609670
Cu       2.04260009      10.26712291      17.40441080       0.00228628       0.00190595       0.12370957       0.00524779       0.00953182       0.13054977      -0.10833692       0.09835121      -0.09494992
Cu       2.05220331       2.56717111      17.39395202      -0.00047911      -0.00091073       0.13086423       0.00578190      -0.00050047       0.13574989      -0.00899309      -0.02789765       0.00306435
Cu       2.03004691       5.13367832      17.36550127       0.00108351      -0.00464135       0.12552977       0.00082278      -0.00629671       0.12543010      -0.03489756       0.02472929      -0.03292102
Cu       2.05251402       7.70455771      17.41118523      -0.00044689       0.00105418       0.11955696       0.00273760       0.00679402       0.12253414      -0.15495306      -0.11333232      -0.22621254
Cu       6.26869707       1.28252934      16.72696720      -0.00473112       0.00291365       0.10189245      -0.00189632       0.00325088       0.10749546      -0.00821872       0.00787181      -0.01156615
Cu       6.26650755       3.84162104      16.70998452      -0.00169823      -0.00227818       0.09710771      -0.00209162      -0.00290750       0.10428321       0.09189178      -0.00948885      -0.05596617
Cu       6.27177005       6.42444716      16.70738965       0.00055989       0.00168080       0.09073923       0.00233948      -0.00227907       0.09118126       0.04048624       0.03619317      -0.05928597
Cu       6.27871561       8.98550978      16.70962702      -0.02010742       0.00258404       0.10540910       0.00136989       0.00873066       0.09511712      -0.01183864      -0.02376273      -0.00164744
Cu       4.19156295       0.00000000      15.99982400       0.00000000       0.00000000       0.00000000       0.07701543      -0.01228276      -0.39741454       0.12359475      -0.08026846      -0.43837327
Cu       4.19156295       2.56679762      15.99982400       0.00000000       0.00000000       0.00000000       0.06079125       0.02260139      -0.48390274       0.08576667       0.14495686      -0.22042789
Cu       4.19156295       5.13359523      15.99982400       0.00000000       0.00000000       0.00000000       0.06161371       0.02956463      -0.34893328       0.09834924       0.00847827      -0.27946552
Cu       4.19156295       7.70039285      15.99982400       0.00000000       0.00000000       0.00000000       0.08823876       0.01395026      -0.20936861       0.08540869      -0.07936048      -0.29841437
Cu       2.09578148       1.28339881      15.24984600       0.00000000       0.00000000       0.00000000      -0.00300318       0.00259424      -0.31174978      -0.02259921      -0.04556685      -0.30471685
Cu       2.09578148       3.85019642      15.24984600       0.00000000       0.00000000       0.00000000      -0.00920874      -0.00854497      -0.31767027       0.05361808      -0.03504231      -0.30216505
Cu       2.09578148       6.41699404      15.24984600       0.00000000       0.00000000       0.00000000       0.02946652       0.00743201      -0.29188558       0.05513922       0.05718442      -0.25082718
Cu       2.09578148       8.98379165      15.24984600       0.00000000       0.00000000       0.00000000       0.02264743      -0.00868581      -0.29977313       0.03152147       0.02547514      -0.22749605
Cu       0.00000000       0.00000000      14.49986800       0.00000000       0.00000000       0.00000000      -0.07379243       0.00916075      -0.21769639      -0.11361652       0.02338232      -0.23648530
Cu       0.00000000       2.56679762      14.49986800       0.00000000       0.00000000       0.00000000      -0.07617192      -0.00172173      -0.19074166      -0.14369991      -0.04803860      -0.24080006
Cu       0.00000000       5.13359523      14.49986800       0.00000000       0.00000000       0.00000000      -0.07447422      -0.01155827      -0.21418018      -0.14738919       0.02473709      -0.24114008
Cu       0.00000000       7.70039285      14.49986800       0.00000000       0.00000000       0.00000000      -0.07841858       0.00020544      -0.23319078      -0.09700684       0.00002056      -0.30473362
Cu       4.19156295       1.28339881      13.74989000       0.00000000       0.00000000       0.00000000      -0.04401218       0.00087082      -0.12751483      -0.10024574       0.00209178       0.01898930
Cu       4.19156295       3.85019642      13.74989000       0.00000000       0.00000000       0.00000000      -0.04499185      -0.00104151      -0.12463264      -0.07648609      -0.03149450      -0.03330091
Cu       4.19156295       6.41699404      13.74989000       0.00000000       0.00000000       0.00000000      -0.04595640       0.00070768      -0.12530437      -0.06871001       0.01309187      -0.01520592
Cu       4.19156295       8.98379165      13.74989000       0.00000000       0.00000000       0.00000000      -0.04433637      -0.00060256      -0.12767009      -0.06777556       0.01539925      -0.05257148
Cu       2.09578148       0.00000000      12.99991200       0.00000000       0.00000000       0.00000000      -0.07822369       0.00001504       0.16954259      -0.04186524       0.00612798       0.19564760
Cu       2.09578148       2.56679762      12.99991200       0.00000000       0.00000000       0.00000000      -0.07930530       0.00002612       0.17075797      -0.06478591       0.00622438       0.23808927
Cu       2.09578148       5.13359523      12.99991200       0.00000000       0.00000000       0.00000000      -0.08149751       0.00014622       0.17001056      -0.08384812      -0.01569985       0.25797096
Cu       2.09578148       7.70039285      12.99991200       0.00000000       0.00000000       0.00000000      -0.08028805      -0.00008474       0.16792623      -0.09973764       0.00438134       0.26567497
Cu      -0.00000000       1.28339881      12.24993400       0.00000000       0.00000000       0.00000000       0.11790950      -0.00030574       0.43623852       0.10976044      -0.00281720       0.67845635
Cu      -0.00000000       3.85019642      12.24993400       0.00000000       0.00000000       0.00000000       0.11789996       0.00084411       0.43603460       0.10470671       0.01293462       0.74064182
Cu      -0.00000000       6.41699404      12.24993400       0.00000000       0.00000000       0.00000000       0.11771568       0.00033151       0.43674773       0.11201841      -0.00898661       0.71763782
Cu      -0.00000000       8.98379165      12.24993400       0.00000000       0.00000000       0.00000000       0.11774150      -0.00094163       0.43702592       0.12415434       0.00209200       0.68051670
O        4.30306925       5.13250881      19.51369355       0.01394130      -0.00715833       0.04656851       0.00646220      -0.03106808       0.00948445       0.12372517      -0.04012676       0.13690709
C        3.89058130       8.80858477      19.83106239      -0.01988820       0.01248513       0.12336384       0.00145617      -0.01160697       0.04851044      -0.17353147      -0.12187794      -0.33774421
H        5.22487493       5.12230625      19.82818142       0.01968024      -0.00027919       0.00409047       0.00139965      -0.02412027      -0.02015204       0.26515982       0.12768902       1.26521542
O        3.84776730       8.79593088      20.99121932      -0.04484445      -0.00151840       0.05448757       0.00672406       0.00470636       0.05097493       0.06281445       0.00766087       0.11548075
40
Lattice="6.2873444314750255 0.0 0.0 0.0 10.26719046282867 0.0 0.0 0.0 28.249757996450562" Properties=species:S:1:pos:R:3:MACE_forces:R:3:forces:R:3:DFT_forces:R:3 adsorbate_info="_JSON {\"top layer atom index\": 0, \"sites\": {}}" method=neb MACE_energy=-161.29638832661217 energy=-161.29518959014217 stress="0.007046669745975515 -5.081940709053173e-06 -2.8341301429322483e-05 -5.081940709053173e-06 0.008150504215825277 0.00014417181696233446 -2.8341301429322483e-05 0.00014417181696233446 0.0014519238666479957" free_energy=-161.29518959014217 DFT_energy=-163.51189901 pbc="T T T"
Cu       4.10051870       1.27230631      18.08865590      -0.01217664      -0.00226873       0.14628144      -0.00655368       0.00987067       0.14676571       0.05437286       0.05440448      -0.15304473
Cu       4.12771880       3.78684573      18.13926287      -0.01417256      -0.00437878       0.14965887      -0.00849748      -0.00975303       0.14360010      -0.04308621      -0.05183646      -0.10045278
Cu       4.14184852       6.47833192      18.13191996      -0.00957696      -0.00767160       0.14437918      -0.00932419       0.00818123       0.14051927      -0.01125363      -0.08410013      -0.07564133
Cu       4.13726481       9.00092990      18.07897901      -0.00774844       0.00780781       0.18889878      -0.00333753      -0.00521405       0.16530096       0.07592200       0.10912000      -0.67630934
Cu       2.04354651      10.26725678      17.40620717       0.00229415       0.00187902       0.12303550       0.00524779       0.00953182       0.13054977      -0.11163159       0.10549362      -0.10214356
Cu       2.05152166       2.56739144      17.39386092      -0.00028234      -0.00051806       0.13078056       0.00578190      -0.00050047       0.13574989      -0.00909608      -0.02589466       0.00308444
Cu       2.02955232       5.13400577      17.36549817       0.00157413      -0.00490184       0.12520163       0.00082278      -0.00629671       0.12543010      -0.03311590       0.02472155      -0.03258811
Cu       2.05323561       7.70537942      17.41431218       0.00000165       0.00117522       0.11951402       0.00273760       0.00679402       0.12253414      -0.16489327      -0.12192898      -0.24223554
Cu       6.26866795       1.28203129      16.72732276      -0.00419805       0.00287613       0.10204713      -0.00189632       0.00325088       0.10749546      -0.00579953       0.00935352      -0.01084888
Cu       6.26623668       3.84158693      16.71000908      -0.00181098      -0.00189952       0.09720293      -0.00209162      -0.00290750       0.10428321       0.09031104      -0.00920935      -0.05509997
Cu       6.27200793       6.42481684      16.70789611       0.00153809       0.00225080       0.09019513       0.00233948      -0.00227907       0.09118126       0.04027666       0.03769789      -0.05941162
Cu       6.28070984       8.98571096      16.70812174      -0.02223249       0.00288187       0.10796497       0.00136989       0.00873066       0.09511712      -0.02063787      -0.02420487       0.00460495
Cu       4.19156295       0.00000000      15.99982400       0.00000000       0.00000000       0.00000000       0.07701543      -0.01228276      -0.39741454       0.12709528      -0.07332553      -0.44834857
Cu       4.19156295       2.56679762      15.99982400       0.00000000       0.00000000       0.00000000       0.06079125       0.02260139      -0.48390274       0.08407940       0.14973092      -0.22600172
Cu       4.19156295       5.13359523      15.99982400       0.00000000       0.00000000       0.00000000       0.06161371       0.02956463      -0.34893328       0.09847686       0.01024617      -0.27936533
Cu       4.19156295       7.70039285      15.99982400       0.00000000       0.00000000       0.00000000       0.08823876       0.01395026      -0.20936861       0.08936893      -0.09139127      -0.32057248
Cu       2.09578148       1.28339881      15.24984600       0.00000000       0.00000000       0.00000000      -0.00300318       0.00259424      -0.31174978      -0.02301821      -0.04821670      -0.30047944
Cu       2.09578148       3.85019642      15.24984600       0.00000000       0.00000000       0.00000000      -0.00920874      -0.00854497      -0.31767027       0.05280977      -0.03524453      -0.30228331
Cu       2.09578148       6.41699404      15.24984600       0.00000000       0.00000000       0.00000000       0.02946652       0.00743201      -0.29188558       0.05586720       0.06290080      -0.24262381
Cu       2.09578148       8.98379165      15.24984600       0.00000000       0.00000000       0.00000000       0.02264743      -0.00868581      -0.29977313       0.03519307       0.02436128      -0.22098587
Cu       0.00000000       0.00000000      14.49986800       0.00000000       0.00000000       0.00000000      -0.07379243       0.00916075      -0.21769639      -0.11281304       0.02507380      -0.24117862
Cu       0.00000000       2.56679762      14.49986800       0.00000000       0.00000000       0.00000000      -0.07617192      -0.00172173      -0.19074166      -0.14447813      -0.04974494      -0.23851203
Cu       0.00000000       5.13359523      14.49986800       0.00000000       0.00000000       0.00000000      -0.07447422      -0.01155827      -0.21418018      -0.14693713       0.02534171      -0.24017535
Cu       0.00000000       7.70039285      14.49986800       0.00000000       0.00000000       0.00000000      -0.07841858       0.00020544      -0.23319078      -0.09638329      -0.00079249      -0.30975886
Cu       4.19156295       1.28339881      13.74989000       0.00000000       0.00000000       0.00000000      -0.04401218       0.00087082      -0.12751483      -0.10041642       0.00260579       0.02020888
Cu       4.19156295       3.85019642      13.74989000       0.00000000       0.00000000       0.00000000      -0.04499185      -0.00104151      -0.12463264      -0.07709472      -0.03144863      -0.03346169
Cu       4.19156295       6.41699404      13.74989000       0.00000000       0.00000000       0.00000000      -0.04595640       0.00070768      -0.12530437      -0.06824017       0.01148789      -0.01661330
Cu       4.19156295       8.98379165      13.74989000       0.00000000       0.00000000       0.00000000      -0.04433637      -0.00060256      -0.12767009      -0.06749852       0.01608827      -0.05205808
Cu       2.09578148       0.00000000      12.99991200       0.00000000       0.00000000       0.00000000      -0.07822369       0.00001504       0.16954259      -0.04313983       0.00539084       0.19527483
Cu       2.09578148       2.56679762      12.99991200       0.00000000       0.00000000       0.00000000      -0.07930530       0.00002612       0.17075797      -0.06419352       0.00808033       0.23712478
Cu       2.09578148       5.13359523      12.99991200       0.00000000       0.00000000       0.00000000      -0.08149751       0.00014622       0.17001056      -0.08533499      -0.01803322       0.25855348
Cu       2.09578148       7.70039285      12.99991200       0.00000000       0.00000000       0.00000000      -0.08028805      -0.00008474       0.16792623      -0.10073394       0.00588730       0.26560721
Cu      -0.00000000       1.28339881      12.24993400       0.00000000       0.00000000       0.00000000       0.11790950      -0.00030574       0.43623852       0.10975284      -0.00343913       0.67922459
Cu      -0.00000000       3.85019642      12.24993400       0.00000000       0.00000000       0.00000000       0.11789996       0.00084411       0.43603460       0.10482864       0.01393003       0.74075314
Cu      -0.00000000       6.41699404      12.24993400       0.00000000       0.00000000       0.00000000       0.11771568       0.00033151       0.43674773       0.11188191      -0.00909785       0.71842570
Cu      -0.00000000       8.98379165      12.24993400       0.00000000       0.00000000       0.00000000       0.11774150      -0.00094163       0.43702592       0.12377976       0.00206238       0.68104361
O        4.30190289       5.13144810      19.51465901       0.01459686      -0.00713167       0.04732528       0.00646220      -0.03106808       0.00948445       0.12481147      -0.03602901       0.13718321
C        3.82812505       8.77499983      19.81230000      -0.02161444       0.01218840       0.12502903       0.00145617      -0.01160697       0.04851044      -0.18748851      -0.14739503      -0.32068825
H        5.22391750       5.12082889      19.82862159       0.02024351      -0.00044423       0.00513449       0.00139965      -0.02412027      -0.02015204       0.27727181       0.14969854       1.24335583
O        3.75685917       8.76355396      20.97111298      -0.05483598      -0.00576589       0.05916904       0.00672406       0.00470636       0.05097493       0.06118500       0.00765566       0.11643793
40
Lattice="6.2873444314750255 0.0 0.0 0.0 10.26719046282867 0.0 0.0 0.0 28.249757996450562" Properties=species:S:1:pos:R:3:MACE_forces:R:3:forces:R:3:DFT_forces:R:3 adsorbate_info="_JSON {\"top layer atom index\": 0, \"sites\": {}}" method=neb MACE_energy=-161.29849272109232 energy=-161.29518959014217 stress="0.007046669745975515 -5.081940709053173e-06 -2.8341301429322483e-05 -5.081940709053173e-06 0.008150504215825277 0.00014417181696233446 -2.8341301429322483e-05 0.00014417181696233446 0.0014519238666479957" free_energy=-161.29518959014217 DFT_energy=-163.49599994 pbc="T T T"
Cu       4.10048739       1.27476566      18.08769055      -0.01138666      -0.00309112       0.14638104      -0.00655368       0.00987067       0.14676571       0.05693673       0.04237441      -0.14555824
Cu       4.12689080       3.78758755      18.13901566      -0.01410925      -0.00466781       0.14962511      -0.00849748      -0.00975303       0.14360010      -0.04130926      -0.05476434      -0.10103176
Cu       4.14280622       6.47732918      18.13182766      -0.00755412      -0.00760207       0.14464572      -0.00932419       0.00818123       0.14051927      -0.01224381      -0.08095136      -0.06833257
Cu       4.14216206       9.00226614      18.07444525      -0.00924111       0.00655208       0.19949466      -0.00333753      -0.00521405       0.16530096       0.08305062       0.11341830      -0.64371893
Cu       2.04470214      10.26728966      17.40796124       0.00214059       0.00204586       0.12246814       0.00524779       0.00953182       0.13054977      -0.11346749       0.11217514      -0.10773354
Cu       2.05087463       2.56757399      17.39377271      -0.00000793      -0.00009809       0.13071547       0.00578190      -0.00050047       0.13574989      -0.00848531      -0.02353924       0.00329305
Cu       2.02911137       5.13439003      17.36547212       0.00211185      -0.00518006       0.12489775       0.00082278      -0.00629671       0.12543010      -0.03115615       0.02404894      -0.03250049
Cu       2.05397271       7.70625970      17.41734412       0.00052444       0.00125563       0.11973801       0.00273760       0.00679402       0.12253414      -0.17190974      -0.12880272      -0.25416837
Cu       6.26867668       1.28146487      16.72772781      -0.00357152       0.00286839       0.10216657      -0.00189632       0.00325088       0.10749546      -0.00235616       0.01059095      -0.00985167
Cu       6.26599263       3.84154396      16.71003089      -0.00187705      -0.00152292       0.09730166      -0.00209162      -0.00290750       0.10428321       0.08937344      -0.00879751      -0.05428579
Cu       6.27227294       6.42524535      16.70848898       0.00254127       0.00278817       0.08961807       0.00233948      -0.00227907       0.09118126       0.04075422       0.03906124      -0.05949498
Cu       6.28261746       8.98593686      16.70680624      -0.02360156       0.00317546       0.11018666       0.00136989       0.00873066       0.09511712      -0.02783557      -0.02461365       0.01060642
Cu       4.19156295       0.00000000      15.99982400       0.00000000       0.00000000       0.00000000       0.07701543      -0.01228276      -0.39741454       0.13090851      -0.06674011      -0.45720544
Cu       4.19156295       2.56679762      15.99982400       0.00000000       0.00000000       0.00000000       0.06079125       0.02260139      -0.48390274       0.08296658       0.15452186      -0.23154879
Cu       4.19156295       5.13359523      15.99982400       0.00000000       0.00000000       0.00000000       0.06161371       0.02956463      -0.34893328       0.09931267       0.01267821      -0.27862193
Cu       4.19156295       7.70039285      15.99982400       0.00000000       0.00000000       0.00000000       0.08823876       0.01395026      -0.20936861       0.09386502      -0.10253971      -0.34097702
Cu       2.09578148       1.28339881      15.24984600       0.00000000       0.00000000       0.00000000      -0.00300318       0.00259424      -0.31174978      -0.02297736      -0.05084807      -0.29638752
Cu       2.09578148       3.85019642      15.24984600       0.00000000       0.00000000       0.00000000      -0.00920874      -0.00854497      -0.31767027       0.05235862      -0.03560487      -0.30239822
Cu       2.09578148       6.41699404      15.24984600       0.00000000       0.00000000       0.00000000       0.02946652       0.00743201      -0.29188558       0.05712234       0.06883843      -0.23461726
Cu       2.09578148       8.98379165      15.24984600       0.00000000       0.00000000       0.00000000       0.02264743      -0.00868581      -0.29977313       0.03915968       0.02326767      -0.21507434
Cu       0.00000000       0.00000000      14.49986800       0.00000000       0.00000000       0.00000000      -0.07379243       0.00916075      -0.21769639      -0.11178459       0.02656845      -0.24563396
Cu       0.00000000       2.56679762      14.49986800       0.00000000       0.00000000       0.00000000      -0.07617192      -0.00172173      -0.19074166      -0.14473334      -0.05157633      -0.23632394
Cu       0.00000000       5.13359523      14.49986800       0.00000000       0.00000000       0.00000000      -0.07447422      -0.01155827      -0.21418018      -0.14599654       0.02586512      -0.23938881
Cu       0.00000000       7.70039285      14.49986800       0.00000000       0.00000000       0.00000000      -0.07841858       0.00020544      -0.23319078      -0.09524479      -0.00143309      -0.31481201
Cu       4.19156295       1.28339881      13.74989000       0.00000000       0.00000000       0.00000000      -0.04401218       0.00087082      -0.12751483      -0.10044238       0.00332416       0.02138837
Cu       4.19156295       3.85019642      13.74989000       0.00000000       0.00000000       0.00000000      -0.04499185      -0.00104151      -0.12463264      -0.07739894      -0.03152044      -0.03382857
Cu       4.19156295       6.41699404      13.74989000       0.00000000       0.00000000       0.00000000      -0.04595640       0.00070768      -0.12530437      -0.06747977       0.00983272      -0.01820442
Cu       4.19156295       8.98379165      13.74989000       0.00000000       0.00000000       0.00000000      -0.04433637      -0.00060256      -0.12767009      -0.06686360       0.01690169      -0.05127363
Cu       2.09578148       0.00000000      12.99991200       0.00000000       0.00000000       0.00000000      -0.07822369       0.00001504       0.16954259      -0.04400158       0.00460131       0.19432221
Cu       2.09578148       2.56679762      12.99991200       0.00000000       0.00000000       0.00000000      -0.07930530       0.00002612       0.17075797      -0.06317187       0.01001951       0.23604792
Cu       2.09578148       5.13359523      12.99991200       0.00000000       0.00000000       0.00000000      -0.08149751       0.00014622       0.17001056      -0.08638397      -0.02037921       0.25879171
Cu       2.09578148       7.70039285      12.99991200       0.00000000       0.00000000       0.00000000      -0.08028805      -0.00008474       0.16792623      -0.10141909       0.00734625       0.26538974
Cu      -0.00000000       1.28339881      12.24993400       0.00000000       0.00000000       0.00000000       0.11790950      -0.00030574       0.43623852       0.11046560      -0.00409167       0.68049488
Cu      -0.00000000       3.85019642      12.24993400       0.00000000       0.00000000       0.00000000       0.11789996       0.00084411       0.43603460       0.10557233       0.01494197       0.74085543
Cu      -0.00000000       6.41699404      12.24993400       0.00000000       0.00000000       0.00000000       0.11771568       0.00033151       0.43674773       0.11225077      -0.00903393       0.71889857
Cu      -0.00000000       8.98379165      12.24993400       0.00000000       0.00000000       0.00000000       0.11774150      -0.00094163       0.43702592       0.12397878       0.00190182       0.68158785
O        4.30076977       5.13031499      19.51566321       0.01530987      -0.00702214       0.04812199       0.00646220      -0.03106808       0.00948445       0.12529115      -0.03212930       0.13886213
C        3.76606172       8.74115529      19.79182844      -0.02309816       0.01179511       0.12506073       0.00145617      -0.01160697       0.04851044      -0.20386099      -0.16904374      -0.30214392
H        5.22301095       5.11931311      19.82905335       0.02084297      -0.00076490       0.00621994       0.00139965      -0.02412027      -0.02015204       0.27729897       0.16672888       1.20686382
O        3.66684443       8.73165548      20.94869697      -0.06492052      -0.01025472       0.06148869       0.00672406       0.00470636       0.05097493       0.05985627       0.00740225       0.11771401
40
Lattice="6.2873444314750255 0.0 0.0 0.0 10.26719046282867 0.0 0.0 0.0 28.249757996450562" Properties=species:S:1:pos:R:3:MACE_forces:R:3:forces:R:3:DFT_forces:R:3 adsorbate_info="_JSON {\"top layer atom index\": 0, \"sites\": {}}" method=neb MACE_energy=-161.30143213730486 energy=-161.29518959014217 stress="0.007046669745975515 -5.081940709053173e-06 -2.8341301429322483e-05 -5.081940709053173e-06 0.008150504215825277 0.00014417181696233446 -2.8341301429322483e-05 0.00014417181696233446 0.0014519238666479957" free_energy=-161.29518959014217 DFT_energy=-163.47906131 pbc="T T T"
Cu       4.10060032       1.27732395      18.08676956      -0.01043908      -0.00371531       0.14637586      -0.00655368       0.00987067       0.14676571       0.05904467       0.02948429      -0.13994999
Cu       4.12607759       3.78836346      18.13873839      -0.01404459      -0.00479262       0.14957730      -0.00849748      -0.00975303       0.14360010      -0.03993304      -0.05794085      -0.10197800
Cu       4.14389359       6.47655574      18.13200720      -0.00535014      -0.00766452       0.14472346      -0.00932419       0.00818123       0.14051927      -0.01370871      -0.07715669      -0.06085640
Cu       4.14774318       9.00387872      18.07084225      -0.01140275       0.00498035       0.20762033      -0.00333753      -0.00521405       0.16530096       0.08868538       0.11527732      -0.61217012
Cu       2.04600409      10.26728369      17.40964768       0.00211169       0.00238143       0.12209737       0.00524779       0.00953182       0.13054977      -0.11389434       0.11840928      -0.11233870
Cu       2.05026256       2.56773025      17.39368625       0.00031321       0.00040777       0.13066079       0.00578190      -0.00050047       0.13574989      -0.00818804      -0.02146546       0.00272199
Cu       2.02872744       5.13484516      17.36541624       0.00273702      -0.00544161       0.12463492       0.00082278      -0.00629671       0.12543010      -0.02931811       0.02289571      -0.03229571
Cu       2.05477177       7.70724906      17.42050835       0.00104085       0.00118098       0.11976994       0.00273760       0.00679402       0.12253414      -0.17817573      -0.13498690      -0.26296992
Cu       6.26871557       1.28083879      16.72817440      -0.00290694       0.00289958       0.10225378      -0.00189632       0.00325088       0.10749546       0.00084781       0.01235087      -0.00980249
Cu       6.26577684       3.84149921      16.71004681      -0.00188535      -0.00111812       0.09740291      -0.00209162      -0.00290750       0.10428321       0.08808561      -0.00894633      -0.05356511
Cu       6.27259609       6.42576103      16.70918043       0.00351432       0.00327566       0.08904194       0.00233948      -0.00227907       0.09118126       0.04044352       0.03954050      -0.05929400
Cu       6.28451580       8.98616523      16.70568236      -0.02452559       0.00350450       0.11204129       0.00136989       0.00873066       0.09511712      -0.03571287      -0.02505880       0.01632944
Cu       4.19156295       0.00000000      15.99982400       0.00000000       0.00000000       0.00000000       0.07701543      -0.01228276      -0.39741454       0.13444889      -0.06096437      -0.46544046
Cu       4.19156295       2.56679762      15.99982400       0.00000000       0.00000000       0.00000000       0.06079125       0.02260139      -0.48390274       0.08186939       0.15920303      -0.23756832
Cu       4.19156295       5.13359523      15.99982400       0.00000000       0.00000000       0.00000000       0.06161371       0.02956463      -0.34893328       0.10007722       0.01520357      -0.27763355
Cu       4.19156295       7.70039285      15.99982400       0.00000000       0.00000000       0.00000000       0.08823876       0.01395026      -0.20936861       0.09840108      -0.11323993      -0.35992062
Cu       2.09578148       1.28339881      15.24984600       0.00000000       0.00000000       0.00000000      -0.00300318       0.00259424      -0.31174978      -0.02337321      -0.05385167      -0.29226323
Cu       2.09578148       3.85019642      15.24984600       0.00000000       0.00000000       0.00000000      -0.00920874      -0.00854497      -0.31767027       0.05186270      -0.03617719      -0.30257088
Cu       2.09578148       6.41699404      15.24984600       0.00000000       0.00000000       0.00000000       0.02946652       0.00743201      -0.29188558       0.05835680       0.07449380      -0.22652136
Cu       2.09578148       8.98379165      15.24984600       0.00000000       0.00000000       0.00000000       0.02264743      -0.00868581      -0.29977313       0.04266505       0.02173069      -0.20944649
Cu       0.00000000       0.00000000      14.49986800       0.00000000       0.00000000       0.00000000      -0.07379243       0.00916075      -0.21769639      -0.11090722       0.02743245      -0.24934975
Cu       0.00000000       2.56679762      14.49986800       0.00000000       0.00000000       0.00000000      -0.07617192      -0.00172173      -0.19074166      -0.14496066      -0.05384893      -0.23388544
Cu       0.00000000       5.13359523      14.49986800       0.00000000       0.00000000       0.00000000      -0.07447422      -0.01155827      -0.21418018      -0.14514354       0.02587383      -0.23811861
Cu       0.00000000       7.70039285      14.49986800       0.00000000       0.00000000       0.00000000      -0.07841858       0.00020544      -0.23319078      -0.09428200      -0.00221164      -0.31907705
Cu       4.19156295       1.28339881      13.74989000       0.00000000       0.00000000       0.00000000      -0.04401218       0.00087082      -0.12751483      -0.09989677       0.00359456       0.02263713
Cu       4.19156295       3.85019642      13.74989000       0.00000000       0.00000000       0.00000000      -0.04499185      -0.00104151      -0.12463264      -0.07758528      -0.03151844      -0.03418426
Cu       4.19156295       6.41699404      13.74989000       0.00000000       0.00000000       0.00000000      -0.04595640       0.00070768      -0.12530437      -0.06658323       0.00756941      -0.01998609
Cu       4.19156295       8.98379165      13.74989000       0.00000000       0.00000000       0.00000000      -0.04433637      -0.00060256      -0.12767009      -0.06634566       0.01732069      -0.05001366
Cu       2.09578148       0.00000000      12.99991200       0.00000000       0.00000000       0.00000000      -0.07822369       0.00001504       0.16954259      -0.04497011       0.00321718       0.19383643
Cu       2.09578148       2.56679762      12.99991200       0.00000000       0.00000000       0.00000000      -0.07930530       0.00002612       0.17075797      -0.06242722       0.01157021       0.23505070
Cu       2.09578148       5.13359523      12.99991200       0.00000000       0.00000000       0.00000000      -0.08149751       0.00014622       0.17001056      -0.08780363      -0.02334658       0.25961861
Cu       2.09578148       7.70039285      12.99991200       0.00000000       0.00000000       0.00000000      -0.08028805      -0.00008474       0.16792623      -0.10216152       0.00869770       0.26564353
Cu      -0.00000000       1.28339881      12.24993400       0.00000000       0.00000000       0.00000000       0.11790950      -0.00030574       0.43623852       0.11071123      -0.00496989       0.68128849
Cu      -0.00000000       3.85019642      12.24993400       0.00000000       0.00000000       0.00000000       0.11789996       0.00084411       0.43603460       0.10605539       0.01548731       0.74050533
Cu      -0.00000000       6.41699404      12.24993400       0.00000000       0.00000000       0.00000000       0.11771568       0.00033151       0.43674773       0.11238488      -0.00951060       0.71951695
Cu      -0.00000000       8.98379165      12.24993400       0.00000000       0.00000000       0.00000000       0.11774150      -0.00094163       0.43702592       0.12391517       0.00138533       0.68190627
O        4.29967767       5.12908368      19.51671281       0.01609597      -0.00686443       0.04898035       0.00646220      -0.03106808       0.00948445       0.12683653      -0.02689364       0.13854256
C        3.70400724       8.70668849      19.76922380      -0.02466301       0.01082407       0.12478936       0.00145617      -0.01160697       0.04851044      -0.22133932      -0.18931579      -0.27833865
H        5.22216303       5.11775248      19.82948233       0.02149445      -0.00126665       0.00735729       0.00139965      -0.02412027      -0.02015204       0.28344919       0.19411604       1.16338372
O        3.57792496       8.70026136      20.92365852      -0.07523506      -0.01517005       0.06184499       0.00672406       0.00470636       0.05097493       0.05856971       0.00654994       0.11855771
40
Lattice="6.2873444314750255 0.0 0.0 0.0 10.26719046282867 0.0 0.0 0.0 28.249757996450562" Properties=species:S:1:pos:R:3:MACE_forces:R:3:forces:R:3:DFT_forces:R:3 adsorbate_info="_JSON {\"top layer atom index\": 0, \"sites\": {}}" method=neb MACE_energy=-161.3052991384322 energy=-161.29518959014217 stress="0.007046669745975515 -5.081940709053173e-06 -2.8341301429322483e-05 -5.081940709053173e-06 0.008150504215825277 0.00014417181696233446 -2.8341301429322483e-05 0.00014417181696233446 0.0014519238666479957" free_energy=-161.29518959014217 DFT_energy=-163.45998794 pbc="T T T"
Cu       4.10085839       1.27998724      18.08589030      -0.00933597      -0.00394178       0.14623781      -0.00655368       0.00987067       0.14676571       0.05999535       0.01783396      -0.13348700
Cu       4.12529340       3.78917167      18.13842442      -0.01395825      -0.00464533       0.14950887      -0.00849748      -0.00975303       0.14360010      -0.03787511      -0.06088019      -0.10168198
Cu       4.14509017       6.47610953      18.13258669      -0.00273028      -0.00791490       0.14460597      -0.00932419       0.00818123       0.14051927      -0.01518334      -0.07296787      -0.05228195
Cu       4.15400520       9.00585225      18.06801007      -0.01330411       0.00356537       0.21190889      -0.00333753      -0.00521405       0.16530096       0.09140107       0.11667859      -0.58032320
Cu       2.04737747      10.26732117      17.41123351       0.00244267       0.00298955       0.12201832       0.00524779       0.00953182       0.13054977      -0.11293548       0.12500386      -0.11443364
Cu       2.04969011       2.56787468      17.39360051       0.00063824       0.00108926       0.13059918       0.00578190      -0.00050047       0.13574989      -0.00788580      -0.01870240       0.00290399
Cu       2.02840835       5.13539714      17.36532246       0.00352254      -0.00552722       0.12443917       0.00082278      -0.00629671       0.12543010      -0.02729489       0.02238547      -0.03213735
Cu       2.05586968       7.70853298      17.42436371       0.00159611       0.00102046       0.11969506       0.00273760       0.00679402       0.12253414      -0.18220390      -0.13907117      -0.26985719
Cu       6.26877288       1.28016810      16.72864927      -0.00225504       0.00293636       0.10232909      -0.00189632       0.00325088       0.10749546       0.00463628       0.01489224      -0.00909731
Cu       6.26559451       3.84146380      16.71005320      -0.00180778      -0.00061978       0.09749761      -0.00209162      -0.00290750       0.10428321       0.08695616      -0.00883678      -0.05249639
Cu       6.27304268       6.42641349      16.70998913       0.00456996       0.00383525       0.08859968       0.00233948      -0.00227907       0.09118126       0.03999074       0.04063089      -0.05884463
Cu       6.28649417       8.98635424      16.70475653      -0.02502731       0.00387496       0.11349240       0.00136989       0.00873066       0.09511712      -0.04283233      -0.02627537       0.02249596
Cu       4.19156295       0.00000000      15.99982400       0.00000000       0.00000000       0.00000000       0.07701543      -0.01228276      -0.39741454       0.13800495      -0.05464665      -0.47314174
Cu       4.19156295       2.56679762      15.99982400       0.00000000       0.00000000       0.00000000       0.06079125       0.02260139      -0.48390274       0.08088469       0.16425949      -0.24350753
Cu       4.19156295       5.13359523      15.99982400       0.00000000       0.00000000       0.00000000       0.06161371       0.02956463      -0.34893328       0.10138462       0.01940127      -0.27521784
Cu       4.19156295       7.70039285      15.99982400       0.00000000       0.00000000       0.00000000       0.08823876       0.01395026      -0.20936861       0.10307969      -0.12310153      -0.37703492
Cu       2.09578148       1.28339881      15.24984600       0.00000000       0.00000000       0.00000000      -0.00300318       0.00259424      -0.31174978      -0.02363686      -0.05611177      -0.28814517
Cu       2.09578148       3.85019642      15.24984600       0.00000000       0.00000000       0.00000000      -0.00920874      -0.00854497      -0.31767027       0.05141699      -0.03645238      -0.30243731
Cu       2.09578148       6.41699404      15.24984600       0.00000000       0.00000000       0.00000000       0.02946652       0.00743201      -0.29188558       0.05981353       0.08182435      -0.21697479
Cu       2.09578148       8.98379165      15.24984600       0.00000000       0.00000000       0.00000000       0.02264743      -0.00868581      -0.29977313       0.04627338       0.01993341      -0.20312888
Cu       0.00000000       0.00000000      14.49986800       0.00000000       0.00000000       0.00000000      -0.07379243       0.00916075      -0.21769639      -0.11028987       0.02854292      -0.25267239
Cu       0.00000000       2.56679762      14.49986800       0.00000000       0.00000000       0.00000000      -0.07617192      -0.00172173      -0.19074166      -0.14505094      -0.05580291      -0.23125293
Cu       0.00000000       5.13359523      14.49986800       0.00000000       0.00000000       0.00000000      -0.07447422      -0.01155827      -0.21418018      -0.14415357       0.02634543      -0.23670170
Cu       0.00000000       7.70039285      14.49986800       0.00000000       0.00000000       0.00000000      -0.07841858       0.00020544      -0.23319078      -0.09321031      -0.00242009      -0.32324409
Cu       4.19156295       1.28339881      13.74989000       0.00000000       0.00000000       0.00000000      -0.04401218       0.00087082      -0.12751483      -0.09950170       0.00459252       0.02390041
Cu       4.19156295       3.85019642      13.74989000       0.00000000       0.00000000       0.00000000      -0.04499185      -0.00104151      -0.12463264      -0.07776105      -0.03113442      -0.03436915
Cu       4.19156295       6.41699404      13.74989000       0.00000000       0.00000000       0.00000000      -0.04595640       0.00070768      -0.12530437      -0.06578149       0.00572682      -0.02157151
Cu       4.19156295       8.98379165      13.74989000       0.00000000       0.00000000       0.00000000      -0.04433637      -0.00060256      -0.12767009      -0.06572516       0.01834119      -0.04815690
Cu       2.09578148       0.00000000      12.99991200       0.00000000       0.00000000       0.00000000      -0.07822369       0.00001504       0.16954259      -0.04611432       0.00217741       0.19341149
Cu       2.09578148       2.56679762      12.99991200       0.00000000       0.00000000       0.00000000      -0.07930530       0.00002612       0.17075797      -0.06171003       0.01376853       0.23418130
Cu       2.09578148       5.13359523      12.99991200       0.00000000       0.00000000       0.00000000      -0.08149751       0.00014622       0.17001056      -0.08885766      -0.02583656       0.26022442
Cu       2.09578148       7.70039285      12.99991200       0.00000000       0.00000000       0.00000000      -0.08028805      -0.00008474       0.16792623      -0.10299683       0.01044426       0.26597960
Cu      -0.00000000       1.28339881      12.24993400       0.00000000       0.00000000       0.00000000       0.11790950      -0.00030574       0.43623852       0.11138724      -0.00543768       0.68275171
Cu      -0.00000000       3.85019642      12.24993400       0.00000000       0.00000000       0.00000000       0.11789996       0.00084411       0.43603460       0.10703346       0.01655486       0.74048976
Cu      -0.00000000       6.41699404      12.24993400       0.00000000       0.00000000       0.00000000       0.11771568       0.00033151       0.43674773       0.11268006      -0.00931280       0.72035483
Cu      -0.00000000       8.98379165      12.24993400       0.00000000       0.00000000       0.00000000       0.11774150      -0.00094163       0.43702592       0.12396186       0.00113195       0.68263536
O        4.29865238       5.12772746      19.51780963       0.01700391      -0.00673137       0.04998514       0.00646220      -0.03106808       0.00948445       0.12766698      -0.02158121       0.13950710
C        3.64175530       8.67126913      19.74408060      -0.02775782       0.00783473       0.12374203       0.00145617      -0.01160697       0.04851044      -0.23427990      -0.21859538      -0.25710588
H        5.22139796       5.11616716      19.82991488       0.02227114      -0.00195458       0.00856553       0.00139965      -0.02412027      -0.02015204       0.28136936       0.21087216       1.10052799
O        3.49117106       8.66966925      20.89584862      -0.08612048      -0.02084077       0.06029306       0.00672406       0.00470636       0.05097493       0.05734416       0.00582559       0.11993943
40
Lattice="6.2873444314750255 0.0 0.0 0.0 10.26719046282867 0.0 0.0 0.0 28.249757996450562" Properties=species:S:1:pos:R:3:MACE_forces:R:3:forces:R:3:DFT_forces:R:3 adsorbate_info="_JSON {\"top layer atom index\": 0, \"sites\": {}}" method=neb MACE_energy=-161.31044068576014 energy=-161.29518959014217 stress="0.007046669745975515 -5.081940709053173e-06 -2.8341301429322483e-05 -5.081940709053173e-06 0.008150504215825277 0.00014417181696233446 -2.8341301429322483e-05 0.00014417181696233446 0.0014519238666479957" free_energy=-161.29518959014217 DFT_energy=-163.43954009 pbc="T T T"
Cu       4.10124769       1.28272530      18.08505821      -0.00809011      -0.00364728       0.14598150      -0.00655368       0.00987067       0.14676571       0.06079867       0.00498796      -0.12703557
Cu       4.12455341       3.79000585      18.13807116      -0.01381562      -0.00415620       0.14939737      -0.00849748      -0.00975303       0.14360010      -0.03539337      -0.06378573      -0.10197662
Cu       4.14625584       6.47611811      18.13368670       0.00028438      -0.00816978       0.14457180      -0.00932419       0.00818123       0.14051927      -0.01644934      -0.06958063      -0.04418810
Cu       4.16084933       9.00821833      18.06589387      -0.01400100       0.00286339       0.21177525      -0.00333753      -0.00521405       0.16530096       0.09108877       0.11470983      -0.54412507
Cu       2.04874405      10.26743534      17.41267085       0.00325300       0.00393246       0.12224173       0.00524779       0.00953182       0.13054977      -0.10964290       0.13103655      -0.11580096
Cu       2.04916347       2.56800776      17.39351641       0.00094722       0.00195283       0.13052028       0.00578190      -0.00050047       0.13574989      -0.00747388      -0.01584469       0.00239276
Cu       2.02814345       5.13601471      17.36517734       0.00446983      -0.00531195       0.12430853       0.00082278      -0.00629671       0.12543010      -0.02557829       0.02117947      -0.03193143
Cu       2.05726844       7.71012124      17.42904014       0.00274249       0.00124486       0.12064975       0.00273760       0.00679402       0.12253414      -0.18620295      -0.14243657      -0.27372968
Cu       6.26883729       1.27947539      16.72913469      -0.00165264       0.00293143       0.10241899      -0.00189632       0.00325088       0.10749546       0.00876356       0.01734617      -0.00897974
Cu       6.26544211       3.84143370      16.71004668      -0.00162870      -0.00003563       0.09757032      -0.00209162      -0.00290750       0.10428321       0.08582209      -0.00865047      -0.05186502
Cu       6.27357885       6.42718666      16.71089987       0.00577913       0.00456641       0.08843258       0.00233948      -0.00227907       0.09118126       0.03925348       0.04118362      -0.05862280
Cu       6.28855179       8.98649003      16.70400845      -0.02512470       0.00424038       0.11456485       0.00136989       0.00873066       0.09511712      -0.04946251      -0.02709278       0.02761554
Cu       4.19156295       0.00000000      15.99982400       0.00000000       0.00000000       0.00000000       0.07701543      -0.01228276      -0.39741454       0.14136209      -0.04836317      -0.48147477
Cu       4.19156295       2.56679762      15.99982400       0.00000000       0.00000000       0.00000000       0.06079125       0.02260139      -0.48390274       0.07997099       0.16918353      -0.24995436
Cu       4.19156295       5.13359523      15.99982400       0.00000000       0.00000000       0.00000000       0.06161371       0.02956463      -0.34893328       0.10304584       0.02471866      -0.27210762
Cu       4.19156295       7.70039285      15.99982400       0.00000000       0.00000000       0.00000000       0.08823876       0.01395026      -0.20936861       0.10792848      -0.13252139      -0.39323454
Cu       2.09578148       1.28339881      15.24984600       0.00000000       0.00000000       0.00000000      -0.00300318       0.00259424      -0.31174978      -0.02387107      -0.05829659      -0.28499515
Cu       2.09578148       3.85019642      15.24984600       0.00000000       0.00000000       0.00000000      -0.00920874      -0.00854497      -0.31767027       0.05104117      -0.03681135      -0.30294854
Cu       2.09578148       6.41699404      15.24984600       0.00000000       0.00000000       0.00000000       0.02946652       0.00743201      -0.29188558       0.06156104       0.09005667      -0.20664786
Cu       2.09578148       8.98379165      15.24984600       0.00000000       0.00000000       0.00000000       0.02264743      -0.00868581      -0.29977313       0.04988540       0.01711195      -0.19686269
Cu       0.00000000       0.00000000      14.49986800       0.00000000       0.00000000       0.00000000      -0.07379243       0.00916075      -0.21769639      -0.10989995       0.02919136      -0.25588652
Cu       0.00000000       2.56679762      14.49986800       0.00000000       0.00000000       0.00000000      -0.07617192      -0.00172173      -0.19074166      -0.14500119      -0.05800474      -0.22942214
Cu       0.00000000       5.13359523      14.49986800       0.00000000       0.00000000       0.00000000      -0.07447422      -0.01155827      -0.21418018      -0.14302836       0.02653387      -0.23576030
Cu       0.00000000       7.70039285      14.49986800       0.00000000       0.00000000       0.00000000      -0.07841858       0.00020544      -0.23319078      -0.09220114      -0.00273846      -0.32800383
Cu       4.19156295       1.28339881      13.74989000       0.00000000       0.00000000       0.00000000      -0.04401218       0.00087082      -0.12751483      -0.09891649       0.00554050       0.02434867
Cu       4.19156295       3.85019642      13.74989000       0.00000000       0.00000000       0.00000000      -0.04499185      -0.00104151      -0.12463264      -0.07812650      -0.03086623      -0.03525562
Cu       4.19156295       6.41699404      13.74989000       0.00000000       0.00000000       0.00000000      -0.04595640       0.00070768      -0.12530437      -0.06483074       0.00363928      -0.02397320
Cu       4.19156295       8.98379165      13.74989000       0.00000000       0.00000000       0.00000000      -0.04433637      -0.00060256      -0.12767009      -0.06512696       0.01920791      -0.04642012
Cu       2.09578148       0.00000000      12.99991200       0.00000000       0.00000000       0.00000000      -0.07822369       0.00001504       0.16954259      -0.04723438       0.00083687       0.19214941
Cu       2.09578148       2.56679762      12.99991200       0.00000000       0.00000000       0.00000000      -0.07930530       0.00002612       0.17075797      -0.06081932       0.01566941       0.23243919
Cu       2.09578148       5.13359523      12.99991200       0.00000000       0.00000000       0.00000000      -0.08149751       0.00014622       0.17001056      -0.09011275      -0.02871822       0.26022694
Cu       2.09578148       7.70039285      12.99991200       0.00000000       0.00000000       0.00000000      -0.08028805      -0.00008474       0.16792623      -0.10379024       0.01208202       0.26562901
Cu      -0.00000000       1.28339881      12.24993400       0.00000000       0.00000000       0.00000000       0.11790950      -0.00030574       0.43623852       0.11209365      -0.00597108       0.68356464
Cu      -0.00000000       3.85019642      12.24993400       0.00000000       0.00000000       0.00000000       0.11789996       0.00084411       0.43603460       0.10803114       0.01741648       0.73973198
Cu      -0.00000000       6.41699404      12.24993400       0.00000000       0.00000000       0.00000000       0.11771568       0.00033151       0.43674773       0.11287214      -0.00923344       0.72043024
Cu      -0.00000000       8.98379165      12.24993400       0.00000000       0.00000000       0.00000000       0.11774150      -0.00094163       0.43702592       0.12412267       0.00048867       0.68287097
O        4.29772380       5.12623542      19.51893720       0.01804749      -0.00668755       0.05117861       0.00646220      -0.03106808       0.00948445       0.12998730      -0.01572037       0.13977230
C        3.57944179       8.63485336      19.71636877      -0.03394441       0.00111944       0.12052091       0.00145617      -0.01160697       0.04851044      -0.25852653      -0.24118431      -0.23066800
H        5.22074146       5.11460659      19.83034814       0.02322248      -0.00275666       0.00979659       0.00139965      -0.02412027      -0.02015204       0.28787432       0.22924468       1.04004230
O        3.40738489       8.64008275      20.86548807      -0.09730580      -0.02727981       0.05686272       0.00672406       0.00470636       0.05097493       0.05618604       0.00445476       0.12065632
40
Lattice="6.2873444314750255 0.0 0.0 0.0 10.26719046282867 0.0 0.0 0.0 28.249757996450562" Properties=species:S:1:pos:R:3:MACE_forces:R:3:forces:R:3:DFT_forces:R:3 adsorbate_info="_JSON {\"top layer atom index\": 0, \"sites\": {}}" method=neb MACE_energy=-161.3174281616611 energy=-161.29518959014217 stress="0.007046669745975515 -5.081940709053173e-06 -2.8341301429322483e-05 -5.081940709053173e-06 0.008150504215825277 0.00014417181696233446 -2.8341301429322483e-05 0.00014417181696233446 0.0014519238666479957" free_energy=-161.29518959014217 DFT_energy=-163.41776158 pbc="T T T"
Cu       4.10175072       1.28552173      18.08427676      -0.00672060      -0.00285638       0.14565892      -0.00655368       0.00987067       0.14676571       0.06146807      -0.00740083      -0.12051695
Cu       4.12385845       3.79085326      18.13767407      -0.01358523      -0.00328820       0.14921185      -0.00849748      -0.00975303       0.14360010      -0.03272160      -0.06525844      -0.10173350
Cu       4.14722461       6.47664029      18.13536111       0.00329314      -0.00773587       0.14530355      -0.00932419       0.00818123       0.14051927      -0.01693482      -0.06661854      -0.03547306
Cu       4.16823696       9.01099107      18.06448382      -0.01284989       0.00329168       0.20745544      -0.00333753      -0.00521405       0.16530096       0.08513763       0.10861362      -0.50081090
Cu       2.05005272      10.26763065      17.41392717       0.00463059       0.00515964       0.12274302       0.00524779       0.00953182       0.13054977      -0.10429609       0.13718080      -0.11484197
Cu       2.04868052       2.56812326      17.39343477       0.00123317       0.00294995       0.13041676       0.00578190      -0.00050047       0.13574989      -0.00770881      -0.01265545       0.00206235
Cu       2.02790579       5.13663846      17.36496227       0.00554616      -0.00480046       0.12421701       0.00082278      -0.00629671       0.12543010      -0.02345288       0.02059975      -0.03096607
Cu       2.05881766       7.71190780      17.43438804       0.00468312       0.00204338       0.12313255       0.00273760       0.00679402       0.12253414      -0.18680465      -0.14480489      -0.27035511
Cu       6.26889899       1.27877734      16.72961804      -0.00111244       0.00284244       0.10254720      -0.00189632       0.00325088       0.10749546       0.01194998       0.02082290      -0.00929564
Cu       6.26530797       3.84139867      16.71002506      -0.00135500       0.00058520       0.09760662      -0.00209162      -0.00290750       0.10428321       0.08468548      -0.00816808      -0.05123504
Cu       6.27414146       6.42804404      16.71188157       0.00701412       0.00545027       0.08860720       0.00233948      -0.00227907       0.09118126       0.03939375       0.04322704      -0.05715424
Cu       6.29067438       8.98657651      16.70338219      -0.02498518       0.00458733       0.11531144       0.00136989       0.00873066       0.09511712      -0.05660109      -0.02839758       0.03172964
Cu       4.19156295       0.00000000      15.99982400       0.00000000       0.00000000       0.00000000       0.07701543      -0.01228276      -0.39741454       0.14424314      -0.04162291      -0.48963126
Cu       4.19156295       2.56679762      15.99982400       0.00000000       0.00000000       0.00000000       0.06079125       0.02260139      -0.48390274       0.07904372       0.17435713      -0.25616501
Cu       4.19156295       5.13359523      15.99982400       0.00000000       0.00000000       0.00000000       0.06161371       0.02956463      -0.34893328       0.10480735       0.03166306      -0.26737595
Cu       4.19156295       7.70039285      15.99982400       0.00000000       0.00000000       0.00000000       0.08823876       0.01395026      -0.20936861       0.11279991      -0.14102380      -0.40754981
Cu       2.09578148       1.28339881      15.24984600       0.00000000       0.00000000       0.00000000      -0.00300318       0.00259424      -0.31174978      -0.02420938      -0.05980786      -0.28198963
Cu       2.09578148       3.85019642      15.24984600       0.00000000       0.00000000       0.00000000      -0.00920874      -0.00854497      -0.31767027       0.05063796      -0.03693957      -0.30332173
Cu       2.09578148       6.41699404      15.24984600       0.00000000       0.00000000       0.00000000       0.02946652       0.00743201      -0.29188558       0.06351914       0.09949987      -0.19497288
Cu       2.09578148       8.98379165      15.24984600       0.00000000       0.00000000       0.00000000       0.02264743      -0.00868581      -0.29977313       0.05342584       0.01379488      -0.19008939
Cu       0.00000000       0.00000000      14.49986800       0.00000000       0.00000000       0.00000000      -0.07379243       0.00916075      -0.21769639      -0.10989170       0.02986857      -0.25827788
Cu       0.00000000       2.56679762      14.49986800       0.00000000       0.00000000       0.00000000      -0.07617192      -0.00172173      -0.19074166      -0.14479779      -0.06006084      -0.22761644
Cu       0.00000000       5.13359523      14.49986800       0.00000000       0.00000000       0.00000000      -0.07447422      -0.01155827      -0.21418018      -0.14184040       0.02679751      -0.23452038
Cu       0.00000000       7.70039285      14.49986800       0.00000000       0.00000000       0.00000000      -0.07841858       0.00020544      -0.23319078      -0.09128743      -0.00287745      -0.33249640
Cu       4.19156295       1.28339881      13.74989000       0.00000000       0.00000000       0.00000000      -0.04401218       0.00087082      -0.12751483      -0.09840091       0.00714016       0.02474656
Cu       4.19156295       3.85019642      13.74989000       0.00000000       0.00000000       0.00000000      -0.04499185      -0.00104151      -0.12463264      -0.07858668      -0.03040444      -0.03599855
Cu       4.19156295       6.41699404      13.74989000       0.00000000       0.00000000       0.00000000      -0.04595640       0.00070768      -0.12530437      -0.06391559       0.00188071      -0.02609035
Cu       4.19156295       8.98379165      13.74989000       0.00000000       0.00000000       0.00000000      -0.04433637      -0.00060256      -0.12767009      -0.06465780       0.02027707      -0.04395811
Cu       2.09578148       0.00000000      12.99991200       0.00000000       0.00000000       0.00000000      -0.07822369       0.00001504       0.16954259      -0.04858424      -0.00033592       0.19134629
Cu       2.09578148       2.56679762      12.99991200       0.00000000       0.00000000       0.00000000      -0.07930530       0.00002612       0.17075797      -0.06010895       0.01775693       0.23103827
Cu       2.09578148       5.13359523      12.99991200       0.00000000       0.00000000       0.00000000      -0.08149751       0.00014622       0.17001056      -0.09148098      -0.03137795       0.26058858
Cu       2.09578148       7.70039285      12.99991200       0.00000000       0.00000000       0.00000000      -0.08028805      -0.00008474       0.16792623      -0.10474316       0.01394111       0.26560039
Cu      -0.00000000       1.28339881      12.24993400       0.00000000       0.00000000       0.00000000       0.11790950      -0.00030574       0.43623852       0.11284666      -0.00609639       0.68459821
Cu      -0.00000000       3.85019642      12.24993400       0.00000000       0.00000000       0.00000000       0.11789996       0.00084411       0.43603460       0.10914157       0.01846100       0.73904729
Cu      -0.00000000       6.41699404      12.24993400       0.00000000       0.00000000       0.00000000       0.11771568       0.00033151       0.43674773       0.11300842      -0.00874699       0.72071355
Cu      -0.00000000       8.98379165      12.24993400       0.00000000       0.00000000       0.00000000       0.11774150      -0.00094163       0.43702592       0.12408003      -0.00001173       0.68319661
O        4.29689376       5.12457845      19.52008338       0.01919983      -0.00680256       0.05253711       0.00646220      -0.03106808       0.00948445       0.13164519      -0.00865340       0.13860209
C        3.51653061       8.59721346      19.68600471      -0.04350143      -0.01056291       0.11384239       0.00145617      -0.01160697       0.04851044      -0.27965934      -0.26711947      -0.20865608
H        5.22019084       5.11308001      19.83078117       0.02433786      -0.00363180       0.01098222       0.00139965      -0.02412027      -0.02015204       0.29375753       0.23964451       0.95633100
O        3.32599324       8.61126160      20.83264237      -0.10818979      -0.03418349       0.05204473       0.00672406       0.00470636       0.05097493       0.05509293       0.00285590       0.12149150
40
Lattice="6.2873444314750255 0.0 0.0 0.0 10.26719046282867 0.0 0.0 0.0 28.249757996450562" Properties=species:S:1:pos:R:3:MACE_forces:R:3:forces:R:3:DFT_forces:R:3 adsorbate_info="_JSON {\"top layer atom index\": 0, \"sites\": {}}" method=neb MACE_energy=-161.3268934613721 energy=-161.29518959014217 stress="0.007046669745975515 -5.081940709053173e-06 -2.8341301429322483e-05 -5.081940709053173e-06 0.008150504215825277 0.00014417181696233446 -2.8341301429322483e-05 0.00014417181696233446 0.0014519238666479957" free_energy=-161.29518959014217 DFT_energy=-163.39564402 pbc="T T T"
Cu       4.10234714       1.28833050      18.08356534      -0.00525416      -0.00163422       0.14535424      -0.00655368       0.00987067       0.14676571       0.06122613      -0.02076158      -0.11323374
Cu       4.12321476       3.79166731      18.13723641      -0.01324405      -0.00206461       0.14895543      -0.00849748      -0.00975303       0.14360010      -0.02960883      -0.06673268      -0.10112779
Cu       4.14793865       6.47751180      18.13747858       0.00577939      -0.00569778       0.14765685      -0.00932419       0.00818123       0.14051927      -0.01623931      -0.06423590      -0.02705252
Cu       4.17616908       9.01417799      18.06372651      -0.00963497       0.00484270       0.20084024      -0.00333753      -0.00521405       0.16530096       0.07589233       0.09750734      -0.44541050
Cu       2.05125130      10.26793878      17.41495850       0.00670149       0.00663040       0.12356395       0.00524779       0.00953182       0.13054977      -0.09706805       0.14330221      -0.11192855
Cu       2.04824254       2.56821839      17.39335464       0.00146718       0.00404177       0.13027925       0.00578190      -0.00050047       0.13574989      -0.00801446      -0.00945096       0.00186680
Cu       2.02767377       5.13721694      17.36466071       0.00673336      -0.00400151       0.12414298       0.00082278      -0.00629671       0.12543010      -0.02155722       0.01993475      -0.02974652
Cu       2.06055801       7.71389744      17.44062301       0.00775761       0.00364128       0.12798528       0.00273760       0.00679402       0.12253414      -0.18417143      -0.14329703      -0.25386387
Cu       6.26894879       1.27809734      16.73008037      -0.00066546       0.00262668       0.10273562      -0.00189632       0.00325088       0.10749546       0.01509181       0.02390542      -0.00947237
Cu       6.26518329       3.84135884      16.70998701      -0.00100272       0.00123496       0.09759663      -0.00209162      -0.00290750       0.10428321       0.08348207      -0.00800207      -0.05051569
Cu       6.27475461       6.42898547      16.71288588       0.00827681       0.00653990       0.08916932       0.00233948      -0.00227907       0.09118126       0.03827113       0.04490176      -0.05476261
Cu       6.29287907       8.98659598      16.70281542      -0.02462006       0.00487166       0.11575136       0.00136989       0.00873066       0.09511712      -0.06258560      -0.03063381       0.03461580
Cu       4.19156295       0.00000000      15.99982400       0.00000000       0.00000000       0.00000000       0.07701543      -0.01228276      -0.39741454       0.14632778      -0.03477230      -0.49803685
Cu       4.19156295       2.56679762      15.99982400       0.00000000       0.00000000       0.00000000       0.06079125       0.02260139      -0.48390274       0.07787981       0.17916921      -0.26231193
Cu       4.19156295       5.13359523      15.99982400       0.00000000       0.00000000       0.00000000       0.06161371       0.02956463      -0.34893328       0.10647553       0.03967289      -0.26160701
Cu       4.19156295       7.70039285      15.99982400       0.00000000       0.00000000       0.00000000       0.08823876       0.01395026      -0.20936861       0.11747273      -0.14883111      -0.41997870
Cu       2.09578148       1.28339881      15.24984600       0.00000000       0.00000000       0.00000000      -0.00300318       0.00259424      -0.31174978      -0.02492284      -0.06086667      -0.27940153
Cu       2.09578148       3.85019642      15.24984600       0.00000000       0.00000000       0.00000000      -0.00920874      -0.00854497      -0.31767027       0.05000981      -0.03727778      -0.30379659
Cu       2.09578148       6.41699404      15.24984600       0.00000000       0.00000000       0.00000000       0.02946652       0.00743201      -0.29188558       0.06560360       0.10997640      -0.18188491
Cu       2.09578148       8.98379165      15.24984600       0.00000000       0.00000000       0.00000000       0.02264743      -0.00868581      -0.29977313       0.05675219       0.00932686      -0.18287189
Cu       0.00000000       0.00000000      14.49986800       0.00000000       0.00000000       0.00000000      -0.07379243       0.00916075      -0.21769639      -0.11063153       0.03033877      -0.25997743
Cu       0.00000000       2.56679762      14.49986800       0.00000000       0.00000000       0.00000000      -0.07617192      -0.00172173      -0.19074166      -0.14453166      -0.06224322      -0.22616965
Cu       0.00000000       5.13359523      14.49986800       0.00000000       0.00000000       0.00000000      -0.07447422      -0.01155827      -0.21418018      -0.14080728       0.02674587      -0.23323006
Cu       0.00000000       7.70039285      14.49986800       0.00000000       0.00000000       0.00000000      -0.07841858       0.00020544      -0.23319078      -0.09076206      -0.00315540      -0.33710908
Cu       4.19156295       1.28339881      13.74989000       0.00000000       0.00000000       0.00000000      -0.04401218       0.00087082      -0.12751483      -0.09804979       0.00913718       0.02479265
Cu       4.19156295       3.85019642      13.74989000       0.00000000       0.00000000       0.00000000      -0.04499185      -0.00104151      -0.12463264      -0.07929853      -0.03015460      -0.03647215
Cu       4.19156295       6.41699404      13.74989000       0.00000000       0.00000000       0.00000000      -0.04595640       0.00070768      -0.12530437      -0.06317646       0.00020996      -0.02839776
Cu       4.19156295       8.98379165      13.74989000       0.00000000       0.00000000       0.00000000      -0.04433637      -0.00060256      -0.12767009      -0.06434595       0.02111569      -0.04075372
Cu       2.09578148       0.00000000      12.99991200       0.00000000       0.00000000       0.00000000      -0.07822369       0.00001504       0.16954259      -0.05020712      -0.00149819       0.19045619
Cu       2.09578148       2.56679762      12.99991200       0.00000000       0.00000000       0.00000000      -0.07930530       0.00002612       0.17075797      -0.05968206       0.01942380       0.22949857
Cu       2.09578148       5.13359523      12.99991200       0.00000000       0.00000000       0.00000000      -0.08149751       0.00014622       0.17001056      -0.09318837      -0.03413744       0.26115219
Cu       2.09578148       7.70039285      12.99991200       0.00000000       0.00000000       0.00000000      -0.08028805      -0.00008474       0.16792623      -0.10611918       0.01559920       0.26575148
Cu      -0.00000000       1.28339881      12.24993400       0.00000000       0.00000000       0.00000000       0.11790950      -0.00030574       0.43623852       0.11351101      -0.00613703       0.68595754
Cu      -0.00000000       3.85019642      12.24993400       0.00000000       0.00000000       0.00000000       0.11789996       0.00084411       0.43603460       0.11029582       0.01921606       0.73835602
Cu      -0.00000000       6.41699404      12.24993400       0.00000000       0.00000000       0.00000000       0.11771568       0.00033151       0.43674773       0.11287743      -0.00816028       0.72104021
Cu      -0.00000000       8.98379165      12.24993400       0.00000000       0.00000000       0.00000000       0.11774150      -0.00094163       0.43702592       0.12384237      -0.00090284       0.68368151
O        4.29616691       5.12273537      19.52123213       0.02044597      -0.00721866       0.05400419       0.00646220      -0.03106808       0.00948445       0.13207716      -0.00075215       0.13974354
C        3.45279156       8.55863554      19.65309635      -0.05657548      -0.02817049       0.10007438       0.00145617      -0.01160697       0.04851044      -0.29663999      -0.28484983      -0.17690123
H        5.21974151       5.11158285      19.83121667       0.02559006      -0.00460983       0.01208358       0.00139965      -0.02412027      -0.02015204       0.30055287       0.24661738       0.82685365
O        3.24732404       8.58328962      20.79764796      -0.11835533      -0.04111579       0.04613240       0.00672406       0.00470636       0.05097493       0.05396613       0.00075214       0.12224851
40
Lattice="6.2873444314750255 0.0 0.0 0.0 10.26719046282867 0.0 0.0 0.0 28.249757996450562" Properties=species:S:1:pos:R:3:MACE_forces:R:3:forces:R:3:DFT_forces:R:3 adsorbate_info="_JSON {\"top layer atom index\": 0, \"sites\": {}}" method=neb MACE_energy=-161.3397337221243 energy=-161.29518959014217 stress="0.007046669745975515 -5.081940709053173e-06 -2.8341301429322483e-05 -5.081940709053173e-06 0.008150504215825277 0.00014417181696233446 -2.8341301429322483e-05 0.00014417181696233446 0.0014519238666479957" free_energy=-161.29518959014217 DFT_energy=-163.37488871 pbc="T T T"
Cu       4.10301512       1.29106019      18.08294149      -0.00373912      -0.00025903       0.14519289      -0.00655368       0.00987067       0.14676571       0.06090301      -0.03304288      -0.10717607
Cu       4.12262386       3.79238743      18.13676216      -0.01277024      -0.00068381       0.14866009      -0.00849748      -0.00975303       0.14360010      -0.02544690      -0.06837022      -0.09983595
Cu       4.14843621       6.47839649      18.13974866       0.00731964      -0.00170824       0.15194102      -0.00932419       0.00818123       0.14051927      -0.01460888      -0.06203997      -0.01947055
Cu       4.18448814       9.01766859      18.06367540      -0.00600645       0.00623956       0.19663641      -0.00333753      -0.00521405       0.16530096       0.06327758       0.08292453      -0.38259648
Cu       2.05231517      10.26835739      17.41573616       0.00945829       0.00829466       0.12471770       0.00524779       0.00953182       0.13054977      -0.08743616       0.14887972      -0.10685636
Cu       2.04785215       2.56828214      17.39327243       0.00164166       0.00514618       0.13009717       0.00578190      -0.00050047       0.13574989      -0.00852865      -0.00616642       0.00174735
Cu       2.02742322       5.13768592      17.36425702       0.00798709      -0.00299592       0.12405015       0.00082278      -0.00629671       0.12543010      -0.01974669       0.01992574      -0.02862908
Cu       2.06250092       7.71606485      17.44800303       0.01303784       0.00665655       0.13765450       0.00273760       0.00679402       0.12253414      -0.17668577      -0.13462706      -0.22158460
Cu       6.26898970       1.27746020      16.73049995      -0.00032206       0.00227820       0.10297108      -0.00189632       0.00325088       0.10749546       0.01825674       0.02842522      -0.00982369
Cu       6.26505792       3.84131100      16.70993142      -0.00059811       0.00190662       0.09753561      -0.00209162      -0.00290750       0.10428321       0.08215881      -0.00802166      -0.04960934
Cu       6.27545772       6.43000618      16.71383463       0.00975719       0.00790326       0.09002825       0.00233948      -0.00227907       0.09118126       0.03685320       0.04674904      -0.05200325
Cu       6.29510672       8.98653408      16.70226860      -0.02395839       0.00499514       0.11589867       0.00136989       0.00873066       0.09511712      -0.06699790      -0.03291696       0.03766509
Cu       4.19156295       0.00000000      15.99982400       0.00000000       0.00000000       0.00000000       0.07701543      -0.01228276      -0.39741454       0.14784669      -0.02792485      -0.50655171
Cu       4.19156295       2.56679762      15.99982400       0.00000000       0.00000000       0.00000000       0.06079125       0.02260139      -0.48390274       0.07693395       0.18354620      -0.26812302
Cu       4.19156295       5.13359523      15.99982400       0.00000000       0.00000000       0.00000000       0.06161371       0.02956463      -0.34893328       0.10832184       0.04840943      -0.25573704
Cu       4.19156295       7.70039285      15.99982400       0.00000000       0.00000000       0.00000000       0.08823876       0.01395026      -0.20936861       0.12224642      -0.15531645      -0.43016931
Cu       2.09578148       1.28339881      15.24984600       0.00000000       0.00000000       0.00000000      -0.00300318       0.00259424      -0.31174978      -0.02556937      -0.06127342      -0.27752335
Cu       2.09578148       3.85019642      15.24984600       0.00000000       0.00000000       0.00000000      -0.00920874      -0.00854497      -0.31767027       0.04955532      -0.03764305      -0.30464123
Cu       2.09578148       6.41699404      15.24984600       0.00000000       0.00000000       0.00000000       0.02946652       0.00743201      -0.29188558       0.06830085       0.12188164      -0.16738303
Cu       2.09578148       8.98379165      15.24984600       0.00000000       0.00000000       0.00000000       0.02264743      -0.00868581      -0.29977313       0.06021333       0.00360011      -0.17519886
Cu       0.00000000       0.00000000      14.49986800       0.00000000       0.00000000       0.00000000      -0.07379243       0.00916075      -0.21769639      -0.11167610       0.03081451      -0.26130695
Cu       0.00000000       2.56679762      14.49986800       0.00000000       0.00000000       0.00000000      -0.07617192      -0.00172173      -0.19074166      -0.14371971      -0.06441725      -0.22557801
Cu       0.00000000       5.13359523      14.49986800       0.00000000       0.00000000       0.00000000      -0.07447422      -0.01155827      -0.21418018      -0.13948179       0.02651365      -0.23224997
Cu       0.00000000       7.70039285      14.49986800       0.00000000       0.00000000       0.00000000      -0.07841858       0.00020544      -0.23319078      -0.09013635      -0.00341580      -0.34225810
Cu       4.19156295       1.28339881      13.74989000       0.00000000       0.00000000       0.00000000      -0.04401218       0.00087082      -0.12751483      -0.09754718       0.01177889       0.02424658
Cu       4.19156295       3.85019642      13.74989000       0.00000000       0.00000000       0.00000000      -0.04499185      -0.00104151      -0.12463264      -0.08001311      -0.03019553      -0.03706992
Cu       4.19156295       6.41699404      13.74989000       0.00000000       0.00000000       0.00000000      -0.04595640       0.00070768      -0.12530437      -0.06235659      -0.00089707      -0.03052552
Cu       4.19156295       8.98379165      13.74989000       0.00000000       0.00000000       0.00000000      -0.04433637      -0.00060256      -0.12767009      -0.06400122       0.02178772      -0.03698978
Cu       2.09578148       0.00000000      12.99991200       0.00000000       0.00000000       0.00000000      -0.07822369       0.00001504       0.16954259      -0.05171264      -0.00239901       0.18949848
Cu       2.09578148       2.56679762      12.99991200       0.00000000       0.00000000       0.00000000      -0.07930530       0.00002612       0.17075797      -0.05936062       0.02091230       0.22812211
Cu       2.09578148       5.13359523      12.99991200       0.00000000       0.00000000       0.00000000      -0.08149751       0.00014622       0.17001056      -0.09484370      -0.03663189       0.26164747
Cu       2.09578148       7.70039285      12.99991200       0.00000000       0.00000000       0.00000000      -0.08028805      -0.00008474       0.16792623      -0.10756255       0.01716338       0.26583012
Cu      -0.00000000       1.28339881      12.24993400       0.00000000       0.00000000       0.00000000       0.11790950      -0.00030574       0.43623852       0.11452444      -0.00584587       0.68731472
Cu      -0.00000000       3.85019642      12.24993400       0.00000000       0.00000000       0.00000000       0.11789996       0.00084411       0.43603460       0.11179062       0.01981923       0.73730669
Cu      -0.00000000       6.41699404      12.24993400       0.00000000       0.00000000       0.00000000       0.11771568       0.00033151       0.43674773       0.11300349      -0.00715637       0.72122740
Cu      -0.00000000       8.98379165      12.24993400       0.00000000       0.00000000       0.00000000       0.11774150      -0.00094163       0.43702592       0.12374798      -0.00193687       0.68392873
O        4.29553291       5.12069088      19.52235897       0.02179592      -0.00803731       0.05545949       0.00646220      -0.03106808       0.00948445       0.13231500       0.00732273       0.13943343
C        3.38811845       8.51986749      19.61761156      -0.07170710      -0.05022368       0.07074716       0.00145617      -0.01160697       0.04851044      -0.31201959      -0.30315141      -0.14277474
H        5.21936971       5.11008760      19.83165928       0.02693405      -0.00572788       0.01308274       0.00139965      -0.02412027      -0.02015204       0.29583976       0.24459841       0.67089268
O        3.17114857       8.55600603      20.76059650      -0.12782211      -0.04770057       0.04017581       0.00672406       0.00470636       0.05097493       0.05336243      -0.00166244       0.12280505
40
Lattice="6.2873444314750255 0.0 0.0 0.0 10.26719046282867 0.0 0.0 0.0 28.249757996450562" Properties=species:S:1:pos:R:3:MACE_forces:R:3:forces:R:3:DFT_forces:R:3 adsorbate_info="_JSON {\"top layer atom index\": 0, \"sites\": {}}" method=neb MACE_energy=-161.36508315518606 energy=-161.29518959014217 stress="0.007046669745975515 -5.081940709053173e-06 -2.8341301429322483e-05 -5.081940709053173e-06 0.008150504215825277 0.00014417181696233446 -2.8341301429322483e-05 0.00014417181696233446 0.0014519238666479957" free_energy=-161.29518959014217 DFT_energy=-163.35869781 pbc="T T T"
Cu       4.10233272       1.29551926      18.08122767       0.00267670      -0.00872132       0.14979056      -0.00655368       0.00987067       0.14676571       0.06478442      -0.05948509      -0.09299947
Cu       4.12060729       3.79451481      18.13574263      -0.01182928      -0.00310544       0.14885444      -0.00849748      -0.00975303       0.14360010      -0.02084343      -0.07447238      -0.09595989
Cu       4.15185977       6.47742635      18.14077964       0.00394257       0.00807850       0.16280375      -0.00932419       0.00818123       0.14051927      -0.01557837      -0.05912492      -0.00787557
Cu       4.19187531       9.01761422      18.07507749      -0.00387420       0.01805564       0.18558145      -0.00333753      -0.00521405       0.16530096       0.05660494       0.08732345      -0.33747210
Cu       2.05494174      10.27030608      17.41731010       0.00869357       0.00606572       0.12082988       0.00524779       0.00953182       0.13054977      -0.07864194       0.14788862      -0.10316193
Cu       2.04620295       2.56961231      17.39204544       0.00396735       0.00493875       0.13388503       0.00578190      -0.00050047       0.13574989      -0.00744968      -0.00402897       0.00502706
Cu       2.02731861       5.13998567      17.36339077       0.01010183      -0.00679109       0.12593435       0.00082278      -0.00629671       0.12543010      -0.01790893       0.01507025      -0.02613582
Cu       2.06860502       7.72078560      17.46247864       0.00737276       0.00341337       0.13697526       0.00273760       0.00679402       0.12253414      -0.18042328      -0.12855905      -0.18248318
Cu       6.26875225       1.27617017      16.73075267       0.00191111       0.00460371       0.10358743      -0.00189632       0.00325088       0.10749546       0.02259051       0.03594489      -0.01099558
Cu       6.26448563       3.84207064      16.70949415       0.00023795       0.00298855       0.09881422      -0.00209162      -0.00290750       0.10428321       0.08146935      -0.00827492      -0.04851154
Cu       6.27874591       6.43313754      16.71585886       0.00671512       0.00702688       0.08569190       0.00233948      -0.00227907       0.09118126       0.02893751       0.04602508      -0.05400746
Cu       6.29947420       8.98597630      16.70011412      -0.04241558       0.00808108       0.13355310       0.00136989       0.00873066       0.09511712      -0.08847105      -0.03298546       0.05789199
Cu       4.19156295       0.00000000      15.99982400       0.00000000       0.00000000       0.00000000       0.07701543      -0.01228276      -0.39741454       0.15036215      -0.04644027      -0.47790927
Cu       4.19156295       2.56679762      15.99982400       0.00000000       0.00000000       0.00000000       0.06079125       0.02260139      -0.48390274       0.07606533       0.18988900      -0.27831584
Cu       4.19156295       5.13359523      15.99982400       0.00000000       0.00000000       0.00000000       0.06161371       0.02956463      -0.34893328       0.11368286       0.06100310      -0.25521630
Cu       4.19156295       7.70039285      15.99982400       0.00000000       0.00000000       0.00000000       0.08823876       0.01395026      -0.20936861       0.12992587      -0.14682630      -0.41962251
Cu       2.09578148       1.28339881      15.24984600       0.00000000       0.00000000       0.00000000      -0.00300318       0.00259424      -0.31174978      -0.02678746      -0.06165617      -0.27755478
Cu       2.09578148       3.85019642      15.24984600       0.00000000       0.00000000       0.00000000      -0.00920874      -0.00854497      -0.31767027       0.04891339      -0.03546303      -0.30782810
Cu       2.09578148       6.41699404      15.24984600       0.00000000       0.00000000       0.00000000       0.02946652       0.00743201      -0.29188558       0.07324284       0.14240629      -0.14794867
Cu       2.09578148       8.98379165      15.24984600       0.00000000       0.00000000       0.00000000       0.02264743      -0.00868581      -0.29977313       0.06664213      -0.00642513      -0.16148759
Cu       0.00000000       0.00000000      14.49986800       0.00000000       0.00000000       0.00000000      -0.07379243       0.00916075      -0.21769639      -0.11444223       0.03076372      -0.26334371
Cu       0.00000000       2.56679762      14.49986800       0.00000000       0.00000000       0.00000000      -0.07617192      -0.00172173      -0.19074166      -0.14195210      -0.06674653      -0.22544375
Cu       0.00000000       5.13359523      14.49986800       0.00000000       0.00000000       0.00000000      -0.07447422      -0.01155827      -0.21418018      -0.13791200       0.02719569      -0.23040434
Cu       0.00000000       7.70039285      14.49986800       0.00000000       0.00000000       0.00000000      -0.07841858       0.00020544      -0.23319078      -0.09008667      -0.00569318      -0.35039341
Cu       4.19156295       1.28339881      13.74989000       0.00000000       0.00000000       0.00000000      -0.04401218       0.00087082      -0.12751483      -0.09715654       0.01413361       0.02253720
Cu       4.19156295       3.85019642      13.74989000       0.00000000       0.00000000       0.00000000      -0.04499185      -0.00104151      -0.12463264      -0.08062041      -0.03020576      -0.03765555
Cu       4.19156295       6.41699404      13.74989000       0.00000000       0.00000000       0.00000000      -0.04595640       0.00070768      -0.12530437      -0.06177371      -0.00119854      -0.03367418
Cu       4.19156295       8.98379165      13.74989000       0.00000000       0.00000000       0.00000000      -0.04433637      -0.00060256      -0.12767009      -0.06406270       0.02148101      -0.03181583
Cu       2.09578148       0.00000000      12.99991200       0.00000000       0.00000000       0.00000000      -0.07822369       0.00001504       0.16954259      -0.05302022      -0.00329820       0.18782710
Cu       2.09578148       2.56679762      12.99991200       0.00000000       0.00000000       0.00000000      -0.07930530       0.00002612       0.17075797      -0.05970737       0.02102057       0.22595700
Cu       2.09578148       5.13359523      12.99991200       0.00000000       0.00000000       0.00000000      -0.08149751       0.00014622       0.17001056      -0.09682153      -0.03940023       0.26170790
Cu       2.09578148       7.70039285      12.99991200       0.00000000       0.00000000       0.00000000      -0.08028805      -0.00008474       0.16792623      -0.10903974       0.01815211       0.26564178
Cu      -0.00000000       1.28339881      12.24993400       0.00000000       0.00000000       0.00000000       0.11790950      -0.00030574       0.43623852       0.11565495      -0.00552454       0.68823426
Cu      -0.00000000       3.85019642      12.24993400       0.00000000       0.00000000       0.00000000       0.11789996       0.00084411       0.43603460       0.11386743       0.01969599       0.73533324
Cu      -0.00000000       6.41699404      12.24993400       0.00000000       0.00000000       0.00000000       0.11771568       0.00033151       0.43674773       0.11296192      -0.00583415       0.72076117
Cu      -0.00000000       8.98379165      12.24993400       0.00000000       0.00000000       0.00000000       0.11774150      -0.00094163       0.43702592       0.12336640      -0.00390498       0.68339695
O        4.29783504       5.11886485      19.52378761       0.02546754      -0.01306847       0.05735322       0.00646220      -0.03106808       0.00948445       0.13537984       0.01126475       0.13663628
C        3.30922254       8.46954703      19.58499851      -0.10358754      -0.05226853       0.10595741       0.00145617      -0.01160697       0.04851044      -0.27789607      -0.31949790      -0.24120084
H        5.22350174       5.10817444      19.82775100       0.02906590      -0.00829633       0.01838220       0.00139965      -0.02412027      -0.02015204       0.25329729       0.26239821       0.58304431
O        3.06933629       8.52023278      20.72531626      -0.09814680      -0.06328772      -0.10115095       0.00672406       0.00470636       0.05097493       0.05284631      -0.00661066       0.12542097
40
Lattice="6.2873444314750255 0.0 0.0 0.0 10.26719046282867 0.0 0.0 0.0 28.249757996450562" Properties=species:S:1:pos:R:3:MACE_forces:R:3:forces:R:3:DFT_forces:R:3 adsorbate_info="_JSON {\"top layer atom index\": 0, \"sites\": {}}" method=neb MACE_energy=-161.37259743109638 energy=-161.29518959014217 stress="0.007046669745975515 -5.081940709053173e-06 -2.8341301429322483e-05 -5.081940709053173e-06 0.008150504215825277 0.00014417181696233446 -2.8341301429322483e-05 0.00014417181696233446 0.0014519238666479957" free_energy=-161.29518959014217 DFT_energy=-163.34837041 pbc="T T T"
Cu       4.10610770       1.29303696      18.08303917      -0.00702485       0.01351542       0.14050797      -0.00655368       0.00987067       0.14676571       0.04945437      -0.03815055      -0.10590999
Cu       4.12290963       3.79142115      18.13615893      -0.01109228       0.00579234       0.14762945      -0.00849748      -0.00975303       0.14360010      -0.01820111      -0.06684379      -0.09939151
Cu       4.14319759       6.48216007      18.14598778       0.00818465       0.00788242       0.16082315      -0.00932419       0.00818123       0.14051927      -0.00450536      -0.06129672      -0.01708329
Cu       4.19913977       9.02830940      18.05689510       0.00412167      -0.00482574       0.19641145      -0.00333753      -0.00521405       0.16530096       0.06197722       0.04927202      -0.28881683
Cu       2.05144099      10.26655137      17.41508905       0.02088478       0.01557692       0.13512441       0.00524779       0.00953182       0.13054977      -0.06501106       0.16530180      -0.08248270
Cu       2.04875552       2.56633063      17.39433467      -0.00060907       0.00697447       0.12512026       0.00578190      -0.00050047       0.13574989      -0.01475512      -0.00316518      -0.00201563
Cu       2.02593507       5.13463855      17.36325536       0.00899144       0.00426123       0.12080424       0.00082278      -0.00629671       0.12543010      -0.01912032       0.02506332      -0.02735777
Cu       2.05699802       7.71473560      17.45154479       0.04873836       0.02752943       0.19982652       0.00273760       0.00679402       0.12253414      -0.11111571      -0.09320562      -0.08976733
Cu       6.26949961       1.27744788      16.73109724      -0.00256613      -0.00221277       0.10330416      -0.00189632       0.00325088       0.10749546       0.01980650       0.03199789      -0.01179109
Cu       6.26497380       3.83981498      16.71019097      -0.00007415       0.00158577       0.09552373      -0.00209162      -0.00290750       0.10428321       0.07780614      -0.01104663      -0.04994626
Cu       6.27214308       6.42852261      16.71310037       0.01917407       0.01377425       0.09869265       0.00233948      -0.00227907       0.09118126       0.04255208       0.05614230      -0.04004768
Cu       6.29338362       8.98739260      16.70405385       0.00386746      -0.00005951       0.09098736       0.00136989       0.00873066       0.09511712      -0.04400791      -0.04608087       0.01320141
Cu       4.19156295       0.00000000      15.99982400       0.00000000       0.00000000       0.00000000       0.07701543      -0.01228276      -0.39741454       0.14392247       0.00889074      -0.55940234
Cu       4.19156295       2.56679762      15.99982400       0.00000000       0.00000000       0.00000000       0.06079125       0.02260139      -0.48390274       0.07367448       0.18519111      -0.27316277
Cu       4.19156295       5.13359523      15.99982400       0.00000000       0.00000000       0.00000000       0.06161371       0.02956463      -0.34893328       0.10186602       0.05953337      -0.23981067
Cu       4.19156295       7.70039285      15.99982400       0.00000000       0.00000000       0.00000000       0.08823876       0.01395026      -0.20936861       0.12523437      -0.17693497      -0.46406029
Cu       2.09578148       1.28339881      15.24984600       0.00000000       0.00000000       0.00000000      -0.00300318       0.00259424      -0.31174978      -0.02715016      -0.06207659      -0.27380052
Cu       2.09578148       3.85019642      15.24984600       0.00000000       0.00000000       0.00000000      -0.00920874      -0.00854497      -0.31767027       0.04813842      -0.04421974      -0.30684723
Cu       2.09578148       6.41699404      15.24984600       0.00000000       0.00000000       0.00000000       0.02946652       0.00743201      -0.29188558       0.07223003       0.13227347      -0.14993071
Cu       2.09578148       8.98379165      15.24984600       0.00000000       0.00000000       0.00000000       0.02264743      -0.00868581      -0.29977313       0.05806310      -0.00423786      -0.17392800
Cu       0.00000000       0.00000000      14.49986800       0.00000000       0.00000000       0.00000000      -0.07379243       0.00916075      -0.21769639      -0.11426429       0.03142511      -0.26043811
Cu       0.00000000       2.56679762      14.49986800       0.00000000       0.00000000       0.00000000      -0.07617192      -0.00172173      -0.19074166      -0.14187801      -0.06942209      -0.22782159
Cu       0.00000000       5.13359523      14.49986800       0.00000000       0.00000000       0.00000000      -0.07447422      -0.01155827      -0.21418018      -0.13692897       0.02120909      -0.23529104
Cu       0.00000000       7.70039285      14.49986800       0.00000000       0.00000000       0.00000000      -0.07841858       0.00020544      -0.23319078      -0.08933421      -0.00137004      -0.34822792
Cu       4.19156295       1.28339881      13.74989000       0.00000000       0.00000000       0.00000000      -0.04401218       0.00087082      -0.12751483      -0.09703849       0.01894301       0.02170601
Cu       4.19156295       3.85019642      13.74989000       0.00000000       0.00000000       0.00000000      -0.04499185      -0.00104151      -0.12463264      -0.08239233      -0.03205467      -0.03869449
Cu       4.19156295       6.41699404      13.74989000       0.00000000       0.00000000       0.00000000      -0.04595640       0.00070768      -0.12530437      -0.06132494      -0.00328271      -0.03428378
Cu       4.19156295       8.98379165      13.74989000       0.00000000       0.00000000       0.00000000      -0.04433637      -0.00060256      -0.12767009      -0.06326303       0.02185592      -0.02821752
Cu       2.09578148       0.00000000      12.99991200       0.00000000       0.00000000       0.00000000      -0.07822369       0.00001504       0.16954259      -0.05647674      -0.00389256       0.18943791
Cu       2.09578148       2.56679762      12.99991200       0.00000000       0.00000000       0.00000000      -0.07930530       0.00002612       0.17075797      -0.06018136       0.02277098       0.22546026
Cu       2.09578148       5.13359523      12.99991200       0.00000000       0.00000000       0.00000000      -0.08149751       0.00014622       0.17001056      -0.09915258      -0.04152153       0.26269754
Cu       2.09578148       7.70039285      12.99991200       0.00000000       0.00000000       0.00000000      -0.08028805      -0.00008474       0.16792623      -0.11206532       0.01957754       0.26401390
Cu      -0.00000000       1.28339881      12.24993400       0.00000000       0.00000000       0.00000000       0.11790950      -0.00030574       0.43623852       0.11591814      -0.00465259       0.68828919
Cu      -0.00000000       3.85019642      12.24993400       0.00000000       0.00000000       0.00000000       0.11789996       0.00084411       0.43603460       0.11484097       0.02008484       0.73442063
Cu      -0.00000000       6.41699404      12.24993400       0.00000000       0.00000000       0.00000000       0.11771568       0.00033151       0.43674773       0.11332505      -0.00603481       0.71993476
Cu      -0.00000000       8.98379165      12.24993400       0.00000000       0.00000000       0.00000000       0.11774150      -0.00094163       0.43702592       0.12401624      -0.00481934       0.68500861
O        4.28976094       5.11495148      19.52400872       0.02230978      -0.00605602       0.05537740       0.00646220      -0.03106808       0.00948445       0.12961703       0.03610370       0.13233748
C        3.25508332       8.45289205      19.51997872      -0.10875666      -0.11551928       0.02514194       0.00145617      -0.01160697       0.04851044      -0.32579603      -0.29728456      -0.06619637
H        5.21198293       5.10699656      19.83812487       0.02852977      -0.00587492       0.00865460       0.00139965      -0.02412027      -0.02015204       0.21910741       0.17025251       0.43845602
O        3.01801924       8.49914104      20.66118787      -0.15346686      -0.05145495       0.04725282       0.00672406       0.00470636       0.05097493       0.05241299      -0.00429532       0.11975969
40
Lattice="6.2873444314750255 0.0 0.0 0.0 10.26719046282867 0.0 0.0 0.0 28.249757996450562" Properties=species:S:1:pos:R:3:MACE_forces:R:3:forces:R:3:DFT_forces:R:3 adsorbate_info="_JSON {\"top layer atom index\": 0, \"sites\": {}}" method=neb MACE_energy=-161.38508839049905 energy=-161.29518959014217 stress="0.007046669745975515 -5.081940709053173e-06 -2.8341301429322483e-05 -5.081940709053173e-06 0.008150504215825277 0.00014417181696233446 -2.8341301429322483e-05 0.00014417181696233446 0.0014519238666479957" free_energy=-161.29518959014217 DFT_energy=-163.34994872 pbc="T T T"
Cu       4.10804054       1.29025539      18.08372992      -0.01111150       0.03730442       0.13618632      -0.00655368       0.00987067       0.14676571       0.04234178      -0.01565386      -0.11055395
Cu       4.12319883       3.79000739      18.13593471      -0.00900727       0.00814246       0.14944456      -0.00849748      -0.00975303       0.14360010      -0.01395860      -0.06365438      -0.09658057
Cu       4.13810455       6.48459605      18.14937509       0.00564935       0.01605320       0.16230119      -0.00932419       0.00818123       0.14051927      -0.00133382      -0.05381453      -0.02163046
Cu       4.20222785       9.03459059      18.05129215      -0.00502995      -0.02728580       0.22304508      -0.00333753      -0.00521405       0.16530096       0.04907641       0.01589037      -0.23645515
Cu       2.04988582      10.26477493      17.41363774       0.01917520       0.01243252       0.14197275       0.00524779       0.00953182       0.13054977      -0.06367749       0.16720502      -0.06814100
Cu       2.04964537       2.56496201      17.39537676      -0.00037511       0.00496535       0.12132961       0.00578190      -0.00050047       0.13574989      -0.01625642      -0.00634003      -0.00453265
Cu       2.02491712       5.13144129      17.36312961       0.00771539       0.00879412       0.11680978       0.00082278      -0.00629671       0.12543010      -0.02131925       0.02921871      -0.03037983
Cu       2.04885898       7.70989633      17.44328364       0.06996256       0.04838553       0.24108835       0.00273760       0.00679402       0.12253414      -0.05929463      -0.05608149      -0.00491627
Cu       6.27008746       1.27831659      16.73109294      -0.00567116      -0.00600036       0.10364113      -0.00189632       0.00325088       0.10749546       0.01831008       0.03089051      -0.01251205
Cu       6.26486653       3.83878593      16.71059145       0.00005533       0.00004367       0.09344974      -0.00209162      -0.00290750       0.10428321       0.07589259      -0.01337723      -0.05032668
Cu       6.26810831       6.42605617      16.71097237       0.02339800       0.01543145       0.10630381       0.00233948      -0.00227907       0.09118126       0.04772570       0.05893338      -0.03283058
Cu       6.28466404       8.98871273      16.70885580       0.06103657      -0.00444867       0.05703128       0.00136989       0.00873066       0.09511712       0.01582202      -0.05437251      -0.01976384
Cu       4.19156295       0.00000000      15.99982400       0.00000000       0.00000000       0.00000000       0.07701543      -0.01228276      -0.39741454       0.13508015       0.03695149      -0.60007671
Cu       4.19156295       2.56679762      15.99982400       0.00000000       0.00000000       0.00000000       0.06079125       0.02260139      -0.48390274       0.07129022       0.18192034      -0.26948039
Cu       4.19156295       5.13359523      15.99982400       0.00000000       0.00000000       0.00000000       0.06161371       0.02956463      -0.34893328       0.09305082       0.06026499      -0.23205481
Cu       4.19156295       7.70039285      15.99982400       0.00000000       0.00000000       0.00000000       0.08823876       0.01395026      -0.20936861       0.11895486      -0.19025371      -0.48162734
Cu       2.09578148       1.28339881      15.24984600       0.00000000       0.00000000       0.00000000      -0.00300318       0.00259424      -0.31174978      -0.02721223      -0.06211400      -0.27230130
Cu       2.09578148       3.85019642      15.24984600       0.00000000       0.00000000       0.00000000      -0.00920874      -0.00854497      -0.31767027       0.04741872      -0.04863050      -0.30764592
Cu       2.09578148       6.41699404      15.24984600       0.00000000       0.00000000       0.00000000       0.02946652       0.00743201      -0.29188558       0.07281702       0.12553480      -0.15545161
Cu       2.09578148       8.98379165      15.24984600       0.00000000       0.00000000       0.00000000       0.02264743      -0.00868581      -0.29977313       0.04474169      -0.00157361      -0.17927710
Cu       0.00000000       0.00000000      14.49986800       0.00000000       0.00000000       0.00000000      -0.07379243       0.00916075      -0.21769639      -0.11436895       0.03058232      -0.25548266
Cu       0.00000000       2.56679762      14.49986800       0.00000000       0.00000000       0.00000000      -0.07617192      -0.00172173      -0.19074166      -0.14084428      -0.07044124      -0.22999953
Cu       0.00000000       5.13359523      14.49986800       0.00000000       0.00000000       0.00000000      -0.07447422      -0.01155827      -0.21418018      -0.13598060       0.01722758      -0.23977119
Cu       0.00000000       7.70039285      14.49986800       0.00000000       0.00000000       0.00000000      -0.07841858       0.00020544      -0.23319078      -0.08834751       0.00423419      -0.34425182
Cu       4.19156295       1.28339881      13.74989000       0.00000000       0.00000000       0.00000000      -0.04401218       0.00087082      -0.12751483      -0.09692147       0.02220573       0.02068692
Cu       4.19156295       3.85019642      13.74989000       0.00000000       0.00000000       0.00000000      -0.04499185      -0.00104151      -0.12463264      -0.08350358      -0.03244978      -0.03987391
Cu       4.19156295       6.41699404      13.74989000       0.00000000       0.00000000       0.00000000      -0.04595640       0.00070768      -0.12530437      -0.06116144      -0.00416361      -0.03519159
Cu       4.19156295       8.98379165      13.74989000       0.00000000       0.00000000       0.00000000      -0.04433637      -0.00060256      -0.12767009      -0.06281390       0.02243834      -0.02502625
Cu       2.09578148       0.00000000      12.99991200       0.00000000       0.00000000       0.00000000      -0.07822369       0.00001504       0.16954259      -0.05871935      -0.00380389       0.19005041
Cu       2.09578148       2.56679762      12.99991200       0.00000000       0.00000000       0.00000000      -0.07930530       0.00002612       0.17075797      -0.06102859       0.02376382       0.22489691
Cu       2.09578148       5.13359523      12.99991200       0.00000000       0.00000000       0.00000000      -0.08149751       0.00014622       0.17001056      -0.10058498      -0.04229721       0.26287981
Cu       2.09578148       7.70039285      12.99991200       0.00000000       0.00000000       0.00000000      -0.08028805      -0.00008474       0.16792623      -0.11410611       0.02064153       0.26232078
Cu      -0.00000000       1.28339881      12.24993400       0.00000000       0.00000000       0.00000000       0.11790950      -0.00030574       0.43623852       0.11624942      -0.00345525       0.68832994
Cu      -0.00000000       3.85019642      12.24993400       0.00000000       0.00000000       0.00000000       0.11789996       0.00084411       0.43603460       0.11596257       0.02063745       0.73340917
Cu      -0.00000000       6.41699404      12.24993400       0.00000000       0.00000000       0.00000000       0.11771568       0.00033151       0.43674773       0.11344477      -0.00581630       0.71901809
Cu      -0.00000000       8.98379165      12.24993400       0.00000000       0.00000000       0.00000000       0.11774150      -0.00094163       0.43702592       0.12429627      -0.00526366       0.68594221
O        4.28545223       5.11230131      19.52466971       0.02124130      -0.00459180       0.05115296       0.00646220      -0.03106808       0.00948445       0.12534390       0.04836430       0.12561839
C        3.20352631       8.43346732      19.47349780      -0.12665570      -0.14700423       0.04430540       0.00145617      -0.01160697       0.04851044      -0.31599251      -0.27855060      -0.05540623
H        5.20619905       5.10574915      19.84303502       0.02839880      -0.00496614       0.00401884       0.00139965      -0.02412027      -0.02015204       0.15740750       0.09862836       0.38149498
O        2.95364082       8.47414911      20.61367863      -0.15408150      -0.04483902       0.03075281       0.00672406       0.00470636       0.05097493       0.05219923      -0.00342586       0.11689377
40
Lattice="6.2873444314750255 0.0 0.0 0.0 10.26719046282867 0.0 0.0 0.0 28.249757996450562" Properties=species:S:1:pos:R:3:MACE_forces:R:3:forces:R:3:DFT_forces:R:3 adsorbate_info="_JSON {\"top layer atom index\": 0, \"sites\": {}}" method=neb MACE_energy=-161.40990206398584 energy=-161.29518959014217 stress="0.007046669745975515 -5.081940709053173e-06 -2.8341301429322483e-05 -5.081940709053173e-06 0.008150504215825277 0.00014417181696233446 -2.8341301429322483e-05 0.00014417181696233446 0.0014519238666479957" free_energy=-161.29518959014217 DFT_energy=-163.36033574 pbc="T T T"
Cu       4.10826568       1.29125037      18.08297414      -0.00932427       0.03617382       0.13753037      -0.00655368       0.00987067       0.14676571       0.04160584      -0.02413469      -0.10531385
Cu       4.12235874       3.79048458      18.13535807      -0.00788950       0.00738236       0.14861712      -0.00849748      -0.00975303       0.14360010      -0.00939758      -0.06523706      -0.09454280
Cu       4.13610126       6.48636100      18.15205182      -0.00010959       0.02219725       0.16909794      -0.00932419       0.00818123       0.14051927      -0.00148040      -0.05196571      -0.01583510
Cu       4.20293822       9.03487736      18.05842480      -0.00077970      -0.02173867       0.21320631      -0.00333753      -0.00521405       0.16530096       0.05845444       0.02703920      -0.22427817
Cu       2.05032015      10.26459254      17.41399680       0.01859957       0.01061103       0.14112989       0.00524779       0.00953182       0.13054977      -0.05744743       0.16721946      -0.05994087
Cu       2.04923180       2.56485087      17.39498175       0.00068812       0.00395881       0.12236157       0.00578190      -0.00050047       0.13574989      -0.01697622      -0.00711453      -0.00222802
Cu       2.02422189       5.13090343      17.36246949       0.00826009       0.00654436       0.11656092       0.00082278      -0.00629671       0.12543010      -0.02205933       0.02679659      -0.02952602
Cu       2.04719417       7.70932468      17.44492729       0.05857455       0.04327986       0.22977169       0.00273760       0.00679402       0.12253414      -0.02815554      -0.02999056       0.07071288
Cu       6.27017150       1.27810287      16.73104600      -0.00503983      -0.00576096       0.10391372      -0.00189632       0.00325088       0.10749546       0.01965090       0.03376757      -0.01306805
Cu       6.26443466       3.83854346      16.71046070       0.00052374      -0.00053863       0.09339946      -0.00209162      -0.00290750       0.10428321       0.07507204      -0.01503009      -0.04986964
Cu       6.26734382       6.42604051      16.71085413       0.02068125       0.01459068       0.10570890       0.00233948      -0.00227907       0.09118126       0.04596666       0.06120029      -0.02955992
Cu       6.28313987       8.98911814      16.70903301       0.05836970      -0.00380920       0.05871204       0.00136989       0.00873066       0.09511712       0.01642168      -0.05873333      -0.01746266
Cu       4.19156295       0.00000000      15.99982400       0.00000000       0.00000000       0.00000000       0.07701543      -0.01228276      -0.39741454       0.13224717       0.02820434      -0.58426586
Cu       4.19156295       2.56679762      15.99982400       0.00000000       0.00000000       0.00000000       0.06079125       0.02260139      -0.48390274       0.06975331       0.18255253      -0.27252239
Cu       4.19156295       5.13359523      15.99982400       0.00000000       0.00000000       0.00000000       0.06161371       0.02956463      -0.34893328       0.09001760       0.06678632      -0.22737009
Cu       4.19156295       7.70039285      15.99982400       0.00000000       0.00000000       0.00000000       0.08823876       0.01395026      -0.20936861       0.12177162      -0.18517999      -0.47674743
Cu       2.09578148       1.28339881      15.24984600       0.00000000       0.00000000       0.00000000      -0.00300318       0.00259424      -0.31174978      -0.02768604      -0.06291814      -0.27215637
Cu       2.09578148       3.85019642      15.24984600       0.00000000       0.00000000       0.00000000      -0.00920874      -0.00854497      -0.31767027       0.04701397      -0.05000065      -0.31020419
Cu       2.09578148       6.41699404      15.24984600       0.00000000       0.00000000       0.00000000       0.02946652       0.00743201      -0.29188558       0.07529889       0.13082973      -0.15119920
Cu       2.09578148       8.98379165      15.24984600       0.00000000       0.00000000       0.00000000       0.02264743      -0.00868581      -0.29977313       0.04291920      -0.00441323      -0.17946141
Cu       0.00000000       0.00000000      14.49986800       0.00000000       0.00000000       0.00000000      -0.07379243       0.00916075      -0.21769639      -0.11654271       0.03098034      -0.25506029
Cu       0.00000000       2.56679762      14.49986800       0.00000000       0.00000000       0.00000000      -0.07617192      -0.00172173      -0.19074166      -0.13846006      -0.07185652      -0.23242695
Cu       0.00000000       5.13359523      14.49986800       0.00000000       0.00000000       0.00000000      -0.07447422      -0.01155827      -0.21418018      -0.13446036       0.01490608      -0.24206336
Cu       0.00000000       7.70039285      14.49986800       0.00000000       0.00000000       0.00000000      -0.07841858       0.00020544      -0.23319078      -0.08811610       0.00454642      -0.34647081
Cu       4.19156295       1.28339881      13.74989000       0.00000000       0.00000000       0.00000000      -0.04401218       0.00087082      -0.12751483      -0.09708963       0.02424834       0.01963673
Cu       4.19156295       3.85019642      13.74989000       0.00000000       0.00000000       0.00000000      -0.04499185      -0.00104151      -0.12463264      -0.08410358      -0.03330575      -0.04084327
Cu       4.19156295       6.41699404      13.74989000       0.00000000       0.00000000       0.00000000      -0.04595640       0.00070768      -0.12530437      -0.06146171      -0.00398648      -0.03658104
Cu       4.19156295       8.98379165      13.74989000       0.00000000       0.00000000       0.00000000      -0.04433637      -0.00060256      -0.12767009      -0.06294340       0.02194249      -0.01978325
Cu       2.09578148       0.00000000      12.99991200       0.00000000       0.00000000       0.00000000      -0.07822369       0.00001504       0.16954259      -0.06001982      -0.00373796       0.18993206
Cu       2.09578148       2.56679762      12.99991200       0.00000000       0.00000000       0.00000000      -0.07930530       0.00002612       0.17075797      -0.06275323       0.02320128       0.22409269
Cu       2.09578148       5.13359523      12.99991200       0.00000000       0.00000000       0.00000000      -0.08149751       0.00014622       0.17001056      -0.10202573      -0.04315059       0.26326174
Cu       2.09578148       7.70039285      12.99991200       0.00000000       0.00000000       0.00000000      -0.08028805      -0.00008474       0.16792623      -0.11596981       0.02063697       0.26052782
Cu      -0.00000000       1.28339881      12.24993400       0.00000000       0.00000000       0.00000000       0.11790950      -0.00030574       0.43623852       0.11732033      -0.00284986       0.68863157
Cu      -0.00000000       3.85019642      12.24993400       0.00000000       0.00000000       0.00000000       0.11789996       0.00084411       0.43603460       0.11773529       0.02031634       0.73213469
Cu      -0.00000000       6.41699404      12.24993400       0.00000000       0.00000000       0.00000000       0.11771568       0.00033151       0.43674773       0.11374003      -0.00501489       0.71823858
Cu      -0.00000000       8.98379165      12.24993400       0.00000000       0.00000000       0.00000000       0.11774150      -0.00094163       0.43702592       0.12469691      -0.00684071       0.68581269
O        4.28426408       5.11040612      19.52535765       0.02287288      -0.00661185       0.05050919       0.00646220      -0.03106808       0.00948445       0.12490760       0.05580971       0.12191761
C        3.14407541       8.40141345      19.43605850      -0.11701067      -0.14705313       0.04406020       0.00145617      -0.01160697       0.04851044      -0.28431715      -0.26601288      -0.06489562
H        5.20520590       5.10426340      19.84317760       0.02943692      -0.00515090       0.00441845       0.00139965      -0.02412027      -0.02015204       0.08465255       0.05567151       0.26209729
O        2.87285732       8.44470270      20.57291838      -0.13861657      -0.04527680       0.00809223       0.00672406       0.00470636       0.05097493       0.05221980      -0.00518188       0.11668029
40
Lattice="6.2873444314750255 0.0 0.0 0.0 10.26719046282867 0.0 0.0 0.0 28.249757996450562" Properties=species:S:1:pos:R:3:MACE_forces:R:3:forces:R:3:DFT_forces:R:3 adsorbate_info="_JSON {\"top layer atom index\": 0, \"sites\": {}}" method=neb MACE_energy=-161.43240149624629 energy=-161.29518959014217 stress="0.007046669745975515 -5.081940709053173e-06 -2.8341301429322483e-05 -5.081940709053173e-06 0.008150504215825277 0.00014417181696233446 -2.8341301429322483e-05 0.00014417181696233446 0.0014519238666479957" free_energy=-161.29518959014217 DFT_energy=-163.37784435 pbc="T T T"
Cu       4.10847915       1.29209909      18.08223432      -0.00765770       0.03298136       0.13892723      -0.00655368       0.00987067       0.14676571       0.04073229      -0.03321289      -0.10067462
Cu       4.12151138       3.79093405      18.13476467      -0.00663794       0.00618358       0.14792772      -0.00849748      -0.00975303       0.14360010      -0.00525340      -0.06616274      -0.09279399
Cu       4.13389078       6.48790324      18.15453001      -0.00796827       0.02836112       0.17539519      -0.00932419       0.00818123       0.14051927      -0.00060347      -0.05369604      -0.01318993
Cu       4.20172236       9.03424235      18.06676865       0.00090630      -0.01637188       0.20083790      -0.00333753      -0.00521405       0.16530096       0.06810785       0.04050366      -0.21791075
Cu       2.05072364      10.26431690      17.41433906       0.01758211       0.00788663       0.13992747       0.00524779       0.00953182       0.13054977      -0.05224027       0.16669623      -0.05214277
Cu       2.04881816       2.56471393      17.39458647       0.00191488       0.00263175       0.12346231       0.00578190      -0.00050047       0.13574989      -0.01774097      -0.00891604      -0.00013995
Cu       2.02350911       5.13025572      17.36185773       0.00851616       0.00325197       0.11659872       0.00082278      -0.00629671       0.12543010      -0.02330551       0.02367422      -0.02884537
Cu       2.04487243       7.70818891      17.44507811       0.04617991       0.03648885       0.21287988       0.00273760       0.00679402       0.12253414      -0.00009326      -0.00598868       0.13862824
Cu       6.27027901       1.27793249      16.73096694      -0.00429796      -0.00504246       0.10388156      -0.00189632       0.00325088       0.10749546       0.02086137       0.03600576      -0.01400041
Cu       6.26398143       3.83828052      16.71032938       0.00090271      -0.00138395       0.09337210      -0.00209162      -0.00290750       0.10428321       0.07427746      -0.01696853      -0.04914753
Cu       6.26631852       6.42584855      16.71058804       0.01584886       0.01209313       0.10393422       0.00233948      -0.00227907       0.09118126       0.04449778       0.06247901      -0.02697132
Cu       6.28131864       8.98961933      16.70924640       0.05089871      -0.00235504       0.06202412       0.00136989       0.00873066       0.09511712       0.01341150      -0.06290778      -0.01449205
Cu       4.19156295       0.00000000      15.99982400       0.00000000       0.00000000       0.00000000       0.07701543      -0.01228276      -0.39741454       0.12937472       0.01659723      -0.56351180
Cu       4.19156295       2.56679762      15.99982400       0.00000000       0.00000000       0.00000000       0.06079125       0.02260139      -0.48390274       0.06810451       0.18243306      -0.27563822
Cu       4.19156295       5.13359523      15.99982400       0.00000000       0.00000000       0.00000000       0.06161371       0.02956463      -0.34893328       0.08590568       0.07226979      -0.22373069
Cu       4.19156295       7.70039285      15.99982400       0.00000000       0.00000000       0.00000000       0.08823876       0.01395026      -0.20936861       0.12510027      -0.17840789      -0.46977438
Cu       2.09578148       1.28339881      15.24984600       0.00000000       0.00000000       0.00000000      -0.00300318       0.00259424      -0.31174978      -0.02804534      -0.06405943      -0.27206790
Cu       2.09578148       3.85019642      15.24984600       0.00000000       0.00000000       0.00000000      -0.00920874      -0.00854497      -0.31767027       0.04697639      -0.05151068      -0.31256275
Cu       2.09578148       6.41699404      15.24984600       0.00000000       0.00000000       0.00000000       0.02946652       0.00743201      -0.29188558       0.07773449       0.13372328      -0.14978067
Cu       2.09578148       8.98379165      15.24984600       0.00000000       0.00000000       0.00000000       0.02264743      -0.00868581      -0.29977313       0.04071518      -0.00610583      -0.18176829
Cu       0.00000000       0.00000000      14.49986800       0.00000000       0.00000000       0.00000000      -0.07379243       0.00916075      -0.21769639      -0.11853346       0.03160174      -0.25417361
Cu       0.00000000       2.56679762      14.49986800       0.00000000       0.00000000       0.00000000      -0.07617192      -0.00172173      -0.19074166      -0.13549952      -0.07313626      -0.23507784
Cu       0.00000000       5.13359523      14.49986800       0.00000000       0.00000000       0.00000000      -0.07447422      -0.01155827      -0.21418018      -0.13280501       0.01226513      -0.24455574
Cu       0.00000000       7.70039285      14.49986800       0.00000000       0.00000000       0.00000000      -0.07841858       0.00020544      -0.23319078      -0.08786886       0.00484721      -0.34758064
Cu       4.19156295       1.28339881      13.74989000       0.00000000       0.00000000       0.00000000      -0.04401218       0.00087082      -0.12751483      -0.09735026       0.02561810       0.01860774
Cu       4.19156295       3.85019642      13.74989000       0.00000000       0.00000000       0.00000000      -0.04499185      -0.00104151      -0.12463264      -0.08425444      -0.03409206      -0.04181984
Cu       4.19156295       6.41699404      13.74989000       0.00000000       0.00000000       0.00000000      -0.04595640       0.00070768      -0.12530437      -0.06180686      -0.00378168      -0.03791554
Cu       4.19156295       8.98379165      13.74989000       0.00000000       0.00000000       0.00000000      -0.04433637      -0.00060256      -0.12767009      -0.06312338       0.02109585      -0.01446117
Cu       2.09578148       0.00000000      12.99991200       0.00000000       0.00000000       0.00000000      -0.07822369       0.00001504       0.16954259      -0.06110486      -0.00351665       0.18983522
Cu       2.09578148       2.56679762      12.99991200       0.00000000       0.00000000       0.00000000      -0.07930530       0.00002612       0.17075797      -0.06494221       0.02206963       0.22338693
Cu       2.09578148       5.13359523      12.99991200       0.00000000       0.00000000       0.00000000      -0.08149751       0.00014622       0.17001056      -0.10342041      -0.04361245       0.26347047
Cu       2.09578148       7.70039285      12.99991200       0.00000000       0.00000000       0.00000000      -0.08028805      -0.00008474       0.16792623      -0.11767635       0.02040633       0.25829406
Cu      -0.00000000       1.28339881      12.24993400       0.00000000       0.00000000       0.00000000       0.11790950      -0.00030574       0.43623852       0.11864130      -0.00250622       0.68856527
Cu      -0.00000000       3.85019642      12.24993400       0.00000000       0.00000000       0.00000000       0.11789996       0.00084411       0.43603460       0.11976415       0.01990617       0.73076063
Cu      -0.00000000       6.41699404      12.24993400       0.00000000       0.00000000       0.00000000       0.11771568       0.00033151       0.43674773       0.11435762      -0.00446901       0.71727575
Cu      -0.00000000       8.98379165      12.24993400       0.00000000       0.00000000       0.00000000       0.11774150      -0.00094163       0.43702592       0.12519205      -0.00853023       0.68542778
O        4.28304989       5.10856573      19.52604654       0.02450070      -0.00819251       0.04951435       0.00646220      -0.03106808       0.00948445       0.12264254       0.06390615       0.11797621
C        3.08560764       8.37066060      19.39894011      -0.09774110      -0.13939516       0.04527561       0.00145617      -0.01160697       0.04851044      -0.24592165      -0.25015292      -0.06123861
H        5.20418326       5.10274645      19.84332558       0.03035134      -0.00518408       0.00470502       0.00139965      -0.02412027      -0.02015204       0.01267240       0.02249128       0.14766180
O        2.79149631       8.41493508      20.53171938      -0.11944252      -0.04409576      -0.00457781       0.00672406       0.00470636       0.05097493       0.05251995      -0.00685579       0.11607626
40
Lattice="6.2873444314750255 0.0 0.0 0.0 10.26719046282867 0.0 0.0 0.0 28.249757996450562" Properties=species:S:1:pos:R:3:MACE_forces:R:3:forces:R:3:DFT_forces:R:3 adsorbate_info="_JSON {\"top layer atom index\": 0, \"sites\": {}}" method=neb MACE_energy=-161.45215248596 energy=-161.29518959014217 stress="0.007046669745975515 -5.081940709053173e-06 -2.8341301429322483e-05 -5.081940709053173e-06 0.008150504215825277 0.00014417181696233446 -2.8341301429322483e-05 0.00014417181696233446 0.0014519238666479957" free_energy=-161.29518959014217 DFT_energy=-163.39939321 pbc="T T T"
Cu       4.10868640       1.29283022      18.08153782      -0.00616711       0.02809940       0.14036791      -0.00655368       0.00987067       0.14676571       0.03988033      -0.04345628      -0.09656521
Cu       4.12067192       3.79131326      18.13417793      -0.00534888       0.00433012       0.14749138      -0.00849748      -0.00975303       0.14360010      -0.00147527      -0.06730929      -0.09113700
Cu       4.13190441       6.48861567      18.15635974      -0.01546756       0.03266024       0.17874000      -0.00932419       0.00818123       0.14051927       0.00460373      -0.06274669      -0.01656713
Cu       4.19879502       9.03281117      18.07580939      -0.00292919      -0.01386293       0.18965432      -0.00333753      -0.00521405       0.16530096       0.07470505       0.05210017      -0.21540085
Cu       2.05104078      10.26404696      17.41457954       0.01616299       0.00517187       0.13835508       0.00524779       0.00953182       0.13054977      -0.04849502       0.16831070      -0.04505689
Cu       2.04841376       2.56455560      17.39421156       0.00318359       0.00117438       0.12454702       0.00578190      -0.00050047       0.13574989      -0.01876940      -0.01055934       0.00241165
Cu       2.02277077       5.12957380      17.36132186       0.00839841       0.00004875       0.11693932       0.00082278      -0.00629671       0.12543010      -0.02553339       0.02057225      -0.02911770
Cu       2.04289825       7.70710819      17.44540235       0.04030235       0.03277031       0.20456290       0.00273760       0.00679402       0.12253414       0.01313963       0.00805914       0.17990436
Cu       6.27040182       1.27782191      16.73085775      -0.00359469      -0.00394808       0.10353819      -0.00189632       0.00325088       0.10749546       0.02140707       0.03813114      -0.01447304
Cu       6.26351726       3.83800205      16.71020936       0.00122961      -0.00228402       0.09335637      -0.00209162      -0.00290750       0.10428321       0.07253210      -0.01842562      -0.04865043
Cu       6.26517661       6.42554511      16.71016933       0.01156704       0.00942536       0.10145101       0.00233948      -0.00227907       0.09118126       0.04474905       0.06477522      -0.02455308
Cu       6.27940282       8.99014069      16.70949483       0.04055194      -0.00105970       0.06725256       0.00136989       0.00873066       0.09511712       0.00785025      -0.06752766      -0.01042396
Cu       4.19156295       0.00000000      15.99982400       0.00000000       0.00000000       0.00000000       0.07701543      -0.01228276      -0.39741454       0.12621478       0.00380020      -0.53940135
Cu       4.19156295       2.56679762      15.99982400       0.00000000       0.00000000       0.00000000       0.06079125       0.02260139      -0.48390274       0.06577677       0.18244697      -0.27845273
Cu       4.19156295       5.13359523      15.99982400       0.00000000       0.00000000       0.00000000       0.06161371       0.02956463      -0.34893328       0.08057454       0.07684213      -0.22178252
Cu       4.19156295       7.70039285      15.99982400       0.00000000       0.00000000       0.00000000       0.08823876       0.01395026      -0.20936861       0.12841577      -0.17020476      -0.46119952
Cu       2.09578148       1.28339881      15.24984600       0.00000000       0.00000000       0.00000000      -0.00300318       0.00259424      -0.31174978      -0.02865048      -0.06470691      -0.27224926
Cu       2.09578148       3.85019642      15.24984600       0.00000000       0.00000000       0.00000000      -0.00920874      -0.00854497      -0.31767027       0.04678495      -0.05248426      -0.31445140
Cu       2.09578148       6.41699404      15.24984600       0.00000000       0.00000000       0.00000000       0.02946652       0.00743201      -0.29188558       0.07947663       0.13658526      -0.14824021
Cu       2.09578148       8.98379165      15.24984600       0.00000000       0.00000000       0.00000000       0.02264743      -0.00868581      -0.29977313       0.03792922      -0.00727345      -0.18442347
Cu       0.00000000       0.00000000      14.49986800       0.00000000       0.00000000       0.00000000      -0.07379243       0.00916075      -0.21769639      -0.12084668       0.03300136      -0.25310407
Cu       0.00000000       2.56679762      14.49986800       0.00000000       0.00000000       0.00000000      -0.07617192      -0.00172173      -0.19074166      -0.13244485      -0.07360316      -0.23755707
Cu       0.00000000       5.13359523      14.49986800       0.00000000       0.00000000       0.00000000      -0.07447422      -0.01155827      -0.21418018      -0.13143377       0.00998081      -0.24719543
Cu       0.00000000       7.70039285      14.49986800       0.00000000       0.00000000       0.00000000      -0.07841858       0.00020544      -0.23319078      -0.08808123       0.00571485      -0.34805742
Cu       4.19156295       1.28339881      13.74989000       0.00000000       0.00000000       0.00000000      -0.04401218       0.00087082      -0.12751483      -0.09838005       0.02659956       0.01800846
Cu       4.19156295       3.85019642      13.74989000       0.00000000       0.00000000       0.00000000      -0.04499185      -0.00104151      -0.12463264      -0.08459801      -0.03417296      -0.04226489
Cu       4.19156295       6.41699404      13.74989000       0.00000000       0.00000000       0.00000000      -0.04595640       0.00070768      -0.12530437      -0.06276732      -0.00292295      -0.03891761
Cu       4.19156295       8.98379165      13.74989000       0.00000000       0.00000000       0.00000000      -0.04433637      -0.00060256      -0.12767009      -0.06389311       0.02064168      -0.00923354
Cu       2.09578148       0.00000000      12.99991200       0.00000000       0.00000000       0.00000000      -0.07822369       0.00001504       0.16954259      -0.06249392      -0.00248061       0.18975954
Cu       2.09578148       2.56679762      12.99991200       0.00000000       0.00000000       0.00000000      -0.07930530       0.00002612       0.17075797      -0.06822919       0.02121907       0.22323891
Cu       2.09578148       5.13359523      12.99991200       0.00000000       0.00000000       0.00000000      -0.08149751       0.00014622       0.17001056      -0.10536256      -0.04306471       0.26356863
Cu       2.09578148       7.70039285      12.99991200       0.00000000       0.00000000       0.00000000      -0.08028805      -0.00008474       0.16792623      -0.11955650       0.02043319       0.25580319
Cu      -0.00000000       1.28339881      12.24993400       0.00000000       0.00000000       0.00000000       0.11790950      -0.00030574       0.43623852       0.11986284      -0.00205254       0.68852871
Cu      -0.00000000       3.85019642      12.24993400       0.00000000       0.00000000       0.00000000       0.11789996       0.00084411       0.43603460       0.12156247       0.02031899       0.73001212
Cu      -0.00000000       6.41699404      12.24993400       0.00000000       0.00000000       0.00000000       0.11771568       0.00033151       0.43674773       0.11467496      -0.00371224       0.71640506
Cu      -0.00000000       8.98379165      12.24993400       0.00000000       0.00000000       0.00000000       0.11774150      -0.00094163       0.43702592       0.12534808      -0.00961980       0.68495752
O        4.28177472       5.10682966      19.52676399       0.02620900      -0.00901450       0.04891488       0.00646220      -0.03106808       0.00948445       0.12063989       0.07136475       0.11470188
C        3.02693687       8.34137059      19.36268934      -0.03898197      -0.13315473      -0.10813293       0.00145617      -0.01160697       0.04851044      -0.22747823      -0.22815600       0.06505889
H        5.20307563       5.10123599      19.84355887       0.03124404      -0.00514241       0.00504044       0.00139965      -0.02412027      -0.02015204      -0.01016119      -0.00821505      -0.05939008
O        2.71097921       8.38527752      20.48982112      -0.13805673      -0.03596556       0.13049261       0.00672406       0.00470636       0.05097493       0.05252207      -0.00820315       0.11550692
40
Lattice="6.2873444314750255 0.0 0.0 0.0 10.26719046282867 0.0 0.0 0.0 28.249757996450562" Properties=species:S:1:pos:R:3:MACE_forces:R:3:forces:R:3:DFT_forces:R:3 adsorbate_info="_JSON {\"top layer atom index\": 0, \"sites\": {}}" method=neb MACE_energy=-161.46916794767372 energy=-161.29518959014217 stress="0.007046669745975515 -5.081940709053173e-06 -2.8341301429322483e-05 -5.081940709053173e-06 0.008150504215825277 0.00014417181696233446 -2.8341301429322483e-05 0.00014417181696233446 0.0014519238666479957" free_energy=-161.29518959014217 DFT_energy=-163.42270588 pbc="T T T"
Cu       4.10885076       1.29350643      18.08082984      -0.00479350       0.02106198       0.14189311      -0.00655368       0.00987067       0.14676571       0.03954711      -0.05536651      -0.09167633
Cu       4.11981039       3.79165968      18.13357322      -0.00399477       0.00173096       0.14753758      -0.00849748      -0.00975303       0.14360010       0.00236872      -0.06842009      -0.08877856
Cu       4.13044052       6.48829486      18.15744741      -0.02414047       0.03735901       0.18154608      -0.00932419       0.00818123       0.14051927       0.01353758      -0.07672571      -0.02267738
Cu       4.19386469       9.03033840      18.08538064      -0.00416229      -0.00810266       0.17421274      -0.00333753      -0.00521405       0.16530096       0.07926134       0.06453576      -0.21884971
Cu       2.05128059      10.26389774      17.41465775       0.01426415       0.00193365       0.13711934       0.00524779       0.00953182       0.13054977      -0.04520108       0.17040325      -0.03792223
Cu       2.04799017       2.56440581      17.39381323       0.00449875      -0.00018192       0.12572903       0.00578190      -0.00050047       0.13574989      -0.01978335      -0.01247968       0.00574583
Cu       2.02200553       5.12894723      17.36083632       0.00796558      -0.00331741       0.11772238       0.00082278      -0.00629671       0.12543010      -0.02733372       0.01677966      -0.02995591
Cu       2.04092361       7.70588514      17.44512834       0.03558283       0.02836367       0.19639829       0.00273760       0.00679402       0.12253414       0.01437505       0.01211658       0.19183445
Cu       6.27052526       1.27774653      16.73070472      -0.00303581      -0.00232142       0.10282607      -0.00189632       0.00325088       0.10749546       0.02211901       0.03984058      -0.01492998
Cu       6.26303274       3.83772206      16.71007899       0.00152034      -0.00318541       0.09343702      -0.00209162      -0.00290750       0.10428321       0.07156535      -0.01953146      -0.04787409
Cu       6.26395956       6.42517540      16.70966547       0.00707645       0.00587319       0.09761121       0.00233948      -0.00227907       0.09118126       0.04702826       0.06601589      -0.02377320
Cu       6.27751928       8.99065228      16.70974495       0.02639933       0.00045775       0.07466141       0.00136989       0.00873066       0.09511712      -0.00161361      -0.07108682      -0.00532581
Cu       4.19156295       0.00000000      15.99982400       0.00000000       0.00000000       0.00000000       0.07701543      -0.01228276      -0.39741454       0.12386198      -0.01072321      -0.51227868
Cu       4.19156295       2.56679762      15.99982400       0.00000000       0.00000000       0.00000000       0.06079125       0.02260139      -0.48390274       0.06362830       0.18220222      -0.28137747
Cu       4.19156295       5.13359523      15.99982400       0.00000000       0.00000000       0.00000000       0.06161371       0.02956463      -0.34893328       0.07511860       0.07992480      -0.22179317
Cu       4.19156295       7.70039285      15.99982400       0.00000000       0.00000000       0.00000000       0.08823876       0.01395026      -0.20936861       0.13317372      -0.16151523      -0.45231002
Cu       2.09578148       1.28339881      15.24984600       0.00000000       0.00000000       0.00000000      -0.00300318       0.00259424      -0.31174978      -0.02852785      -0.06556296      -0.27268779
Cu       2.09578148       3.85019642      15.24984600       0.00000000       0.00000000       0.00000000      -0.00920874      -0.00854497      -0.31767027       0.04728480      -0.05326499      -0.31613918
Cu       2.09578148       6.41699404      15.24984600       0.00000000       0.00000000       0.00000000       0.02946652       0.00743201      -0.29188558       0.08127897       0.13811022      -0.14818927
Cu       2.09578148       8.98379165      15.24984600       0.00000000       0.00000000       0.00000000       0.02264743      -0.00868581      -0.29977313       0.03543613      -0.00770562      -0.18827575
Cu       0.00000000       0.00000000      14.49986800       0.00000000       0.00000000       0.00000000      -0.07379243       0.00916075      -0.21769639      -0.12258946       0.03458692      -0.25190457
Cu       0.00000000       2.56679762      14.49986800       0.00000000       0.00000000       0.00000000      -0.07617192      -0.00172173      -0.19074166      -0.12881346      -0.07360336      -0.24003695
Cu       0.00000000       5.13359523      14.49986800       0.00000000       0.00000000       0.00000000      -0.07447422      -0.01155827      -0.21418018      -0.12948222       0.00766319      -0.24988114
Cu       0.00000000       7.70039285      14.49986800       0.00000000       0.00000000       0.00000000      -0.07841858       0.00020544      -0.23319078      -0.08795731       0.00645738      -0.34735383
Cu       4.19156295       1.28339881      13.74989000       0.00000000       0.00000000       0.00000000      -0.04401218       0.00087082      -0.12751483      -0.09915626       0.02659441       0.01807380
Cu       4.19156295       3.85019642      13.74989000       0.00000000       0.00000000       0.00000000      -0.04499185      -0.00104151      -0.12463264      -0.08386800      -0.03400961      -0.04208497
Cu       4.19156295       6.41699404      13.74989000       0.00000000       0.00000000       0.00000000      -0.04595640       0.00070768      -0.12530437      -0.06390428      -0.00208816      -0.03932875
Cu       4.19156295       8.98379165      13.74989000       0.00000000       0.00000000       0.00000000      -0.04433637      -0.00060256      -0.12767009      -0.06441517       0.02037043      -0.00382892
Cu       2.09578148       0.00000000      12.99991200       0.00000000       0.00000000       0.00000000      -0.07822369       0.00001504       0.16954259      -0.06352367      -0.00145097       0.19031202
Cu       2.09578148       2.56679762      12.99991200       0.00000000       0.00000000       0.00000000      -0.07930530       0.00002612       0.17075797      -0.07157814       0.02025223       0.22374277
Cu       2.09578148       5.13359523      12.99991200       0.00000000       0.00000000       0.00000000      -0.08149751       0.00014622       0.17001056      -0.10682005      -0.04201653       0.26371559
Cu       2.09578148       7.70039285      12.99991200       0.00000000       0.00000000       0.00000000      -0.08028805      -0.00008474       0.16792623      -0.12072303       0.02004928       0.25316605
Cu      -0.00000000       1.28339881      12.24993400       0.00000000       0.00000000       0.00000000       0.11790950      -0.00030574       0.43623852       0.12185292      -0.00188307       0.68851456
Cu      -0.00000000       3.85019642      12.24993400       0.00000000       0.00000000       0.00000000       0.11789996       0.00084411       0.43603460       0.12366766       0.02089531       0.72925152
Cu      -0.00000000       6.41699404      12.24993400       0.00000000       0.00000000       0.00000000       0.11771568       0.00033151       0.43674773       0.11561530      -0.00326480       0.71584030
Cu      -0.00000000       8.98379165      12.24993400       0.00000000       0.00000000       0.00000000       0.11774150      -0.00094163       0.43702592       0.12600186      -0.01046901       0.68433417
O        4.28054059       5.10517974      19.52750153       0.02793157      -0.00961408       0.04840463       0.00646220      -0.03106808       0.00948445       0.12006511       0.07864003       0.11036188
C        2.96825556       8.31345244      19.32622741      -0.02554159      -0.11852056      -0.09433746       0.00145617      -0.01160697       0.04851044      -0.16737770      -0.20563819       0.04445300
H        5.20203385       5.09970491      19.84372820       0.03234120      -0.00494882       0.00562433       0.00139965      -0.02412027      -0.02015204      -0.07731832      -0.01914470      -0.08602696
O        2.62865545       8.35492179      20.44852350      -0.11073927      -0.03311313       0.10631236       0.00672406       0.00470636       0.05097493       0.05319889      -0.00948746       0.11591465
40
Lattice="6.2873444314750255 0.0 0.0 0.0 10.26719046282867 0.0 0.0 0.0 28.249757996450562" Properties=species:S:1:pos:R:3:MACE_forces:R:3:forces:R:3:DFT_forces:R:3 adsorbate_info="_JSON {\"top layer atom index\": 0, \"sites\": {}}" method=neb MACE_energy=-161.48145031097923 energy=-161.29518959014217 stress="0.007046669745975515 -5.081940709053173e-06 -2.8341301429322483e-05 -5.081940709053173e-06 0.008150504215825277 0.00014417181696233446 -2.8341301429322483e-05 0.00014417181696233446 0.0014519238666479957" free_energy=-161.29518959014217 DFT_energy=-163.44336241 pbc="T T T"
Cu       4.10910759       1.29366863      18.08027846      -0.00373870       0.01464839       0.14276671      -0.00655368       0.00987067       0.14676571       0.03946010      -0.06651689      -0.08892771
Cu       4.11888912       3.79187216      18.13313258      -0.00265588      -0.00255138       0.14786838      -0.00849748      -0.00975303       0.14360010       0.00567396      -0.07122852      -0.08644563
Cu       4.12996407       6.48615129      18.15722310      -0.03379806       0.04491620       0.18227480      -0.00932419       0.00818123       0.14051927       0.02110049      -0.08905548      -0.03117126
Cu       4.18623748       9.02693879      18.09558874       0.00397051       0.00231987       0.14734342      -0.00333753      -0.00521405       0.16530096       0.08935069       0.07943009      -0.23702739
Cu       2.05137706      10.26416530      17.41437422       0.01073257      -0.00451286       0.13700007       0.00524779       0.00953182       0.13054977      -0.04479293       0.17009386      -0.03025813
Cu       2.04758108       2.56424881      17.39357389       0.00614751      -0.00134853       0.12635751       0.00578190      -0.00050047       0.13574989      -0.02035675      -0.01491833       0.00838817
Cu       2.02115737       5.12828492      17.36053425       0.00683542      -0.00713958       0.11798321       0.00082278      -0.00629671       0.12543010      -0.02905253       0.01072924      -0.03303066
Cu       2.03834520       7.70386028      17.44277675       0.03166962       0.02485323       0.18824401       0.00273760       0.00679402       0.12253414       0.00485857       0.00514712       0.17231141
Cu       6.27066048       1.27785634      16.73058375      -0.00296974      -0.00060892       0.10136011      -0.00189632       0.00325088       0.10749546       0.02225116       0.04038264      -0.01614941
Cu       6.26250065       3.83741249      16.71012730       0.00171340      -0.00400639       0.09318344      -0.00209162      -0.00290750       0.10428321       0.07044449      -0.02137399      -0.04773716
Cu       6.26245918       6.42453829      16.70891086       0.00306802       0.00143620       0.09266775       0.00233948      -0.00227907       0.09118126       0.04959935       0.06587737      -0.02619376
Cu       6.27479834       8.99123761      16.71060113       0.01358956       0.00207470       0.08234738       0.00136989       0.00873066       0.09511712      -0.01197976      -0.07408448      -0.00089060
Cu       4.19156295       0.00000000      15.99982400       0.00000000       0.00000000       0.00000000       0.07701543      -0.01228276      -0.39741454       0.12128022      -0.02652644      -0.48436284
Cu       4.19156295       2.56679762      15.99982400       0.00000000       0.00000000       0.00000000       0.06079125       0.02260139      -0.48390274       0.06124021       0.18130660      -0.28363161
Cu       4.19156295       5.13359523      15.99982400       0.00000000       0.00000000       0.00000000       0.06161371       0.02956463      -0.34893328       0.06846100       0.07931739      -0.22488200
Cu       4.19156295       7.70039285      15.99982400       0.00000000       0.00000000       0.00000000       0.08823876       0.01395026      -0.20936861       0.13763761      -0.15290365      -0.44329145
Cu       2.09578148       1.28339881      15.24984600       0.00000000       0.00000000       0.00000000      -0.00300318       0.00259424      -0.31174978      -0.02852659      -0.06656961      -0.27342308
Cu       2.09578148       3.85019642      15.24984600       0.00000000       0.00000000       0.00000000      -0.00920874      -0.00854497      -0.31767027       0.04755923      -0.05414642      -0.31740461
Cu       2.09578148       6.41699404      15.24984600       0.00000000       0.00000000       0.00000000       0.02946652       0.00743201      -0.29188558       0.08215617       0.13585487      -0.15265024
Cu       2.09578148       8.98379165      15.24984600       0.00000000       0.00000000       0.00000000       0.02264743      -0.00868581      -0.29977313       0.03108960      -0.00622729      -0.19439953
Cu       0.00000000       0.00000000      14.49986800       0.00000000       0.00000000       0.00000000      -0.07379243       0.00916075      -0.21769639      -0.12399813       0.03550650      -0.24975468
Cu       0.00000000       2.56679762      14.49986800       0.00000000       0.00000000       0.00000000      -0.07617192      -0.00172173      -0.19074166      -0.12576188      -0.07333883      -0.24239505
Cu       0.00000000       5.13359523      14.49986800       0.00000000       0.00000000       0.00000000      -0.07447422      -0.01155827      -0.21418018      -0.12794543       0.00465537      -0.25288257
Cu       0.00000000       7.70039285      14.49986800       0.00000000       0.00000000       0.00000000      -0.07841858       0.00020544      -0.23319078      -0.08809580       0.00726601      -0.34488825
Cu       4.19156295       1.28339881      13.74989000       0.00000000       0.00000000       0.00000000      -0.04401218       0.00087082      -0.12751483      -0.10012473       0.02561691       0.01896209
Cu       4.19156295       3.85019642      13.74989000       0.00000000       0.00000000       0.00000000      -0.04499185      -0.00104151      -0.12463264      -0.08290751      -0.03320914      -0.04163775
Cu       4.19156295       6.41699404      13.74989000       0.00000000       0.00000000       0.00000000      -0.04595640       0.00070768      -0.12530437      -0.06501564      -0.00238725      -0.04032452
Cu       4.19156295       8.98379165      13.74989000       0.00000000       0.00000000       0.00000000      -0.04433637      -0.00060256      -0.12767009      -0.06520860       0.02027494       0.00141563
Cu       2.09578148       0.00000000      12.99991200       0.00000000       0.00000000       0.00000000      -0.07822369       0.00001504       0.16954259      -0.06492493      -0.00120222       0.19008718
Cu       2.09578148       2.56679762      12.99991200       0.00000000       0.00000000       0.00000000      -0.07930530       0.00002612       0.17075797      -0.07628943       0.01915396       0.22534883
Cu       2.09578148       5.13359523      12.99991200       0.00000000       0.00000000       0.00000000      -0.08149751       0.00014622       0.17001056      -0.10836800      -0.04070642       0.26334558
Cu       2.09578148       7.70039285      12.99991200       0.00000000       0.00000000       0.00000000      -0.08028805      -0.00008474       0.16792623      -0.12175202       0.01920143       0.24993357
Cu      -0.00000000       1.28339881      12.24993400       0.00000000       0.00000000       0.00000000       0.11790950      -0.00030574       0.43623852       0.12356444      -0.00245830       0.68772308
Cu      -0.00000000       3.85019642      12.24993400       0.00000000       0.00000000       0.00000000       0.11789996       0.00084411       0.43603460       0.12526016       0.02113109       0.72836785
Cu      -0.00000000       6.41699404      12.24993400       0.00000000       0.00000000       0.00000000       0.11771568       0.00033151       0.43674773       0.11667006      -0.00329418       0.71500628
Cu      -0.00000000       8.98379165      12.24993400       0.00000000       0.00000000       0.00000000       0.11774150      -0.00094163       0.43702592       0.12727735      -0.01142581       0.68327788
O        4.27793498       5.10381697      19.52844211       0.02961809      -0.01039685       0.04854517       0.00646220      -0.03106808       0.00948445       0.11861475       0.08124300       0.10488427
C        2.91002181       8.28957324      19.28952208      -0.07549209      -0.09897702       0.10549492       0.00145617      -0.01160697       0.04851044      -0.05272599      -0.17881165      -0.12647770
H        5.19923098       5.09823431      19.84519729       0.03381282      -0.00450145       0.00634845       0.00139965      -0.02412027      -0.02015204      -0.18006192      -0.00122166       0.10411467
O        2.54456765       8.32443424      20.40768777      -0.02742585      -0.03383772      -0.08203096       0.00672406       0.00470636       0.05097493       0.05433897      -0.01058180       0.11707112
40
Lattice="6.2873444314750255 0.0 0.0 0.0 10.26719046282867 0.0 0.0 0.0 28.249757996450562" Properties=species:S:1:pos:R:3:MACE_forces:R:3:forces:R:3:DFT_forces:R:3 adsorbate_info="_JSON {\"top layer atom index\": 0, \"sites\": {}}" method=neb MACE_energy=-161.48998199481693 energy=-161.29518959014217 stress="0.007046669745975515 -5.081940709053173e-06 -2.8341301429322483e-05 -5.081940709053173e-06 0.008150504215825277 0.00014417181696233446 -2.8341301429322483e-05 0.00014417181696233446 0.0014519238666479957" free_energy=-161.29518959014217 DFT_energy=-163.45827385 pbc="T T T"
Cu       4.10924977       1.29503748      18.07964738      -0.00267114       0.00260728       0.14472615      -0.00655368       0.00987067       0.14676571       0.03936946      -0.08378766      -0.08461825
Cu       4.11781469       3.79220784      18.13272900      -0.00116802      -0.00404278       0.14808649      -0.00849748      -0.00975303       0.14360010       0.00858150      -0.06969129      -0.08475043
Cu       4.12925372       6.48546571      18.15773313      -0.03900385       0.04094801       0.17989582      -0.00932419       0.00818123       0.14051927       0.03631213      -0.11326234      -0.04132535
Cu       4.18068970       9.02373667      18.10386113      -0.02385182      -0.00344342       0.15944345      -0.00333753      -0.00521405       0.16530096       0.05634634       0.07769987      -0.21010648
Cu       2.05178447      10.26438777      17.41464680       0.00901537      -0.00554211       0.13311822       0.00524779       0.00953182       0.13054977      -0.04122055       0.17492780      -0.02833310
Cu       2.04711073       2.56421972      17.39332554       0.00672239      -0.00251223       0.12684853       0.00578190      -0.00050047       0.13574989      -0.02152415      -0.01659681       0.01026874
Cu       2.02041298       5.12795825      17.36013857       0.00602253      -0.00872166       0.11958836       0.00082278      -0.00629671       0.12543010      -0.03243689       0.00583854      -0.03583106
Cu       2.03732095       7.70327735      17.44369688       0.02028057       0.01140039       0.15482655       0.00273760       0.00679402       0.12253414      -0.02426459      -0.02024100       0.09240391
Cu       6.27069358       1.27778375      16.73068002      -0.00189037       0.00168840       0.09929583      -0.00189632       0.00325088       0.10749546       0.02390155       0.04072204      -0.01726512
Cu       6.26193372       3.83718505      16.71026783       0.00197086      -0.00470020       0.09274428      -0.00209162      -0.00290750       0.10428321       0.07000739      -0.02209183      -0.04798386
Cu       6.26142731       6.42429722      16.70869258      -0.00143409      -0.00235873       0.08730954       0.00233948      -0.00227907       0.09118126       0.05357090       0.06660659      -0.02819589
Cu       6.27467642       8.99165537      16.71023108      -0.00803740       0.00283438       0.09384080       0.00136989       0.00873066       0.09511712      -0.03106854      -0.07632579       0.00435661
Cu       4.19156295       0.00000000      15.99982400       0.00000000       0.00000000       0.00000000       0.07701543      -0.01228276      -0.39741454       0.12029013      -0.04037366      -0.45800916
Cu       4.19156295       2.56679762      15.99982400       0.00000000       0.00000000       0.00000000       0.06079125       0.02260139      -0.48390274       0.05966026       0.18225521      -0.28748633
Cu       4.19156295       5.13359523      15.99982400       0.00000000       0.00000000       0.00000000       0.06161371       0.02956463      -0.34893328       0.06342728       0.08112677      -0.22623940
Cu       4.19156295       7.70039285      15.99982400       0.00000000       0.00000000       0.00000000       0.08823876       0.01395026      -0.20936861       0.14428125      -0.14488881      -0.43516015
Cu       2.09578148       1.28339881      15.24984600       0.00000000       0.00000000       0.00000000      -0.00300318       0.00259424      -0.31174978      -0.02842221      -0.06767608      -0.27424445
Cu       2.09578148       3.85019642      15.24984600       0.00000000       0.00000000       0.00000000      -0.00920874      -0.00854497      -0.31767027       0.04797518      -0.05507573      -0.31845008
Cu       2.09578148       6.41699404      15.24984600       0.00000000       0.00000000       0.00000000       0.02946652       0.00743201      -0.29188558       0.08275127       0.13692712      -0.15264663
Cu       2.09578148       8.98379165      15.24984600       0.00000000       0.00000000       0.00000000       0.02264743      -0.00868581      -0.29977313       0.03051531      -0.00576245      -0.19852129
Cu       0.00000000       0.00000000      14.49986800       0.00000000       0.00000000       0.00000000      -0.07379243       0.00916075      -0.21769639      -0.12526534       0.03731708      -0.24982283
Cu       0.00000000       2.56679762      14.49986800       0.00000000       0.00000000       0.00000000      -0.07617192      -0.00172173      -0.19074166      -0.12221516      -0.07214074      -0.24426289
Cu       0.00000000       5.13359523      14.49986800       0.00000000       0.00000000       0.00000000      -0.07447422      -0.01155827      -0.21418018      -0.12561858       0.00224734      -0.25471134
Cu       0.00000000       7.70039285      14.49986800       0.00000000       0.00000000       0.00000000      -0.07841858       0.00020544      -0.23319078      -0.08884305       0.00695430      -0.34376759
Cu       4.19156295       1.28339881      13.74989000       0.00000000       0.00000000       0.00000000      -0.04401218       0.00087082      -0.12751483      -0.10112728       0.02403588       0.01979385
Cu       4.19156295       3.85019642      13.74989000       0.00000000       0.00000000       0.00000000      -0.04499185      -0.00104151      -0.12463264      -0.08182952      -0.03321269      -0.04113257
Cu       4.19156295       6.41699404      13.74989000       0.00000000       0.00000000       0.00000000      -0.04595640       0.00070768      -0.12530437      -0.06579181      -0.00216238      -0.04107756
Cu       4.19156295       8.98379165      13.74989000       0.00000000       0.00000000       0.00000000      -0.04433637      -0.00060256      -0.12767009      -0.06545502       0.02118236       0.00652029
Cu       2.09578148       0.00000000      12.99991200       0.00000000       0.00000000       0.00000000      -0.07822369       0.00001504       0.16954259      -0.06557151      -0.00046496       0.19036346
Cu       2.09578148       2.56679762      12.99991200       0.00000000       0.00000000       0.00000000      -0.07930530       0.00002612       0.17075797      -0.08051428       0.01851228       0.22679371
Cu       2.09578148       5.13359523      12.99991200       0.00000000       0.00000000       0.00000000      -0.08149751       0.00014622       0.17001056      -0.10922195      -0.03918739       0.26336650
Cu       2.09578148       7.70039285      12.99991200       0.00000000       0.00000000       0.00000000      -0.08028805      -0.00008474       0.16792623      -0.12149908       0.01827771       0.24702299
Cu      -0.00000000       1.28339881      12.24993400       0.00000000       0.00000000       0.00000000       0.11790950      -0.00030574       0.43623852       0.12611139      -0.00314364       0.68722654
Cu      -0.00000000       3.85019642      12.24993400       0.00000000       0.00000000       0.00000000       0.11789996       0.00084411       0.43603460       0.12690622       0.02165996       0.72731792
Cu      -0.00000000       6.41699404      12.24993400       0.00000000       0.00000000       0.00000000       0.11771568       0.00033151       0.43674773       0.11750731      -0.00384262       0.71435202
Cu      -0.00000000       8.98379165      12.24993400       0.00000000       0.00000000       0.00000000       0.11774150      -0.00094163       0.43702592       0.12819794      -0.01106804       0.68242808
O        4.27457630       5.10262654      19.52952203       0.03191503      -0.00884620       0.04763375       0.00646220      -0.03106808       0.00948445       0.12015849       0.08767904       0.09937816
C        2.84992198       8.26270769      19.25627111       0.00682810      -0.06523303      -0.02187583       0.00145617      -0.01160697       0.04851044      -0.01457349      -0.14840047      -0.00818314
H        5.19557860       5.09681954      19.84710569       0.03478365      -0.00383079       0.00704942       0.00139965      -0.02412027      -0.02015204      -0.16485536       0.03728795       0.02261747
O        2.46165403       8.29471952      20.36703045      -0.03843637      -0.02369700       0.04517963       0.00672406       0.00470636       0.05097493       0.05544710      -0.01186146       0.11791468
40
Lattice="6.2873444314750255 0.0 0.0 0.0 10.26719046282867 0.0 0.0 0.0 28.249757996450562" Properties=species:S:1:pos:R:3:MACE_forces:R:3:forces:R:3:DFT_forces:R:3 adsorbate_info="_JSON {\"top layer atom index\": 0, \"sites\": {}}" method=neb MACE_energy=-161.49037141153462 energy=-161.29518959014217 stress="0.007046669745975515 -5.081940709053173e-06 -2.8341301429322483e-05 -5.081940709053173e-06 0.008150504215825277 0.00014417181696233446 -2.8341301429322483e-05 0.00014417181696233446 0.0014519238666479957" free_energy=-161.29518959014217 DFT_energy=-163.44245556 pbc="T T T"
Cu       4.10844999       1.31331676      18.07924902       0.00618591      -0.04194047       0.14869643      -0.00655368       0.00987067       0.14676571       0.04224237      -0.14184634      -0.07221053
Cu       4.12339620       3.80932944      18.14690390       0.02599379       0.05691257       0.20120559      -0.00849748      -0.00975303       0.14360010       0.02744673       0.00981165      -0.00505790
Cu       4.12569197       6.49117440      18.17699276      -0.07212109       0.08123599       0.19902209      -0.00932419       0.00818123       0.14051927       0.01928842      -0.09933952      -0.04451273
Cu       4.19569882       9.03557330      18.09317802      -0.00058245       0.02040376       0.14047024      -0.00333753      -0.00521405       0.16530096       0.07869233       0.10482398      -0.23344616
Cu       2.05601025      10.27086266      17.40763862       0.01135268      -0.00044601       0.14148060       0.00524779       0.00953182       0.13054977      -0.03478175       0.16190927      -0.01491409
Cu       2.05152628       2.57344025      17.39355721      -0.01063193      -0.01183228       0.12597013       0.00578190      -0.00050047       0.13574989      -0.03669034      -0.02292781       0.01031075
Cu       2.02151139       5.13034696      17.36111228       0.01062941      -0.00356978       0.12308766       0.00082278      -0.00629671       0.12543010      -0.02850853       0.00716601      -0.03974752
Cu       2.03957323       7.70418823      17.44035228       0.03584457       0.02816923       0.18359086       0.00273760       0.00679402       0.12253414      -0.01066084       0.00378825       0.12509240
Cu       6.27101267       1.27888119      16.73001344       0.00228922      -0.00096885       0.10542016      -0.00189632       0.00325088       0.10749546       0.02985069       0.04156053      -0.01273646
Cu       6.25805979       3.83762510      16.71579667       0.01960593      -0.00151292       0.08371816      -0.00209162      -0.00290750       0.10428321       0.08998058      -0.01904415      -0.05828849
Cu       6.25941866       6.42295044      16.71298743      -0.00636998       0.00188260       0.09471212       0.00233948      -0.00227907       0.09118126       0.04017250       0.07407180      -0.01878607
Cu       6.28413566       8.99059665      16.70256589      -0.01867889       0.01072865       0.10487052       0.00136989       0.00873066       0.09511712      -0.03586570      -0.07264024       0.01677884
Cu       4.19156295       0.00000000      15.99982400       0.00000000       0.00000000       0.00000000       0.07701543      -0.01228276      -0.39741454       0.13209466      -0.00905718      -0.46587854
Cu       4.19156295       2.56679762      15.99982400       0.00000000       0.00000000       0.00000000       0.06079125       0.02260139      -0.48390274       0.06538937       0.22614496      -0.26922179
Cu       4.19156295       5.13359523      15.99982400       0.00000000       0.00000000       0.00000000       0.06161371       0.02956463      -0.34893328       0.06624762       0.10078046      -0.17806260
Cu       4.19156295       7.70039285      15.99982400       0.00000000       0.00000000       0.00000000       0.08823876       0.01395026      -0.20936861       0.15081314      -0.16882949      -0.42949647
Cu       2.09578148       1.28339881      15.24984600       0.00000000       0.00000000       0.00000000      -0.00300318       0.00259424      -0.31174978      -0.02879281      -0.04644499      -0.28800081
Cu       2.09578148       3.85019642      15.24984600       0.00000000       0.00000000       0.00000000      -0.00920874      -0.00854497      -0.31767027       0.03707297      -0.04752450      -0.31915984
Cu       2.09578148       6.41699404      15.24984600       0.00000000       0.00000000       0.00000000       0.02946652       0.00743201      -0.29188558       0.07679763       0.13100933      -0.15456300
Cu       2.09578148       8.98379165      15.24984600       0.00000000       0.00000000       0.00000000       0.02264743      -0.00868581      -0.29977313       0.04996596      -0.01015910      -0.20715673
Cu       0.00000000       0.00000000      14.49986800       0.00000000       0.00000000       0.00000000      -0.07379243       0.00916075      -0.21769639      -0.12273817       0.04077234      -0.25813691
Cu       0.00000000       2.56679762      14.49986800       0.00000000       0.00000000       0.00000000      -0.07617192      -0.00172173      -0.19074166      -0.12911730      -0.06577970      -0.23606383
Cu       0.00000000       5.13359523      14.49986800       0.00000000       0.00000000       0.00000000      -0.07447422      -0.01155827      -0.21418018      -0.12580486       0.00075039      -0.24348557
Cu       0.00000000       7.70039285      14.49986800       0.00000000       0.00000000       0.00000000      -0.07841858       0.00020544      -0.23319078      -0.08874087      -0.00176199      -0.34856227
Cu       4.19156295       1.28339881      13.74989000       0.00000000       0.00000000       0.00000000      -0.04401218       0.00087082      -0.12751483      -0.10119622       0.02970323       0.01751833
Cu       4.19156295       3.85019642      13.74989000       0.00000000       0.00000000       0.00000000      -0.04499185      -0.00104151      -0.12463264      -0.08176841      -0.04052952      -0.03976008
Cu       4.19156295       6.41699404      13.74989000       0.00000000       0.00000000       0.00000000      -0.04595640       0.00070768      -0.12530437      -0.06226860       0.00088291      -0.04223666
Cu       4.19156295       8.98379165      13.74989000       0.00000000       0.00000000       0.00000000      -0.04433637      -0.00060256      -0.12767009      -0.06506862       0.01799917      -0.00377569
Cu       2.09578148       0.00000000      12.99991200       0.00000000       0.00000000       0.00000000      -0.07822369       0.00001504       0.16954259      -0.06386330       0.00181195       0.19223159
Cu       2.09578148       2.56679762      12.99991200       0.00000000       0.00000000       0.00000000      -0.07930530       0.00002612       0.17075797      -0.06890826       0.01807018       0.21672222
Cu       2.09578148       5.13359523      12.99991200       0.00000000       0.00000000       0.00000000      -0.08149751       0.00014622       0.17001056      -0.11357622      -0.03940817       0.26533057
Cu       2.09578148       7.70039285      12.99991200       0.00000000       0.00000000       0.00000000      -0.08028805      -0.00008474       0.16792623      -0.11820867       0.01871457       0.25036202
Cu      -0.00000000       1.28339881      12.24993400       0.00000000       0.00000000       0.00000000       0.11790950      -0.00030574       0.43623852       0.12054452       0.00023342       0.68699654
Cu      -0.00000000       3.85019642      12.24993400       0.00000000       0.00000000       0.00000000       0.11789996       0.00084411       0.43603460       0.12666259       0.01916860       0.72322973
Cu      -0.00000000       6.41699404      12.24993400       0.00000000       0.00000000       0.00000000       0.11771568       0.00033151       0.43674773       0.11786344      -0.00380048       0.71436245
Cu      -0.00000000       8.98379165      12.24993400       0.00000000       0.00000000       0.00000000       0.11774150      -0.00094163       0.43702592       0.12370368      -0.01225838       0.68683809
O        4.25607138       5.12072448      19.57084093       0.04336813      -0.09573079      -0.05270991       0.00646220      -0.03106808       0.00948445       0.10995191       0.01262422      -0.03939200
C        2.97303531       8.18212811      19.28465974       0.00839168      -0.10543156      -0.09832561       0.00145617      -0.01160697       0.04851044      -0.07415707      -0.20843292       0.02609362
H        5.16479659       5.14120096      19.92267787       0.01057267      -0.04749530      -0.05282199       0.00139965      -0.02412027      -0.02015204      -0.13868846       0.04390333       0.02254072
O        2.60615360       8.24940909      20.40058480      -0.08573281      -0.04683125       0.11482335       0.00672406       0.00470636       0.05097493       0.02462389      -0.05591607       0.06824487
40
Lattice="6.2873444314750255 0.0 0.0 0.0 10.26719046282867 0.0 0.0 0.0 28.249757996450562" Properties=species:S:1:pos:R:3:MACE_forces:R:3:forces:R:3:DFT_forces:R:3 adsorbate_info="_JSON {\"top layer atom index\": 0, \"sites\": {}}" method=neb MACE_energy=-161.4991221565744 energy=-161.29518959014217 stress="0.007046669745975515 -5.081940709053173e-06 -2.8341301429322483e-05 -5.081940709053173e-06 0.008150504215825277 0.00014417181696233446 -2.8341301429322483e-05 0.00014417181696233446 0.0014519238666479957" free_energy=-161.29518959014217 DFT_energy=-163.44103102 pbc="T T T"
Cu       4.11304492       1.30810769      18.07896147      -0.00167756      -0.01923314       0.14737906      -0.00655368       0.00987067       0.14676571       0.02983718      -0.12277353      -0.07150518
Cu       4.13940174       3.80103642      18.13492984      -0.00553688      -0.00718769       0.14221602      -0.00849748      -0.00975303       0.14360010      -0.01512342      -0.07467198      -0.08699421
Cu       4.11255055       6.50517855      18.18779761      -0.07275398       0.06222435       0.22917628      -0.00932419       0.00818123       0.14051927       0.02143498      -0.14878144      -0.04920259
Cu       4.19752008       9.04265280      18.09845977      -0.03548264      -0.01103091       0.16499959      -0.00333753      -0.00521405       0.16530096       0.03822799       0.07402483      -0.22665956
Cu       2.05888756      10.27272719      17.41021627       0.00313747      -0.00052995       0.13226293       0.00524779       0.00953182       0.13054977      -0.04554037       0.16008324      -0.02855425
Cu       2.05185531       2.57431604      17.39307357       0.00721508      -0.01149280       0.13010879       0.00578190      -0.00050047       0.13574989      -0.01696908      -0.02330871       0.01470917
Cu       2.02443549       5.13483454      17.36128672       0.00750576      -0.01112585       0.12114312       0.00082278      -0.00629671       0.12543010      -0.03417906       0.00130463      -0.04340373
Cu       2.03753103       7.71084392      17.43332969       0.04032211       0.02205391       0.20706240       0.00273760       0.00679402       0.12253414      -0.01669412      -0.01166611       0.13293550
Cu       6.27314488       1.27820775      16.73070564      -0.00466323       0.00981268       0.10229933      -0.00189632       0.00325088       0.10749546       0.02293190       0.05279933      -0.01620251
Cu       6.26434808       3.83951059      16.71079939       0.01258458      -0.00587165       0.08637288      -0.00209162      -0.00290750       0.10428321       0.08318048      -0.02123476      -0.06085246
Cu       6.25531455       6.42494485      16.71826316       0.00400149       0.00039366       0.08713911       0.00233948      -0.00227907       0.09118126       0.04600688       0.07002514      -0.02257715
Cu       6.28450804       8.99387721      16.70337908      -0.01947793       0.00429726       0.10070640       0.00136989       0.00873066       0.09511712      -0.03984932      -0.07876698       0.01665342
Cu       4.19156295       0.00000000      15.99982400       0.00000000       0.00000000       0.00000000       0.07701543      -0.01228276      -0.39741454       0.13144197      -0.01518952      -0.46576122
Cu       4.19156295       2.56679762      15.99982400       0.00000000       0.00000000       0.00000000       0.06079125       0.02260139      -0.48390274       0.07590252       0.20691635      -0.29418098
Cu       4.19156295       5.13359523      15.99982400       0.00000000       0.00000000       0.00000000       0.06161371       0.02956463      -0.34893328       0.07399008       0.11900747      -0.17433918
Cu       4.19156295       7.70039285      15.99982400       0.00000000       0.00000000       0.00000000       0.08823876       0.01395026      -0.20936861       0.14786550      -0.15363006      -0.41410559
Cu       2.09578148       1.28339881      15.24984600       0.00000000       0.00000000       0.00000000      -0.00300318       0.00259424      -0.31174978      -0.02835396      -0.04646221      -0.28875668
Cu       2.09578148       3.85019642      15.24984600       0.00000000       0.00000000       0.00000000      -0.00920874      -0.00854497      -0.31767027       0.04787538      -0.04349820      -0.31927600
Cu       2.09578148       6.41699404      15.24984600       0.00000000       0.00000000       0.00000000       0.02946652       0.00743201      -0.29188558       0.06963934       0.12895999      -0.15874721
Cu       2.09578148       8.98379165      15.24984600       0.00000000       0.00000000       0.00000000       0.02264743      -0.00868581      -0.29977313       0.04962710       0.00214696      -0.21221462
Cu       0.00000000       0.00000000      14.49986800       0.00000000       0.00000000       0.00000000      -0.07379243       0.00916075      -0.21769639      -0.12334189       0.04161587      -0.25852379
Cu       0.00000000       2.56679762      14.49986800       0.00000000       0.00000000       0.00000000      -0.07617192      -0.00172173      -0.19074166      -0.13201718      -0.07033000      -0.24052112
Cu       0.00000000       5.13359523      14.49986800       0.00000000       0.00000000       0.00000000      -0.07447422      -0.01155827      -0.21418018      -0.12730786       0.01093319      -0.24226452
Cu       0.00000000       7.70039285      14.49986800       0.00000000       0.00000000       0.00000000      -0.07841858       0.00020544      -0.23319078      -0.08865341      -0.00323809      -0.33654591
Cu       4.19156295       1.28339881      13.74989000       0.00000000       0.00000000       0.00000000      -0.04401218       0.00087082      -0.12751483      -0.10107902       0.02760773       0.01767145
Cu       4.19156295       3.85019642      13.74989000       0.00000000       0.00000000       0.00000000      -0.04499185      -0.00104151      -0.12463264      -0.08184391      -0.04121866      -0.03869162
Cu       4.19156295       6.41699404      13.74989000       0.00000000       0.00000000       0.00000000      -0.04595640       0.00070768      -0.12530437      -0.06122700       0.00007739      -0.04139038
Cu       4.19156295       8.98379165      13.74989000       0.00000000       0.00000000       0.00000000      -0.04433637      -0.00060256      -0.12767009      -0.06531751       0.02087002      -0.00805567
Cu       2.09578148       0.00000000      12.99991200       0.00000000       0.00000000       0.00000000      -0.07822369       0.00001504       0.16954259      -0.06167025       0.00163884       0.19213994
Cu       2.09578148       2.56679762      12.99991200       0.00000000       0.00000000       0.00000000      -0.07930530       0.00002612       0.17075797      -0.06600480       0.01722393       0.21456869
Cu       2.09578148       5.13359523      12.99991200       0.00000000       0.00000000       0.00000000      -0.08149751       0.00014622       0.17001056      -0.11410049      -0.03887201       0.26640495
Cu       2.09578148       7.70039285      12.99991200       0.00000000       0.00000000       0.00000000      -0.08028805      -0.00008474       0.16792623      -0.11824772       0.01820131       0.25164844
Cu      -0.00000000       1.28339881      12.24993400       0.00000000       0.00000000       0.00000000       0.11790950      -0.00030574       0.43623852       0.11947782       0.00111797       0.68728331
Cu      -0.00000000       3.85019642      12.24993400       0.00000000       0.00000000       0.00000000       0.11789996       0.00084411       0.43603460       0.12634297       0.01801338       0.72303570
Cu      -0.00000000       6.41699404      12.24993400       0.00000000       0.00000000       0.00000000       0.11771568       0.00033151       0.43674773       0.11845123      -0.00436836       0.71586850
Cu      -0.00000000       8.98379165      12.24993400       0.00000000       0.00000000       0.00000000       0.11774150      -0.00094163       0.43702592       0.12261567      -0.01188997       0.68818977
O        4.26080389       5.09110697      19.54765439       0.02602800       0.01067211       0.02699791       0.00646220      -0.03106808       0.00948445       0.09617649       0.16218896       0.08404091
C        3.02045528       8.14893674      19.30883059       0.01637775      -0.15497116      -0.13089044       0.00145617      -0.01160697       0.04851044      -0.07345781      -0.18360453      -0.04326492
H        5.16566500       5.12411382      19.90623623       0.04611420      -0.05397513      -0.03655700       0.00139965      -0.02412027      -0.02015204      -0.06660077       0.01761543       0.05221374
O        2.64780246       8.19319580      20.42450836      -0.06148489      -0.01334423       0.05962634       0.00672406       0.00470636       0.05097493       0.05655349      -0.05886684       0.08522759
40
Lattice="6.2873444314750255 0.0 0.0 0.0 10.26719046282867 0.0 0.0 0.0 28.249757996450562" Properties=species:S:1:pos:R:3:MACE_forces:R:3:forces:R:3:DFT_forces:R:3 adsorbate_info="_JSON {\"top layer atom index\": 0, \"sites\": {}}" method=neb MACE_energy=-161.4961213822514 energy=-161.29518959014217 stress="0.007046669745975515 -5.081940709053173e-06 -2.8341301429322483e-05 -5.081940709053173e-06 0.008150504215825277 0.00014417181696233446 -2.8341301429322483e-05 0.00014417181696233446 0.0014519238666479957" free_energy=-161.29518959014217 DFT_energy=-163.41120836 pbc="T T T"
Cu       4.11665633       1.31971008      18.07940226      -0.00323384      -0.01990817       0.14640884      -0.00655368       0.00987067       0.14676571       0.02395700      -0.13870262      -0.06437338
Cu       4.15333900       3.80780554      18.13313798      -0.00619134      -0.01380606       0.13542467      -0.00849748      -0.00975303       0.14360010      -0.02792337      -0.07656025      -0.10488583
Cu       4.08742946       6.53775193      18.24027086      -0.04785168       0.04084097       0.17977256      -0.00932419       0.00818123       0.14051927       0.03327348      -0.14860683      -0.18634902
Cu       4.22022537       9.06874273      18.09095161      -0.03909561      -0.03344263       0.16417817      -0.00333753      -0.00521405       0.16530096      -0.01657825       0.03194961      -0.20806963
Cu       2.06698584      10.27854042      17.41055774      -0.00836452      -0.00080914       0.12286218       0.00524779       0.00953182       0.13054977      -0.05351694       0.13669628      -0.03143250
Cu       2.05280216       2.58061293      17.39259858       0.01662989      -0.01534445       0.13283541       0.00578190      -0.00050047       0.13574989      -0.00327212      -0.02430004       0.01889453
Cu       2.02837421       5.14143763      17.36192112       0.00549891      -0.01165334       0.12008116       0.00082278      -0.00629671       0.12543010      -0.04092405       0.00358358      -0.05565942
Cu       2.03689389       7.71758136      17.42523607       0.05564140       0.02109496       0.22096418       0.00273760       0.00679402       0.12253414      -0.04126418      -0.00934747       0.07037717
Cu       6.27522788       1.27775263      16.73217123      -0.00870995       0.00940163       0.10125642      -0.00189632       0.00325088       0.10749546       0.02133881       0.05253199      -0.01948084
Cu       6.26648394       3.84082962      16.71269848       0.01708284      -0.00233174       0.07608843      -0.00209162      -0.00290750       0.10428321       0.08906090      -0.01561582      -0.07655157
Cu       6.24886741       6.42531309      16.72855573      -0.00032523      -0.00016014       0.08836909       0.00233948      -0.00227907       0.09118126       0.03033557       0.06661814      -0.02118783
Cu       6.29518150       8.99492195      16.69742152      -0.02290431       0.00878824       0.10260921       0.00136989       0.00873066       0.09511712      -0.04482624      -0.06955284       0.01261002
Cu       4.19156295       0.00000000      15.99982400       0.00000000       0.00000000       0.00000000       0.07701543      -0.01228276      -0.39741454       0.14230077       0.02228497      -0.50175695
Cu       4.19156295       2.56679762      15.99982400       0.00000000       0.00000000       0.00000000       0.06079125       0.02260139      -0.48390274       0.08969844       0.22336943      -0.30536345
Cu       4.19156295       5.13359523      15.99982400       0.00000000       0.00000000       0.00000000       0.06161371       0.02956463      -0.34893328       0.08347150       0.16981233      -0.11597478
Cu       4.19156295       7.70039285      15.99982400       0.00000000       0.00000000       0.00000000       0.08823876       0.01395026      -0.20936861       0.14603620      -0.17124146      -0.36561519
Cu       2.09578148       1.28339881      15.24984600       0.00000000       0.00000000       0.00000000      -0.00300318       0.00259424      -0.31174978      -0.02865312      -0.03548799      -0.29527669
Cu       2.09578148       3.85019642      15.24984600       0.00000000       0.00000000       0.00000000      -0.00920874      -0.00854497      -0.31767027       0.04842752      -0.03618213      -0.31722839
Cu       2.09578148       6.41699404      15.24984600       0.00000000       0.00000000       0.00000000       0.02946652       0.00743201      -0.29188558       0.05825506       0.12234253      -0.16064127
Cu       2.09578148       8.98379165      15.24984600       0.00000000       0.00000000       0.00000000       0.02264743      -0.00868581      -0.29977313       0.07050783       0.01472247      -0.22814493
Cu       0.00000000       0.00000000      14.49986800       0.00000000       0.00000000       0.00000000      -0.07379243       0.00916075      -0.21769639      -0.12182952       0.04588177      -0.26488357
Cu       0.00000000       2.56679762      14.49986800       0.00000000       0.00000000       0.00000000      -0.07617192      -0.00172173      -0.19074166      -0.13760626      -0.06804769      -0.23506209
Cu       0.00000000       5.13359523      14.49986800       0.00000000       0.00000000       0.00000000      -0.07447422      -0.01155827      -0.21418018      -0.12871843       0.01853577      -0.22716686
Cu       0.00000000       7.70039285      14.49986800       0.00000000       0.00000000       0.00000000      -0.07841858       0.00020544      -0.23319078      -0.09162702      -0.01489336      -0.32126776
Cu       4.19156295       1.28339881      13.74989000       0.00000000       0.00000000       0.00000000      -0.04401218       0.00087082      -0.12751483      -0.10014369       0.02728771       0.01847423
Cu       4.19156295       3.85019642      13.74989000       0.00000000       0.00000000       0.00000000      -0.04499185      -0.00104151      -0.12463264      -0.07961358      -0.04551973      -0.03658879
Cu       4.19156295       6.41699404      13.74989000       0.00000000       0.00000000       0.00000000      -0.04595640       0.00070768      -0.12530437      -0.05695397      -0.00119689      -0.04273386
Cu       4.19156295       8.98379165      13.74989000       0.00000000       0.00000000       0.00000000      -0.04433637      -0.00060256      -0.12767009      -0.06735195       0.02377372      -0.01916902
Cu       2.09578148       0.00000000      12.99991200       0.00000000       0.00000000       0.00000000      -0.07822369       0.00001504       0.16954259      -0.05741622       0.00167655       0.19414978
Cu       2.09578148       2.56679762      12.99991200       0.00000000       0.00000000       0.00000000      -0.07930530       0.00002612       0.17075797      -0.05862736       0.01477720       0.20662194
Cu       2.09578148       5.13359523      12.99991200       0.00000000       0.00000000       0.00000000      -0.08149751       0.00014622       0.17001056      -0.11869977      -0.03459061       0.26919970
Cu       2.09578148       7.70039285      12.99991200       0.00000000       0.00000000       0.00000000      -0.08028805      -0.00008474       0.16792623      -0.11482899       0.01681353       0.25436831
Cu      -0.00000000       1.28339881      12.24993400       0.00000000       0.00000000       0.00000000       0.11790950      -0.00030574       0.43623852       0.11412598       0.00578902       0.68441307
Cu      -0.00000000       3.85019642      12.24993400       0.00000000       0.00000000       0.00000000       0.11789996       0.00084411       0.43603460       0.12638881       0.01321239       0.71975121
Cu      -0.00000000       6.41699404      12.24993400       0.00000000       0.00000000       0.00000000       0.11771568       0.00033151       0.43674773       0.12068899      -0.00577275       0.71751369
Cu      -0.00000000       8.98379165      12.24993400       0.00000000       0.00000000       0.00000000       0.11774150      -0.00094163       0.43702592       0.12033219      -0.01157996       0.69149420
O        4.22396047       5.08221970      19.55649797       0.02631119      -0.02383554       0.03807024       0.00646220      -0.03106808       0.00948445       0.09231960       0.17033169       0.15247082
C        3.19308807       8.06879317      19.35467042      -0.04487381      -0.13673788      -0.13188221       0.00145617      -0.01160697       0.04851044      -0.12454690      -0.17843523      -0.11618485
H        5.10232410       5.14437578      19.97150987       0.06575371      -0.09036080      -0.06244987       0.00139965      -0.02412027      -0.02015204       0.03957511       0.00470835       0.24102242
O        2.85053510       8.14809046      20.47978052      -0.07458876      -0.00691341       0.05201807       0.00672406       0.00470636       0.05097493       0.06482818      -0.10106536       0.06968741
40
Lattice="6.2873444314750255 0.0 0.0 0.0 10.26719046282867 0.0 0.0 0.0 28.249757996450562" Properties=species:S:1:pos:R:3:MACE_forces:R:3:forces:R:3:DFT_forces:R:3 adsorbate_info="_JSON {\"top layer atom index\": 0, \"sites\": {}}" method=neb MACE_energy=-161.45748288201412 energy=-161.29518959014217 stress="0.007046669745975515 -5.081940709053173e-06 -2.8341301429322483e-05 -5.081940709053173e-06 0.008150504215825277 0.00014417181696233446 -2.8341301429322483e-05 0.00014417181696233446 0.0014519238666479957" free_energy=-161.29518959014217 DFT_energy=-163.40204155 pbc="T T T"
Cu       4.11599707       1.32047727      18.07919091      -0.00558872      -0.01760321       0.14495975      -0.00655368       0.00987067       0.14676571       0.02121300      -0.14533822      -0.06291836
Cu       4.15301935       3.81074428      18.13710737      -0.00250945      -0.03851271       0.12115570      -0.00849748      -0.00975303       0.14360010      -0.02552254      -0.10624672      -0.12958187
Cu       4.09955397       6.52497221      18.22683291      -0.02837150       0.01570719       0.18144429      -0.00932419       0.00818123       0.14051927       0.00986725      -0.10481399      -0.12250481
Cu       4.21049661       9.06958837      18.08317890      -0.02749756      -0.01679959       0.16224896      -0.00333753      -0.00521405       0.16530096      -0.01543094       0.02272977      -0.20268555
Cu       2.06342059      10.28212016      17.40606572      -0.00185633       0.00280917       0.12802295       0.00524779       0.00953182       0.13054977      -0.03325204       0.11675682      -0.00749768
Cu       2.05458264       2.58095416      17.39275172       0.00248566      -0.01038160       0.12883316       0.00578190      -0.00050047       0.13574989      -0.01735985      -0.01490820       0.01165208
Cu       2.02837791       5.14298708      17.36197464       0.00537038      -0.01007649       0.12011604       0.00082278      -0.00629671       0.12543010      -0.03487438       0.01090777      -0.05581929
Cu       2.04782509       7.72284920      17.43892984       0.04750474       0.01137572       0.20184160       0.00273760       0.00679402       0.12253414      -0.09967462      -0.02740989      -0.03198635
Cu       6.27383243       1.27992312      16.73111082      -0.00560028       0.00414581       0.10323605      -0.00189632       0.00325088       0.10749546       0.02318043       0.04911466      -0.02047183
Cu       6.26707624       3.84298928      16.71208732       0.00892250      -0.00281327       0.08812945      -0.00209162      -0.00290750       0.10428321       0.08162343      -0.01641729      -0.06951040
Cu       6.25630472       6.42803469      16.72850722      -0.00039188      -0.00043419       0.09051258       0.00233948      -0.00227907       0.09118126       0.01678161       0.06097946      -0.02832448
Cu       6.29803524       8.99386229      16.70119657      -0.00932151       0.00559201       0.09662511       0.00136989       0.00873066       0.09511712      -0.04029167      -0.06339435      -0.00085155
Cu       4.19156295       0.00000000      15.99982400       0.00000000       0.00000000       0.00000000       0.07701543      -0.01228276      -0.39741454       0.14605443       0.02882528      -0.51088327
Cu       4.19156295       2.56679762      15.99982400       0.00000000       0.00000000       0.00000000       0.06079125       0.02260139      -0.48390274       0.09513314       0.23566052      -0.29912123
Cu       4.19156295       5.13359523      15.99982400       0.00000000       0.00000000       0.00000000       0.06161371       0.02956463      -0.34893328       0.09987338       0.16920926      -0.11904008
Cu       4.19156295       7.70039285      15.99982400       0.00000000       0.00000000       0.00000000       0.08823876       0.01395026      -0.20936861       0.14660132      -0.17756517      -0.38556799
Cu       2.09578148       1.28339881      15.24984600       0.00000000       0.00000000       0.00000000      -0.00300318       0.00259424      -0.31174978      -0.02685721      -0.02294162      -0.30960447
Cu       2.09578148       3.85019642      15.24984600       0.00000000       0.00000000       0.00000000      -0.00920874      -0.00854497      -0.31767027       0.04960705      -0.03467488      -0.31547116
Cu       2.09578148       6.41699404      15.24984600       0.00000000       0.00000000       0.00000000       0.02946652       0.00743201      -0.29188558       0.06182204       0.13552429      -0.14194336
Cu       2.09578148       8.98379165      15.24984600       0.00000000       0.00000000       0.00000000       0.02264743      -0.00868581      -0.29977313       0.07182786       0.00048743      -0.20923547
Cu       0.00000000       0.00000000      14.49986800       0.00000000       0.00000000       0.00000000      -0.07379243       0.00916075      -0.21769639      -0.12128216       0.03889349      -0.25550981
Cu       0.00000000       2.56679762      14.49986800       0.00000000       0.00000000       0.00000000      -0.07617192      -0.00172173      -0.19074166      -0.14099372      -0.06307705      -0.23601873
Cu       0.00000000       5.13359523      14.49986800       0.00000000       0.00000000       0.00000000      -0.07447422      -0.01155827      -0.21418018      -0.12926475       0.02160399      -0.23062695
Cu       0.00000000       7.70039285      14.49986800       0.00000000       0.00000000       0.00000000      -0.07841858       0.00020544      -0.23319078      -0.09010795      -0.01161579      -0.31393772
Cu       4.19156295       1.28339881      13.74989000       0.00000000       0.00000000       0.00000000      -0.04401218       0.00087082      -0.12751483      -0.09859975       0.02539601       0.01917279
Cu       4.19156295       3.85019642      13.74989000       0.00000000       0.00000000       0.00000000      -0.04499185      -0.00104151      -0.12463264      -0.07724925      -0.04397786      -0.03507390
Cu       4.19156295       6.41699404      13.74989000       0.00000000       0.00000000       0.00000000      -0.04595640       0.00070768      -0.12530437      -0.05495485      -0.00174572      -0.04721608
Cu       4.19156295       8.98379165      13.74989000       0.00000000       0.00000000       0.00000000      -0.04433637      -0.00060256      -0.12767009      -0.07034112       0.02513026      -0.02412677
Cu       2.09578148       0.00000000      12.99991200       0.00000000       0.00000000       0.00000000      -0.07822369       0.00001504       0.16954259      -0.05456692       0.00179000       0.19544464
Cu       2.09578148       2.56679762      12.99991200       0.00000000       0.00000000       0.00000000      -0.07930530       0.00002612       0.17075797      -0.05601205       0.01264729       0.20214871
Cu       2.09578148       5.13359523      12.99991200       0.00000000       0.00000000       0.00000000      -0.08149751       0.00014622       0.17001056      -0.11868093      -0.03110220       0.27072554
Cu       2.09578148       7.70039285      12.99991200       0.00000000       0.00000000       0.00000000      -0.08028805      -0.00008474       0.16792623      -0.11227718       0.01559768       0.25955724
Cu      -0.00000000       1.28339881      12.24993400       0.00000000       0.00000000       0.00000000       0.11790950      -0.00030574       0.43623852       0.11117153       0.00801231       0.68363982
Cu      -0.00000000       3.85019642      12.24993400       0.00000000       0.00000000       0.00000000       0.11789996       0.00084411       0.43603460       0.12547499       0.01130175       0.71984755
Cu      -0.00000000       6.41699404      12.24993400       0.00000000       0.00000000       0.00000000       0.11771568       0.00033151       0.43674773       0.12063922      -0.00555772       0.71900585
Cu      -0.00000000       8.98379165      12.24993400       0.00000000       0.00000000       0.00000000       0.11774150      -0.00094163       0.43702592       0.11840681      -0.01035869       0.69274185
O        4.18018448       5.08085020      19.56545233       0.03917108      -0.05464384       0.02030290       0.00646220      -0.03106808       0.00948445       0.13312908       0.13616552       0.13263951
C        3.35071855       8.02099824      19.41723539      -0.12352755      -0.05139338       0.03438798       0.00145617      -0.01160697       0.04851044      -0.16131386      -0.20271400      -0.26212841
H        5.04534069       5.15216934      20.00617627       0.06784744      -0.09863101      -0.05100012       0.00139965      -0.02412027      -0.02015204       0.08653363       0.07236818       0.43806459
O        3.08891953       8.10345351      20.56352079      -0.07383602      -0.03265532      -0.08191995       0.00672406       0.00470636       0.05097493       0.05996751      -0.11524241       0.08301742
40
Lattice="6.2873444314750255 0.0 0.0 0.0 10.26719046282867 0.0 0.0 0.0 28.249757996450562" Properties=species:S:1:pos:R:3:MACE_forces:R:3:forces:R:3:DFT_forces:R:3 adsorbate_info="_JSON {\"top layer atom index\": 0, \"sites\": {}}" method=neb MACE_energy=-161.4049698719256 energy=-161.29518959014217 stress="0.007046669745975515 -5.081940709053173e-06 -2.8341301429322483e-05 -5.081940709053173e-06 0.008150504215825277 0.00014417181696233446 -2.8341301429322483e-05 0.00014417181696233446 0.0014519238666479957" free_energy=-161.29518959014217 DFT_energy=-163.37602332 pbc="T T T"
Cu       4.11322116       1.32865667      18.07891946      -0.00506018      -0.01272615       0.14491476      -0.00655368       0.00987067       0.14676571       0.02464127      -0.14663091      -0.05796240
Cu       4.14904944       3.82742456      18.15351199       0.01136209      -0.04912833       0.10286314      -0.00849748      -0.00975303       0.14360010      -0.00495931      -0.12551288      -0.15529710
Cu       4.09490349       6.53995588      18.21771361      -0.01779707       0.01198406       0.18595254      -0.00932419       0.00818123       0.14051927       0.01079320      -0.08372184      -0.04972616
Cu       4.19498926       9.07555860      18.08097762      -0.01370216       0.00433538       0.14954732      -0.00333753      -0.00521405       0.16530096      -0.01397602       0.03028288      -0.22938844
Cu       2.05964972      10.28611963      17.40307610      -0.00305480       0.00980568       0.12763138       0.00524779       0.00953182       0.13054977      -0.02730396       0.10454007       0.00338630
Cu       2.05385207       2.58438639      17.39275844       0.00346587      -0.00695423       0.12867150       0.00578190      -0.00050047       0.13574989      -0.01066872      -0.00492474       0.01226385
Cu       2.02481011       5.14502012      17.36144253       0.01098005      -0.00465030       0.12084350       0.00082278      -0.00629671       0.12543010      -0.02293120       0.02609168      -0.04944046
Cu       2.04975487       7.72807728      17.44739409       0.01656326       0.01206079       0.15422195       0.00273760       0.00679402       0.12253414      -0.16865216      -0.03207721      -0.13626333
Cu       6.27258950       1.27976409      16.73040680      -0.00609511       0.00603386       0.10365025      -0.00189632       0.00325088       0.10749546       0.02206758       0.05030547      -0.02121921
Cu       6.26215147       3.84254989      16.71700514       0.01525569       0.00023557       0.08250344      -0.00209162      -0.00290750       0.10428321       0.08940289      -0.01406222      -0.07275267
Cu       6.25674380       6.42811254      16.72892741       0.00240598       0.00268598       0.09379483       0.00233948      -0.00227907       0.09118126       0.01832096       0.06039107      -0.03418271
Cu       6.29643225       8.99250731      16.70394173      -0.00521991       0.00653226       0.09644160       0.00136989       0.00873066       0.09511712      -0.04332499      -0.05226068      -0.00327952
Cu       4.19156295       0.00000000      15.99982400       0.00000000       0.00000000       0.00000000       0.07701543      -0.01228276      -0.39741454       0.14486159       0.03731101      -0.50808292
Cu       4.19156295       2.56679762      15.99982400       0.00000000       0.00000000       0.00000000       0.06079125       0.02260139      -0.48390274       0.09140379       0.27248658      -0.26452663
Cu       4.19156295       5.13359523      15.99982400       0.00000000       0.00000000       0.00000000       0.06161371       0.02956463      -0.34893328       0.09434208       0.16073565      -0.10138339
Cu       4.19156295       7.70039285      15.99982400       0.00000000       0.00000000       0.00000000       0.08823876       0.01395026      -0.20936861       0.12771455      -0.16180396      -0.39440108
Cu       2.09578148       1.28339881      15.24984600       0.00000000       0.00000000       0.00000000      -0.00300318       0.00259424      -0.31174978      -0.02514641      -0.01311507      -0.31637453
Cu       2.09578148       3.85019642      15.24984600       0.00000000       0.00000000       0.00000000      -0.00920874      -0.00854497      -0.31767027       0.04040202      -0.03303919      -0.31103640
Cu       2.09578148       6.41699404      15.24984600       0.00000000       0.00000000       0.00000000       0.02946652       0.00743201      -0.29188558       0.05809198       0.14243014      -0.13073766
Cu       2.09578148       8.98379165      15.24984600       0.00000000       0.00000000       0.00000000       0.02264743      -0.00868581      -0.29977313       0.06828886      -0.00378269      -0.19642292
Cu       0.00000000       0.00000000      14.49986800       0.00000000       0.00000000       0.00000000      -0.07379243       0.00916075      -0.21769639      -0.11966983       0.03272368      -0.24988554
Cu       0.00000000       2.56679762      14.49986800       0.00000000       0.00000000       0.00000000      -0.07617192      -0.00172173      -0.19074166      -0.14343949      -0.05651050      -0.22769680
Cu       0.00000000       5.13359523      14.49986800       0.00000000       0.00000000       0.00000000      -0.07447422      -0.01155827      -0.21418018      -0.13048796       0.02091777      -0.22112745
Cu       0.00000000       7.70039285      14.49986800       0.00000000       0.00000000       0.00000000      -0.07841858       0.00020544      -0.23319078      -0.09005217      -0.01057751      -0.30495428
Cu       4.19156295       1.28339881      13.74989000       0.00000000       0.00000000       0.00000000      -0.04401218       0.00087082      -0.12751483      -0.09778580       0.02285345       0.02182116
Cu       4.19156295       3.85019642      13.74989000       0.00000000       0.00000000       0.00000000      -0.04499185      -0.00104151      -0.12463264      -0.07657491      -0.04050372      -0.03584198
Cu       4.19156295       6.41699404      13.74989000       0.00000000       0.00000000       0.00000000      -0.04595640       0.00070768      -0.12530437      -0.05412305      -0.00343154      -0.04822153
Cu       4.19156295       8.98379165      13.74989000       0.00000000       0.00000000       0.00000000      -0.04433637      -0.00060256      -0.12767009      -0.07176613       0.02545916      -0.02822598
Cu       2.09578148       0.00000000      12.99991200       0.00000000       0.00000000       0.00000000      -0.07822369       0.00001504       0.16954259      -0.05310871       0.00207921       0.19557491
Cu       2.09578148       2.56679762      12.99991200       0.00000000       0.00000000       0.00000000      -0.07930530       0.00002612       0.17075797      -0.05568633       0.01342313       0.20174824
Cu       2.09578148       5.13359523      12.99991200       0.00000000       0.00000000       0.00000000      -0.08149751       0.00014622       0.17001056      -0.11527089      -0.03126457       0.27116702
Cu       2.09578148       7.70039285      12.99991200       0.00000000       0.00000000       0.00000000      -0.08028805      -0.00008474       0.16792623      -0.11096414       0.01536601       0.26530978
Cu      -0.00000000       1.28339881      12.24993400       0.00000000       0.00000000       0.00000000       0.11790950      -0.00030574       0.43623852       0.10934095       0.00800648       0.68391878
Cu      -0.00000000       3.85019642      12.24993400       0.00000000       0.00000000       0.00000000       0.11789996       0.00084411       0.43603460       0.12247978       0.01093698       0.72271557
Cu      -0.00000000       6.41699404      12.24993400       0.00000000       0.00000000       0.00000000       0.11771568       0.00033151       0.43674773       0.11765892      -0.00582108       0.72103017
Cu      -0.00000000       8.98379165      12.24993400       0.00000000       0.00000000       0.00000000       0.11774150      -0.00094163       0.43702592       0.11733125      -0.00842518       0.69284615
O        4.14730718       5.11705649      19.57368191       0.03665642      -0.08302744       0.00465083       0.00646220      -0.03106808       0.00948445       0.14483849       0.08751168       0.10681121
C        3.47612521       8.03837162      19.48588255      -0.09577434      -0.06519184      -0.01645062       0.00145617      -0.01160697       0.04851044      -0.21745956      -0.22423267      -0.20025214
H        4.99570834       5.22865241      20.03872150       0.06331252      -0.14874956      -0.05111778       0.00139965      -0.02412027      -0.02015204       0.20169777       0.10094321       0.36993846
O        3.27973722       8.11263782      20.64274558      -0.09764332      -0.03667972      -0.01107636       0.00672406       0.00470636       0.05097493       0.04967384      -0.17309716       0.08015161
40
Lattice="6.2873444314750255 0.0 0.0 0.0 10.26719046282867 0.0 0.0 0.0 28.249757996450562" Properties=species:S:1:pos:R:3:MACE_forces:R:3:forces:R:3:DFT_forces:R:3 adsorbate_info="_JSON {\"top layer atom index\": 0, \"sites\": {}}" method=neb MACE_energy=-161.36515008278027 energy=-161.29518959014217 stress="0.007046669745975515 -5.081940709053173e-06 -2.8341301429322483e-05 -5.081940709053173e-06 0.008150504215825277 0.00014417181696233446 -2.8341301429322483e-05 0.00014417181696233446 0.0014519238666479957" free_energy=-161.29518959014217 DFT_energy=-163.37026527 pbc="T T T"
Cu       4.10970213       1.32423584      18.07818437      -0.00269952      -0.00015392       0.14478901      -0.00655368       0.00987067       0.14676571       0.02907403      -0.12942533      -0.05400855
Cu       4.16361694       3.83769204      18.16896673      -0.00518187      -0.05343022       0.09651342      -0.00849748      -0.00975303       0.14360010      -0.03517293      -0.12485355      -0.17186239
Cu       4.09571336       6.54247112      18.17029708      -0.03049931       0.04032721       0.23253535      -0.00932419       0.00818123       0.14051927      -0.03150427      -0.03863403       0.12909632
Cu       4.14412926       9.06187879      18.09931214       0.01652710       0.03076440       0.12868865      -0.00333753      -0.00521405       0.16530096       0.04057170       0.09849306      -0.32857824
Cu       2.04560353      10.28973348      17.39916895       0.00519931       0.01034243       0.12942220       0.00524779       0.00953182       0.13054977      -0.01735711       0.09564845      -0.00054884
Cu       2.06063228       2.58799952      17.39465099      -0.00365564      -0.00541099       0.12671039       0.00578190      -0.00050047       0.13574989      -0.01667394       0.00512158       0.01502118
Cu       2.02602752       5.14462903      17.36201552       0.00536440      -0.00189107       0.11905014       0.00082278      -0.00629671       0.12543010      -0.01853157       0.02556734      -0.04288306
Cu       2.03377775       7.73040380      17.44319879       0.01227059       0.01048352       0.14213007       0.00273760       0.00679402       0.12253414      -0.19258116      -0.05657557      -0.19723804
Cu       6.27099579       1.28704342      16.72818247      -0.00397045       0.00132118       0.10528343      -0.00189632       0.00325088       0.10749546       0.02248503       0.04345229      -0.02017013
Cu       6.26522759       3.84432501      16.71551979       0.00648906      -0.00305700       0.09093527      -0.00209162      -0.00290750       0.10428321       0.07953200      -0.01724355      -0.06471985
Cu       6.25966180       6.42720110      16.72360230      -0.00581870       0.00234550       0.09684225       0.00233948      -0.00227907       0.09118126       0.01291367       0.05641887      -0.04234842
Cu       6.27622289       8.99538768      16.71505490       0.00701038       0.00490611       0.08906808       0.00136989       0.00873066       0.09511712      -0.03610964      -0.04631850       0.00527908
Cu       4.19156295       0.00000000      15.99982400       0.00000000       0.00000000       0.00000000       0.07701543      -0.01228276      -0.39741454       0.12162340      -0.00788422      -0.42102011
Cu       4.19156295       2.56679762      15.99982400       0.00000000       0.00000000       0.00000000       0.06079125       0.02260139      -0.48390274       0.09769277       0.29887156      -0.22759243
Cu       4.19156295       5.13359523      15.99982400       0.00000000       0.00000000       0.00000000       0.06161371       0.02956463      -0.34893328       0.09594219       0.11046162      -0.13235263
Cu       4.19156295       7.70039285      15.99982400       0.00000000       0.00000000       0.00000000       0.08823876       0.01395026      -0.20936861       0.09456254      -0.09898437      -0.42780585
Cu       2.09578148       1.28339881      15.24984600       0.00000000       0.00000000       0.00000000      -0.00300318       0.00259424      -0.31174978      -0.02174045      -0.00328501      -0.31870980
Cu       2.09578148       3.85019642      15.24984600       0.00000000       0.00000000       0.00000000      -0.00920874      -0.00854497      -0.31767027       0.04382913      -0.03420220      -0.31427480
Cu       2.09578148       6.41699404      15.24984600       0.00000000       0.00000000       0.00000000       0.02946652       0.00743201      -0.29188558       0.05997010       0.13476319      -0.14091390
Cu       2.09578148       8.98379165      15.24984600       0.00000000       0.00000000       0.00000000       0.02264743      -0.00868581      -0.29977313       0.03526263       0.00178003      -0.18092487
Cu       0.00000000       0.00000000      14.49986800       0.00000000       0.00000000       0.00000000      -0.07379243       0.00916075      -0.21769639      -0.11848581       0.02489930      -0.22973754
Cu       0.00000000       2.56679762      14.49986800       0.00000000       0.00000000       0.00000000      -0.07617192      -0.00172173      -0.19074166      -0.14354232      -0.05015777      -0.23429985
Cu       0.00000000       5.13359523      14.49986800       0.00000000       0.00000000       0.00000000      -0.07447422      -0.01155827      -0.21418018      -0.13362454       0.02131254      -0.22947523
Cu       0.00000000       7.70039285      14.49986800       0.00000000       0.00000000       0.00000000      -0.07841858       0.00020544      -0.23319078      -0.08697450       0.00349672      -0.29198393
Cu       4.19156295       1.28339881      13.74989000       0.00000000       0.00000000       0.00000000      -0.04401218       0.00087082      -0.12751483      -0.09700881       0.01764206       0.02563415
Cu       4.19156295       3.85019642      13.74989000       0.00000000       0.00000000       0.00000000      -0.04499185      -0.00104151      -0.12463264      -0.07700673      -0.03573776      -0.03658817
Cu       4.19156295       6.41699404      13.74989000       0.00000000       0.00000000       0.00000000      -0.04595640       0.00070768      -0.12530437      -0.05472634      -0.00460453      -0.04863818
Cu       4.19156295       8.98379165      13.74989000       0.00000000       0.00000000       0.00000000      -0.04433637      -0.00060256      -0.12767009      -0.07079607       0.02519282      -0.02999721
Cu       2.09578148       0.00000000      12.99991200       0.00000000       0.00000000       0.00000000      -0.07822369       0.00001504       0.16954259      -0.05144448       0.00134943       0.19416338
Cu       2.09578148       2.56679762      12.99991200       0.00000000       0.00000000       0.00000000      -0.07930530       0.00002612       0.17075797      -0.05702418       0.01579845       0.20561931
Cu       2.09578148       5.13359523      12.99991200       0.00000000       0.00000000       0.00000000      -0.08149751       0.00014622       0.17001056      -0.10739710      -0.03375941       0.27029942
Cu       2.09578148       7.70039285      12.99991200       0.00000000       0.00000000       0.00000000      -0.08028805      -0.00008474       0.16792623      -0.11027372       0.01704552       0.26957731
Cu      -0.00000000       1.28339881      12.24993400       0.00000000       0.00000000       0.00000000       0.11790950      -0.00030574       0.43623852       0.10916910       0.00533185       0.68572354
Cu      -0.00000000       3.85019642      12.24993400       0.00000000       0.00000000       0.00000000       0.11789996       0.00084411       0.43603460       0.11874246       0.01179309       0.72748364
Cu      -0.00000000       6.41699404      12.24993400       0.00000000       0.00000000       0.00000000       0.11771568       0.00033151       0.43674773       0.11357308      -0.00609082       0.72369401
Cu      -0.00000000       8.98379165      12.24993400       0.00000000       0.00000000       0.00000000       0.11774150      -0.00094163       0.43702592       0.11754007      -0.00583389       0.69317208
O        4.14408237       5.16879792      19.56542358       0.03834493      -0.11638002       0.01206440       0.00646220      -0.03106808       0.00948445       0.15422450       0.00271212       0.07655317
C        3.48912136       8.08632354      19.55673810      -0.06710978      -0.09818167      -0.03642144       0.00145617      -0.01160697       0.04851044      -0.20461926      -0.24209419      -0.24745642
H        4.98738161       5.31841286      20.02971263       0.05987720      -0.18209783      -0.03422618       0.00139965      -0.02412027      -0.02015204       0.28882352       0.12909134       0.32640636
O        3.29607271       8.09702883      20.71277403      -0.07165088      -0.01429737      -0.05115975       0.00672406       0.00470636       0.05097493       0.04706301      -0.21055853       0.08640547
40
Lattice="6.2873444314750255 0.0 0.0 0.0 10.26719046282867 0.0 0.0 0.0 28.249757996450562" Properties=species:S:1:pos:R:3:MACE_forces:R:3:forces:R:3:DFT_forces:R:3 adsorbate_info="_JSON {\"top layer atom index\": 0, \"sites\": {}}" method=neb MACE_energy=-161.32360633210354 energy=-161.29518959014217 stress="0.007046669745975515 -5.081940709053173e-06 -2.8341301429322483e-05 -5.081940709053173e-06 0.008150504215825277 0.00014417181696233446 -2.8341301429322483e-05 0.00014417181696233446 0.0014519238666479957" free_energy=-161.29518959014217 DFT_energy=-163.34609467 pbc="T T T"
Cu       4.11040108       1.32930899      18.07925237      -0.00107365      -0.00308788       0.14494242      -0.00655368       0.00987067       0.14676571       0.03798964      -0.11968546      -0.05851769
Cu       4.16281367       3.85606800      18.19155633      -0.00033843      -0.05400380       0.09860692      -0.00849748      -0.00975303       0.14360010      -0.02993410      -0.10771393      -0.15599808
Cu       4.10949223       6.52451445      18.12695861      -0.01817053       0.03037882       0.20223946      -0.00932419       0.00818123       0.14051927      -0.04968848      -0.00341195       0.18583019
Cu       4.13477546       9.05372284      18.11037859       0.00824445       0.02071063       0.13106807      -0.00333753      -0.00521405       0.16530096       0.04161163       0.10391917      -0.38663201
Cu       2.04668897      10.28916953      17.40004613       0.00454424       0.01139465       0.13078809       0.00524779       0.00953182       0.13054977      -0.03264468       0.10073672      -0.01555773
Cu       2.06287661       2.59025632      17.39609918       0.00168994      -0.00435626       0.12823030       0.00578190      -0.00050047       0.13574989      -0.00591023       0.00950108       0.02159093
Cu       2.02379192       5.14274993      17.36301253       0.00631824      -0.00089438       0.11891264       0.00082278      -0.00629671       0.12543010      -0.00956155       0.02285167      -0.03878143
Cu       2.03447142       7.72923112      17.43868832       0.01149411       0.01421992       0.14444838       0.00273760       0.00679402       0.12253414      -0.19733827      -0.07540313      -0.23030798
Cu       6.27220431       1.28647847      16.72788914      -0.00270102       0.00384116       0.10444389      -0.00189632       0.00325088       0.10749546       0.02339043       0.04308479      -0.01999335
Cu       6.26138205       3.84327196      16.71984734       0.01008154      -0.00220104       0.08809605      -0.00209162      -0.00290750       0.10428321       0.08467126      -0.01789084      -0.06266420
Cu       6.26490531       6.42699116      16.71782439      -0.00083465       0.00312482       0.09586359       0.00233948      -0.00227907       0.09118126       0.01667843       0.05415592      -0.05368229
Cu       6.27249066       8.99461475      16.71832072       0.00394917       0.00710266       0.09108398       0.00136989       0.00873066       0.09511712      -0.03876896      -0.03875625       0.01434892
Cu       4.19156295       0.00000000      15.99982400       0.00000000       0.00000000       0.00000000       0.07701543      -0.01228276      -0.39741454       0.12364377      -0.03590586      -0.36181422
Cu       4.19156295       2.56679762      15.99982400       0.00000000       0.00000000       0.00000000       0.06079125       0.02260139      -0.48390274       0.09816723       0.32407607      -0.18450211
Cu       4.19156295       5.13359523      15.99982400       0.00000000       0.00000000       0.00000000       0.06161371       0.02956463      -0.34893328       0.09492585       0.04510360      -0.17662047
Cu       4.19156295       7.70039285      15.99982400       0.00000000       0.00000000       0.00000000       0.08823876       0.01395026      -0.20936861       0.08790756      -0.04297806      -0.44695621
Cu       2.09578148       1.28339881      15.24984600       0.00000000       0.00000000       0.00000000      -0.00300318       0.00259424      -0.31174978      -0.01853781      -0.00492296      -0.30960809
Cu       2.09578148       3.85019642      15.24984600       0.00000000       0.00000000       0.00000000      -0.00920874      -0.00854497      -0.31767027       0.03573727      -0.03481521      -0.31110385
Cu       2.09578148       6.41699404      15.24984600       0.00000000       0.00000000       0.00000000       0.02946652       0.00743201      -0.29188558       0.06428585       0.12395709      -0.15746316
Cu       2.09578148       8.98379165      15.24984600       0.00000000       0.00000000       0.00000000       0.02264743      -0.00868581      -0.29977313       0.02785145       0.00801639      -0.17904998
Cu       0.00000000       0.00000000      14.49986800       0.00000000       0.00000000       0.00000000      -0.07379243       0.00916075      -0.21769639      -0.11631749       0.02039858      -0.22653518
Cu       0.00000000       2.56679762      14.49986800       0.00000000       0.00000000       0.00000000      -0.07617192      -0.00172173      -0.19074166      -0.14373201      -0.04622852      -0.22625215
Cu       0.00000000       5.13359523      14.49986800       0.00000000       0.00000000       0.00000000      -0.07447422      -0.01155827      -0.21418018      -0.13474738       0.01512275      -0.22739932
Cu       0.00000000       7.70039285      14.49986800       0.00000000       0.00000000       0.00000000      -0.07841858       0.00020544      -0.23319078      -0.08582812       0.01092376      -0.29707480
Cu       4.19156295       1.28339881      13.74989000       0.00000000       0.00000000       0.00000000      -0.04401218       0.00087082      -0.12751483      -0.09638378       0.01502169       0.02755590
Cu       4.19156295       3.85019642      13.74989000       0.00000000       0.00000000       0.00000000      -0.04499185      -0.00104151      -0.12463264      -0.07710287      -0.03341729      -0.03536174
Cu       4.19156295       6.41699404      13.74989000       0.00000000       0.00000000       0.00000000      -0.04595640       0.00070768      -0.12530437      -0.05635683      -0.00405175      -0.04575936
Cu       4.19156295       8.98379165      13.74989000       0.00000000       0.00000000       0.00000000      -0.04433637      -0.00060256      -0.12767009      -0.06797955       0.02215681      -0.03214277
Cu       2.09578148       0.00000000      12.99991200       0.00000000       0.00000000       0.00000000      -0.07822369       0.00001504       0.16954259      -0.05108805       0.00150218       0.19224861
Cu       2.09578148       2.56679762      12.99991200       0.00000000       0.00000000       0.00000000      -0.07930530       0.00002612       0.17075797      -0.05709033       0.01787498       0.21089610
Cu       2.09578148       5.13359523      12.99991200       0.00000000       0.00000000       0.00000000      -0.08149751       0.00014622       0.17001056      -0.10101821      -0.03506961       0.26717675
Cu       2.09578148       7.70039285      12.99991200       0.00000000       0.00000000       0.00000000      -0.08028805      -0.00008474       0.16792623      -0.10806893       0.01706289       0.27179404
Cu      -0.00000000       1.28339881      12.24993400       0.00000000       0.00000000       0.00000000       0.11790950      -0.00030574       0.43623852       0.10893508       0.00204175       0.68666087
Cu      -0.00000000       3.85019642      12.24993400       0.00000000       0.00000000       0.00000000       0.11789996       0.00084411       0.43603460       0.11498086       0.01327862       0.73079659
Cu      -0.00000000       6.41699404      12.24993400       0.00000000       0.00000000       0.00000000       0.11771568       0.00033151       0.43674773       0.11115091      -0.00689295       0.72427631
Cu      -0.00000000       8.98379165      12.24993400       0.00000000       0.00000000       0.00000000       0.11774150      -0.00094163       0.43702592       0.11872918      -0.00377338       0.69114719
O        4.15159673       5.22636351      19.57637798       0.01818672      -0.12336294       0.00004094       0.00646220      -0.03106808       0.00948445       0.14342012      -0.08293499       0.02933520
C        3.48620948       8.17809925      19.61164915      -0.07100829      -0.05479996      -0.01953404       0.00145617      -0.01160697       0.04851044      -0.20707380      -0.26406666      -0.24370642
H        4.99146135       5.40424225      20.03770767       0.05002865      -0.21176889      -0.04449029       0.00139965      -0.02412027      -0.02015204       0.30783258       0.23287407       0.35693227
O        3.28171916       8.14142587      20.76105017      -0.06158549      -0.00332780      -0.02418961       0.00672406       0.00470636       0.05097493       0.04326232      -0.24574178       0.07289474
40
Lattice="6.2873444314750255 0.0 0.0 0.0 10.26719046282867 0.0 0.0 0.0 28.249757996450562" Properties=species:S:1:pos:R:3:MACE_forces:R:3:forces:R:3:DFT_forces:R:3 adsorbate_info="_JSON {\"top layer atom index\": 0, \"sites\": {}}" method=neb MACE_energy=-161.25763018319583 energy=-161.29518959014217 stress="0.007046669745975515 -5.081940709053173e-06 -2.8341301429322483e-05 -5.081940709053173e-06 0.008150504215825277 0.00014417181696233446 -2.8341301429322483e-05 0.00014417181696233446 0.0014519238666479957" free_energy=-161.29518959014217 DFT_energy=-163.28776052 pbc="T T T"
Cu       4.11045850       1.33889954      18.08127626       0.00599642       0.01087941       0.14586897      -0.00655368       0.00987067       0.14676571       0.05283004      -0.09197590      -0.06590779
Cu       4.15997926       3.89639954      18.22951860       0.02540696      -0.06068675       0.10758576      -0.00849748      -0.00975303       0.14360010      -0.00285671      -0.09018422      -0.12456365
Cu       4.12105992       6.51357427      18.09093766      -0.03181870       0.05953906       0.20833448      -0.00932419       0.00818123       0.14051927      -0.05665873       0.02374990       0.17163213
Cu       4.12963414       9.04496169      18.12269927      -0.00088731       0.03907672       0.12919647      -0.00333753      -0.00521405       0.16530096       0.03937191       0.13660780      -0.42789337
Cu       2.04933559      10.28777874      17.40016935       0.00587690       0.01843462       0.13407909       0.00524779       0.00953182       0.13054977      -0.04301487       0.10465080      -0.02367282
Cu       2.06695033       2.59351660      17.39865031       0.00935589       0.00397674       0.12980907       0.00578190      -0.00050047       0.13574989       0.00663239       0.02349529       0.03256299
Cu       2.02380244       5.14000814      17.36518195       0.00656186       0.00294605       0.11818230       0.00082278      -0.00629671       0.12543010      -0.00500968       0.01886265      -0.03816163
Cu       2.03655437       7.72578213      17.43247761       0.00551724       0.02391008       0.14462183       0.00273760       0.00679402       0.12253414      -0.20825402      -0.06976048      -0.25062055
Cu       6.27365008       1.28575987      16.72775185       0.00135340       0.00598931       0.10404251      -0.00189632       0.00325088       0.10749546       0.02923525       0.04318274      -0.02031498
Cu       6.25604465       3.84249965      16.72634318       0.01179429      -0.00379417       0.08894234      -0.00209162      -0.00290750       0.10428321       0.08463716      -0.02319595      -0.05643888
Cu       6.27065083       6.42565213      16.71228137      -0.00248982       0.00291223       0.09484359       0.00233948      -0.00227907       0.09118126       0.01812035       0.05370553      -0.06546604
Cu       6.27019263       8.99313621      16.72126041       0.00074336       0.01031893       0.09183073       0.00136989       0.00873066       0.09511712      -0.03995299      -0.03221504       0.01915824
Cu       4.19156295       0.00000000      15.99982400       0.00000000       0.00000000       0.00000000       0.07701543      -0.01228276      -0.39741454       0.12861111      -0.05643829      -0.29475024
Cu       4.19156295       2.56679762      15.99982400       0.00000000       0.00000000       0.00000000       0.06079125       0.02260139      -0.48390274       0.09986875       0.36130797      -0.12434789
Cu       4.19156295       5.13359523      15.99982400       0.00000000       0.00000000       0.00000000       0.06161371       0.02956463      -0.34893328       0.09328626      -0.02004390      -0.20782154
Cu       4.19156295       7.70039285      15.99982400       0.00000000       0.00000000       0.00000000       0.08823876       0.01395026      -0.20936861       0.08686790       0.01633557      -0.47782392
Cu       2.09578148       1.28339881      15.24984600       0.00000000       0.00000000       0.00000000      -0.00300318       0.00259424      -0.31174978      -0.01592671      -0.00196730      -0.29865322
Cu       2.09578148       3.85019642      15.24984600       0.00000000       0.00000000       0.00000000      -0.00920874      -0.00854497      -0.31767027       0.02246895      -0.03605545      -0.30624095
Cu       2.09578148       6.41699404      15.24984600       0.00000000       0.00000000       0.00000000       0.02946652       0.00743201      -0.29188558       0.06938393       0.10824796      -0.17626574
Cu       2.09578148       8.98379165      15.24984600       0.00000000       0.00000000       0.00000000       0.02264743      -0.00868581      -0.29977313       0.02156551       0.01366199      -0.18304315
Cu       0.00000000       0.00000000      14.49986800       0.00000000       0.00000000       0.00000000      -0.07379243       0.00916075      -0.21769639      -0.11463426       0.01576804      -0.22346873
Cu       0.00000000       2.56679762      14.49986800       0.00000000       0.00000000       0.00000000      -0.07617192      -0.00172173      -0.19074166      -0.14390429      -0.03877906      -0.21402833
Cu       0.00000000       5.13359523      14.49986800       0.00000000       0.00000000       0.00000000      -0.07447422      -0.01155827      -0.21418018      -0.13536280       0.00573705      -0.22433991
Cu       0.00000000       7.70039285      14.49986800       0.00000000       0.00000000       0.00000000      -0.07841858       0.00020544      -0.23319078      -0.08619705       0.01869417      -0.30071903
Cu       4.19156295       1.28339881      13.74989000       0.00000000       0.00000000       0.00000000      -0.04401218       0.00087082      -0.12751483      -0.09579426       0.01485712       0.02820515
Cu       4.19156295       3.85019642      13.74989000       0.00000000       0.00000000       0.00000000      -0.04499185      -0.00104151      -0.12463264      -0.07742184      -0.03207197      -0.03418746
Cu       4.19156295       6.41699404      13.74989000       0.00000000       0.00000000       0.00000000      -0.04595640       0.00070768      -0.12530437      -0.05865745      -0.00278815      -0.04589222
Cu       4.19156295       8.98379165      13.74989000       0.00000000       0.00000000       0.00000000      -0.04433637      -0.00060256      -0.12767009      -0.06608562       0.01837978      -0.03382911
Cu       2.09578148       0.00000000      12.99991200       0.00000000       0.00000000       0.00000000      -0.07822369       0.00001504       0.16954259      -0.05199761       0.00268521       0.19211390
Cu       2.09578148       2.56679762      12.99991200       0.00000000       0.00000000       0.00000000      -0.07930530       0.00002612       0.17075797      -0.05636694       0.01940501       0.21406199
Cu       2.09578148       5.13359523      12.99991200       0.00000000       0.00000000       0.00000000      -0.08149751       0.00014622       0.17001056      -0.09707846      -0.03412429       0.26367819
Cu       2.09578148       7.70039285      12.99991200       0.00000000       0.00000000       0.00000000      -0.08028805      -0.00008474       0.16792623      -0.10556082       0.01699665       0.27273615
Cu      -0.00000000       1.28339881      12.24993400       0.00000000       0.00000000       0.00000000       0.11790950      -0.00030574       0.43623852       0.10674875       0.00058124       0.68801023
Cu      -0.00000000       3.85019642      12.24993400       0.00000000       0.00000000       0.00000000       0.11789996       0.00084411       0.43603460       0.11095106       0.01397681       0.73182239
Cu      -0.00000000       6.41699404      12.24993400       0.00000000       0.00000000       0.00000000       0.11771568       0.00033151       0.43674773       0.10988954      -0.00686684       0.72427092
Cu      -0.00000000       8.98379165      12.24993400       0.00000000       0.00000000       0.00000000       0.11774150      -0.00094163       0.43702592       0.11963083      -0.00204876       0.69063346
O        4.16781027       5.32838177      19.61068637       0.00836772      -0.20451893      -0.04731456       0.00646220      -0.03106808       0.00948445       0.13234547      -0.27796857      -0.04298884
C        3.48748843       8.24978390      19.65959465      -0.08055367       0.00293660      -0.02995684       0.00145617      -0.01160697       0.04851044      -0.18265376      -0.27357070      -0.28341114
H        4.99815346       5.56584621      20.06471921       0.02768380      -0.28205754      -0.06606590       0.00139965      -0.02412027      -0.02015204       0.28121561       0.38669952       0.47154821
O        3.25707532       8.19084638      20.80033925      -0.03707726      -0.00527064      -0.01108883       0.00672406       0.00470636       0.05097493       0.02972808      -0.32753392       0.04441719
40
Lattice="6.2873444314750255 0.0 0.0 0.0 10.26719046282867 0.0 0.0 0.0 28.249757996450562" Properties=species:S:1:pos:R:3:MACE_forces:R:3:forces:R:3:DFT_forces:R:3 adsorbate_info="_JSON {\"top layer atom index\": 0, \"sites\": {}}" method=neb MACE_energy=-161.14073144923384 energy=-161.29518959014217 stress="0.007046669745975515 -5.081940709053173e-06 -2.8341301429322483e-05 -5.081940709053173e-06 0.008150504215825277 0.00014417181696233446 -2.8341301429322483e-05 0.00014417181696233446 0.0014519238666479957" free_energy=-161.29518959014217 DFT_energy=-163.14859768 pbc="T T T"
Cu       4.10694599       1.33749130      18.08215978       0.01149114       0.04992979       0.14864520      -0.00655368       0.00987067       0.14676571       0.06158276      -0.04727803      -0.06428240
Cu       4.14334890       3.93183230      18.25363340       0.06753246       0.01951853       0.22068560      -0.00849748      -0.00975303       0.14360010       0.05773633      -0.00118493      -0.01217119
Cu       4.13404440       6.49459598      18.06752956      -0.04806851       0.12699079       0.20373389      -0.00932419       0.00818123       0.14051927      -0.07235075       0.10312590       0.16990165
Cu       4.12870663       9.02672787      18.13389869      -0.00616435       0.07931053       0.12001675      -0.00333753      -0.00521405       0.16530096       0.03435391       0.18717603      -0.43821139
Cu       2.05086174      10.28304050      17.39786611       0.00860965       0.02521071       0.13858552       0.00524779       0.00953182       0.13054977      -0.03543821       0.09032004      -0.01516172
Cu       2.06570152       2.59155551      17.39993137       0.02758343       0.02105984       0.13472262       0.00578190      -0.00050047       0.13574989       0.02974178       0.04644655       0.04683700
Cu       2.02356309       5.13551216      17.36747480       0.00632518       0.00598348       0.11505033       0.00082278      -0.00629671       0.12543010      -0.00482313       0.01470557      -0.03829145
Cu       2.04169450       7.71736000      17.42822897      -0.00310934       0.03547227       0.14355537       0.00273760       0.00679402       0.12253414      -0.21847685      -0.04063845      -0.25239476
Cu       6.27296970       1.28433710      16.72782028       0.00641291       0.00693798       0.10357553      -0.00189632       0.00325088       0.10749546       0.03664099       0.04336231      -0.02207923
Cu       6.25052802       3.84277740      16.73159470       0.00572896      -0.00735424       0.09649826      -0.00209162      -0.00290750       0.10428321       0.07733124      -0.03230656      -0.05039966
Cu       6.27509218       6.42430243      16.70792176      -0.00252192       0.00085144       0.09440662       0.00233948      -0.00227907       0.09118126       0.02123778       0.05260580      -0.07386042
Cu       6.27006381       8.99094384      16.72254543      -0.00198859       0.01047926       0.09521153       0.00136989       0.00873066       0.09511712      -0.03826380      -0.03186329       0.02056478
Cu       4.19156295       0.00000000      15.99982400       0.00000000       0.00000000       0.00000000       0.07701543      -0.01228276      -0.39741454       0.13141825      -0.08966072      -0.23497098
Cu       4.19156295       2.56679762      15.99982400       0.00000000       0.00000000       0.00000000       0.06079125       0.02260139      -0.48390274       0.09483883       0.37016704      -0.08475409
Cu       4.19156295       5.13359523      15.99982400       0.00000000       0.00000000       0.00000000       0.06161371       0.02956463      -0.34893328       0.08867858      -0.06076208      -0.24195090
Cu       4.19156295       7.70039285      15.99982400       0.00000000       0.00000000       0.00000000       0.08823876       0.01395026      -0.20936861       0.08943062       0.04196516      -0.50892100
Cu       2.09578148       1.28339881      15.24984600       0.00000000       0.00000000       0.00000000      -0.00300318       0.00259424      -0.31174978      -0.01528594       0.00223699      -0.29522484
Cu       2.09578148       3.85019642      15.24984600       0.00000000       0.00000000       0.00000000      -0.00920874      -0.00854497      -0.31767027       0.00884928      -0.04060071      -0.30318312
Cu       2.09578148       6.41699404      15.24984600       0.00000000       0.00000000       0.00000000       0.02946652       0.00743201      -0.29188558       0.07430236       0.09203402      -0.19172504
Cu       2.09578148       8.98379165      15.24984600       0.00000000       0.00000000       0.00000000       0.02264743      -0.00868581      -0.29977313       0.01961965       0.00940091      -0.19007875
Cu       0.00000000       0.00000000      14.49986800       0.00000000       0.00000000       0.00000000      -0.07379243       0.00916075      -0.21769639      -0.11399275       0.01096547      -0.22152244
Cu       0.00000000       2.56679762      14.49986800       0.00000000       0.00000000       0.00000000      -0.07617192      -0.00172173      -0.19074166      -0.14284377      -0.03107996      -0.19997012
Cu       0.00000000       5.13359523      14.49986800       0.00000000       0.00000000       0.00000000      -0.07447422      -0.01155827      -0.21418018      -0.13363055      -0.00630554      -0.22417366
Cu       0.00000000       7.70039285      14.49986800       0.00000000       0.00000000       0.00000000      -0.07841858       0.00020544      -0.23319078      -0.08776259       0.02370597      -0.30300233
Cu       4.19156295       1.28339881      13.74989000       0.00000000       0.00000000       0.00000000      -0.04401218       0.00087082      -0.12751483      -0.09589505       0.01572526       0.02808278
Cu       4.19156295       3.85019642      13.74989000       0.00000000       0.00000000       0.00000000      -0.04499185      -0.00104151      -0.12463264      -0.07716475      -0.03116020      -0.03010440
Cu       4.19156295       6.41699404      13.74989000       0.00000000       0.00000000       0.00000000      -0.04595640       0.00070768      -0.12530437      -0.06060937      -0.00224498      -0.05122475
Cu       4.19156295       8.98379165      13.74989000       0.00000000       0.00000000       0.00000000      -0.04433637      -0.00060256      -0.12767009      -0.06547825       0.01464254      -0.03420704
Cu       2.09578148       0.00000000      12.99991200       0.00000000       0.00000000       0.00000000      -0.07822369       0.00001504       0.16954259      -0.05411065       0.00197943       0.19581814
Cu       2.09578148       2.56679762      12.99991200       0.00000000       0.00000000       0.00000000      -0.07930530       0.00002612       0.17075797      -0.05440463       0.01958526       0.21416616
Cu       2.09578148       5.13359523      12.99991200       0.00000000       0.00000000       0.00000000      -0.08149751       0.00014622       0.17001056      -0.09652919      -0.03347054       0.26279437
Cu       2.09578148       7.70039285      12.99991200       0.00000000       0.00000000       0.00000000      -0.08028805      -0.00008474       0.16792623      -0.10302521       0.01667561       0.27306433
Cu      -0.00000000       1.28339881      12.24993400       0.00000000       0.00000000       0.00000000       0.11790950      -0.00030574       0.43623852       0.10284046      -0.00017101       0.69038963
Cu      -0.00000000       3.85019642      12.24993400       0.00000000       0.00000000       0.00000000       0.11789996       0.00084411       0.43603460       0.10792827       0.01338956       0.72965604
Cu      -0.00000000       6.41699404      12.24993400       0.00000000       0.00000000       0.00000000       0.11771568       0.00033151       0.43674773       0.10951694      -0.00649207       0.72519798
Cu      -0.00000000       8.98379165      12.24993400       0.00000000       0.00000000       0.00000000       0.11774150      -0.00094163       0.43702592       0.11940658      -0.00176309       0.69244694
O        4.18561342       5.46026944      19.66943459       0.04678932      -0.46220203      -0.16028600       0.00646220      -0.03106808       0.00948445       0.14612793      -0.56973372      -0.12540978
C        3.49745484       8.24982460      19.68864287      -0.12449590       0.13571221      -0.03959593       0.00145617      -0.01160697       0.04851044      -0.13182422      -0.33027406      -0.30526142
H        5.01242659       5.74594238      20.10631865      -0.02791961      -0.33930826      -0.10245576       0.00139965      -0.02412027      -0.02015204       0.20500780       0.58754307       0.46907007
O        3.22454988       8.22454901      20.81961053      -0.00209138      -0.03261138      -0.00960344       0.00672406       0.00470636       0.05097493      -0.01468066      -0.40076857      -0.00545300
40
Lattice="6.2873444314750255 0.0 0.0 0.0 10.26719046282867 0.0 0.0 0.0 28.249757996450562" Properties=species:S:1:pos:R:3:MACE_forces:R:3:forces:R:3:DFT_forces:R:3 adsorbate_info="_JSON {\"top layer atom index\": 0, \"sites\": {}}" method=neb MACE_energy=-160.84946790865416 energy=-161.29518959014217 stress="0.007046669745975515 -5.081940709053173e-06 -2.8341301429322483e-05 -5.081940709053173e-06 0.008150504215825277 0.00014417181696233446 -2.8341301429322483e-05 0.00014417181696233446 0.0014519238666479957" free_energy=-161.29518959014217 DFT_energy=-162.85844779 pbc="T T T"
Cu       4.10098562       1.31923492      18.08166338       0.00710330       0.07536383       0.15044238      -0.00655368       0.00987067       0.14676571       0.06233320      -0.00153850      -0.06618330
Cu       4.11429868       3.92162867      18.21912429       0.06073142       0.21393003       0.40629550      -0.00849748      -0.00975303       0.14360010       0.07112624       0.03997545       0.05377232
Cu       4.15294429       6.44859612      18.04719473      -0.03570957       0.21461023       0.16209493      -0.00932419       0.00818123       0.14051927      -0.05965344       0.14593363       0.07436675
Cu       4.12599296       8.99816152      18.14953287      -0.01262592       0.08987163       0.12801559      -0.00333753      -0.00521405       0.16530096       0.02215025       0.18047852      -0.42560116
Cu       2.04865293      10.27642717      17.39378221       0.01017384       0.02255201       0.13782934       0.00524779       0.00953182       0.13054977      -0.00877618       0.04169327       0.00342701
Cu       2.05645062       2.58188772      17.39870687       0.04783175       0.03542058       0.14067563       0.00578190      -0.00050047       0.13574989       0.04414314       0.05504248       0.05797427
Cu       2.02537715       5.13014272      17.37108136       0.00270666       0.00460685       0.11194850       0.00082278      -0.00629671       0.12543010      -0.02421772       0.00760528      -0.03711194
Cu       2.04870267       7.70617891      17.42377730      -0.00590172       0.03074991       0.13161117       0.00273760       0.00679402       0.12253414      -0.21925137      -0.00779207      -0.24964405
Cu       6.26960936       1.28305812      16.72785925       0.00845088       0.00582265       0.10317405      -0.00189632       0.00325088       0.10749546       0.03521274       0.04292675      -0.02536873
Cu       6.25014363       3.84494681      16.73214175      -0.00949146      -0.00909822       0.10774417      -0.00209162      -0.00290750       0.10428321       0.05923052      -0.04233427      -0.04509514
Cu       6.27934362       6.42381121      16.70473138       0.00142847      -0.00332864       0.09228092       0.00233948      -0.00227907       0.09118126       0.03622551       0.04727983      -0.07979096
Cu       6.26961789       8.98851105      16.72381557      -0.00528250       0.00905680       0.09816142       0.00136989       0.00873066       0.09511712      -0.03013535      -0.03567183       0.01331425
Cu       4.19156295       0.00000000      15.99982400       0.00000000       0.00000000       0.00000000       0.07701543      -0.01228276      -0.39741454       0.12654599      -0.15558529      -0.17670195
Cu       4.19156295       2.56679762      15.99982400       0.00000000       0.00000000       0.00000000       0.06079125       0.02260139      -0.48390274       0.09288358       0.31619269      -0.10180803
Cu       4.19156295       5.13359523      15.99982400       0.00000000       0.00000000       0.00000000       0.06161371       0.02956463      -0.34893328       0.09095911      -0.07217097      -0.36272700
Cu       4.19156295       7.70039285      15.99982400       0.00000000       0.00000000       0.00000000       0.08823876       0.01395026      -0.20936861       0.09279182       0.04237430      -0.49498060
Cu       2.09578148       1.28339881      15.24984600       0.00000000       0.00000000       0.00000000      -0.00300318       0.00259424      -0.31174978      -0.01748343       0.00958224      -0.30324220
Cu       2.09578148       3.85019642      15.24984600       0.00000000       0.00000000       0.00000000      -0.00920874      -0.00854497      -0.31767027      -0.00142857      -0.04634722      -0.30757677
Cu       2.09578148       6.41699404      15.24984600       0.00000000       0.00000000       0.00000000       0.02946652       0.00743201      -0.29188558       0.08155425       0.07166093      -0.20693165
Cu       2.09578148       8.98379165      15.24984600       0.00000000       0.00000000       0.00000000       0.02264743      -0.00868581      -0.29977313       0.01923746      -0.00219302      -0.19624082
Cu       0.00000000       0.00000000      14.49986800       0.00000000       0.00000000       0.00000000      -0.07379243       0.00916075      -0.21769639      -0.11411947       0.00575393      -0.21799817
Cu       0.00000000       2.56679762      14.49986800       0.00000000       0.00000000       0.00000000      -0.07617192      -0.00172173      -0.19074166      -0.13380282      -0.02138599      -0.19109281
Cu       0.00000000       5.13359523      14.49986800       0.00000000       0.00000000       0.00000000      -0.07447422      -0.01155827      -0.21418018      -0.12723250      -0.02103631      -0.23123086
Cu       0.00000000       7.70039285      14.49986800       0.00000000       0.00000000       0.00000000      -0.07841858       0.00020544      -0.23319078      -0.09461505       0.03037666      -0.30107957
Cu       4.19156295       1.28339881      13.74989000       0.00000000       0.00000000       0.00000000      -0.04401218       0.00087082      -0.12751483      -0.09316467       0.01721375       0.02690294
Cu       4.19156295       3.85019642      13.74989000       0.00000000       0.00000000       0.00000000      -0.04499185      -0.00104151      -0.12463264      -0.07555279      -0.03394793      -0.02071219
Cu       4.19156295       6.41699404      13.74989000       0.00000000       0.00000000       0.00000000      -0.04595640       0.00070768      -0.12530437      -0.06039544       0.00418677      -0.05995384
Cu       4.19156295       8.98379165      13.74989000       0.00000000       0.00000000       0.00000000      -0.04433637      -0.00060256      -0.12767009      -0.06437525       0.00811868      -0.03625784
Cu       2.09578148       0.00000000      12.99991200       0.00000000       0.00000000       0.00000000      -0.07822369       0.00001504       0.16954259      -0.05423162      -0.00635586       0.20154957
Cu       2.09578148       2.56679762      12.99991200       0.00000000       0.00000000       0.00000000      -0.07930530       0.00002612       0.17075797      -0.05199856       0.02044447       0.21432588
Cu       2.09578148       5.13359523      12.99991200       0.00000000       0.00000000       0.00000000      -0.08149751       0.00014622       0.17001056      -0.09806307      -0.03489100       0.26582538
Cu       2.09578148       7.70039285      12.99991200       0.00000000       0.00000000       0.00000000      -0.08028805      -0.00008474       0.16792623      -0.10152672       0.02165673       0.27414323
Cu      -0.00000000       1.28339881      12.24993400       0.00000000       0.00000000       0.00000000       0.11790950      -0.00030574       0.43623852       0.09547346       0.00384923       0.69231924
Cu      -0.00000000       3.85019642      12.24993400       0.00000000       0.00000000       0.00000000       0.11789996       0.00084411       0.43603460       0.10659035       0.00651249       0.72251727
Cu      -0.00000000       6.41699404      12.24993400       0.00000000       0.00000000       0.00000000       0.11771568       0.00033151       0.43674773       0.11198579      -0.00221462       0.72918023
Cu      -0.00000000       8.98379165      12.24993400       0.00000000       0.00000000       0.00000000       0.11774150      -0.00094163       0.43702592       0.11875722      -0.00495365       0.69772213
O        4.17600214       5.67503969      19.76085940       0.08350568      -0.86686051      -0.27624844       0.00646220      -0.03106808       0.00948445       0.17888448      -0.84856733      -0.05443611
C        3.52352007       8.20344562      19.72701978      -0.14419986       0.28973395      -0.09455137       0.00145617      -0.01160697       0.04851044      -0.09910933      -0.37841698      -0.22505815
H        5.04437812       5.90118741      20.14933103      -0.05395786      -0.22745497      -0.09413723       0.00139965      -0.02412027      -0.02015204       0.10759105       0.88988969       0.38710074
O        3.19112669       8.25762995      20.83818842       0.01669116      -0.06147700       0.04243924       0.00672406       0.00470636       0.05097493      -0.02454281      -0.29334494       0.00238261
40
Lattice="6.2873444314750255 0.0 0.0 0.0 10.26719046282867 0.0 0.0 0.0 28.249757996450562" Properties=species:S:1:pos:R:3:MACE_forces:R:3:forces:R:3:DFT_forces:R:3 adsorbate_info="_JSON {\"top layer atom index\": 0, \"sites\": {}}" method=neb MACE_energy=-160.61107908497706 energy=-161.29518959014217 stress="0.007046669745975515 -5.081940709053173e-06 -2.8341301429322483e-05 -5.081940709053173e-06 0.008150504215825277 0.00014417181696233446 -2.8341301429322483e-05 0.00014417181696233446 0.0014519238666479957" free_energy=-161.29518959014217 DFT_energy=-162.46724113 pbc="T T T"
Cu       4.09549312       1.29177532      18.08028793      -0.00513743       0.01661393       0.14717251      -0.00655368       0.00987067       0.14676571       0.05949909      -0.03147065      -0.06671223
Cu       4.08627896       3.82985685      18.10767215      -0.00231638       0.00404767       0.14864818      -0.00849748      -0.00975303       0.14360010       0.05561803      -0.00483148      -0.03077613
Cu       4.16576767       6.36847614      18.04452266      -0.01967724       0.03111298       0.16960477      -0.00932419       0.00818123       0.14051927      -0.00843768      -0.13144423      -0.20573971
Cu       4.12284163       8.96822693      18.16195900      -0.01257485       0.01934485       0.14943958      -0.00333753      -0.00521405       0.16530096      -0.03705001       0.00685707      -0.26841928
Cu       2.04442281      10.27140820      17.38924220       0.00072506       0.01216657       0.12612539       0.00524779       0.00953182       0.13054977       0.01280400      -0.01804257       0.01678510
Cu       2.03851552       2.56665659      17.39508177       0.01011833       0.00255572       0.13385350       0.00578190      -0.00050047       0.13574989       0.00249680       0.01108119       0.05256498
Cu       2.02861162       5.12538917      17.37590153       0.00820580      -0.00635053       0.12312524       0.00082278      -0.00629671       0.12543010      -0.02263591      -0.00496075      -0.00980498
Cu       2.05483153       7.69702136      17.42192266       0.00246300       0.00915889       0.12553325       0.00273760       0.00679402       0.12253414      -0.18148496      -0.00030197      -0.23099823
Cu       6.26479494       1.28210139      16.72797463      -0.00222434       0.00330273       0.10440016      -0.00189632       0.00325088       0.10749546       0.01652262       0.02952680      -0.03194653
Cu       6.25499072       3.84800026      16.72892190       0.00046167      -0.00282349       0.10204841      -0.00209162      -0.00290750       0.10428321       0.03642544      -0.03348795      -0.04684552
Cu       6.28145300       6.42439963      16.70284829      -0.00012335      -0.00369072       0.09258414       0.00233948      -0.00227907       0.09118126       0.04695739       0.04638651      -0.07193404
Cu       6.26907237       8.98664373      16.72467335      -0.00403703       0.00546974       0.09805139       0.00136989       0.00873066       0.09511712      -0.02603266      -0.03592680      -0.00581437
Cu       4.19156295       0.00000000      15.99982400       0.00000000       0.00000000       0.00000000       0.07701543      -0.01228276      -0.39741454       0.11273511      -0.22452344      -0.15154049
Cu       4.19156295       2.56679762      15.99982400       0.00000000       0.00000000       0.00000000       0.06079125       0.02260139      -0.48390274       0.10358136       0.10447955      -0.34061398
Cu       4.19156295       5.13359523      15.99982400       0.00000000       0.00000000       0.00000000       0.06161371       0.02956463      -0.34893328       0.10267908      -0.02409956      -0.56889806
Cu       4.19156295       7.70039285      15.99982400       0.00000000       0.00000000       0.00000000       0.08823876       0.01395026      -0.20936861       0.10027833      -0.00804141      -0.38780375
Cu       2.09578148       1.28339881      15.24984600       0.00000000       0.00000000       0.00000000      -0.00300318       0.00259424      -0.31174978      -0.01892354       0.01079648      -0.31958793
Cu       2.09578148       3.85019642      15.24984600       0.00000000       0.00000000       0.00000000      -0.00920874      -0.00854497      -0.31767027      -0.00791962      -0.04811798      -0.31709935
Cu       2.09578148       6.41699404      15.24984600       0.00000000       0.00000000       0.00000000       0.02946652       0.00743201      -0.29188558       0.08043027       0.05940904      -0.21250289
Cu       2.09578148       8.98379165      15.24984600       0.00000000       0.00000000       0.00000000       0.02264743      -0.00868581      -0.29977313       0.02294518      -0.02064112      -0.19383732
Cu       0.00000000       0.00000000      14.49986800       0.00000000       0.00000000       0.00000000      -0.07379243       0.00916075      -0.21769639      -0.10697219       0.00227033      -0.21961415
Cu       0.00000000       2.56679762      14.49986800       0.00000000       0.00000000       0.00000000      -0.07617192      -0.00172173      -0.19074166      -0.12696076      -0.01457215      -0.18653356
Cu       0.00000000       5.13359523      14.49986800       0.00000000       0.00000000       0.00000000      -0.07447422      -0.01155827      -0.21418018      -0.11649909      -0.02446425      -0.24067466
Cu       0.00000000       7.70039285      14.49986800       0.00000000       0.00000000       0.00000000      -0.07841858       0.00020544      -0.23319078      -0.10705547       0.03348514      -0.29720908
Cu       4.19156295       1.28339881      13.74989000       0.00000000       0.00000000       0.00000000      -0.04401218       0.00087082      -0.12751483      -0.08504149       0.02852966       0.01706191
Cu       4.19156295       3.85019642      13.74989000       0.00000000       0.00000000       0.00000000      -0.04499185      -0.00104151      -0.12463264      -0.07248687      -0.04233539      -0.01539997
Cu       4.19156295       6.41699404      13.74989000       0.00000000       0.00000000       0.00000000      -0.04595640       0.00070768      -0.12530437      -0.05465860       0.01926986      -0.06092905
Cu       4.19156295       8.98379165      13.74989000       0.00000000       0.00000000       0.00000000      -0.04433637      -0.00060256      -0.12767009      -0.05755456      -0.00434396      -0.03562591
Cu       2.09578148       0.00000000      12.99991200       0.00000000       0.00000000       0.00000000      -0.07822369       0.00001504       0.16954259      -0.06219639      -0.00091350       0.21541445
Cu       2.09578148       2.56679762      12.99991200       0.00000000       0.00000000       0.00000000      -0.07930530       0.00002612       0.17075797      -0.04935862       0.01635746       0.20031882
Cu       2.09578148       5.13359523      12.99991200       0.00000000       0.00000000       0.00000000      -0.08149751       0.00014622       0.17001056      -0.09795025      -0.03537155       0.26928246
Cu       2.09578148       7.70039285      12.99991200       0.00000000       0.00000000       0.00000000      -0.08028805      -0.00008474       0.16792623      -0.10384183       0.02171490       0.28210705
Cu      -0.00000000       1.28339881      12.24993400       0.00000000       0.00000000       0.00000000       0.11790950      -0.00030574       0.43623852       0.08733296       0.01163435       0.68740905
Cu      -0.00000000       3.85019642      12.24993400       0.00000000       0.00000000       0.00000000       0.11789996       0.00084411       0.43603460       0.10367206      -0.00933727       0.70355616
Cu      -0.00000000       6.41699404      12.24993400       0.00000000       0.00000000       0.00000000       0.11771568       0.00033151       0.43674773       0.10923664       0.00416717       0.72244339
Cu      -0.00000000       8.98379165      12.24993400       0.00000000       0.00000000       0.00000000       0.11774150      -0.00094163       0.43702592       0.11494085      -0.00408969       0.70182790
O        4.14367375       6.05101623      19.90036072       0.00454380       0.03303278       0.05552578       0.00646220      -0.03106808       0.00948445       0.30929075      -0.52981167       0.16014020
C        3.57263167       8.09024858      19.78130582      -0.01635316      -0.02538970       0.07329618       0.00145617      -0.01160697       0.04851044      -0.16743119      -0.17436871      -0.15678359
H        5.07830760       5.99535968      20.18958672       0.01521836      -0.00724750       0.01053292       0.00139965      -0.02412027      -0.02015204       0.15465900       0.97619649       0.57486392
O        3.16328964       8.29809491      20.85182056      -0.01724456       0.01466816      -0.00585100       0.00672406       0.00470636       0.05097493      -0.12161325       0.04333608       0.06986935
40
Lattice="6.2873444314750255 0.0 0.0 0.0 10.26719046282867 0.0 0.0 0.0 28.249757996450562" Properties=species:S:1:pos:R:3:MACE_forces:R:3:forces:R:3:DFT_forces:R:3 adsorbate_info="_JSON {\"top layer atom index\": 0, \"sites\": {}}" method=neb MACE_energy=-160.6946207877118 energy=-161.29518959014217 stress="0.007046669745975515 -5.081940709053173e-06 -2.8341301429322483e-05 -5.081940709053173e-06 0.008150504215825277 0.00014417181696233446 -2.8341301429322483e-05 0.00014417181696233446 0.0014519238666479957" free_energy=-161.29518959014217 DFT_energy=-162.42018093 pbc="T T T"
Cu       4.09893650       1.26948574      18.08322859      -0.00964097       0.00110847       0.14909492      -0.00655368       0.00987067       0.14676571       0.06277880      -0.02153398      -0.06620981
Cu       4.08173003       3.78434905      18.07308992      -0.00480414      -0.01612243       0.12922590      -0.00849748      -0.00975303       0.14360010       0.05198603       0.03241500      -0.03773789
Cu       4.15567984       6.31634125      18.05679012      -0.02242752       0.04627658       0.18705153      -0.00932419       0.00818123       0.14051927       0.06753965      -0.30599977      -0.60720392
Cu       4.16020724       8.95311607      18.14053146      -0.02905996       0.00076207       0.15728102      -0.00333753      -0.00521405       0.16530096      -0.15893115      -0.14066373       0.12266765
Cu       2.05574622      10.25739779      17.39712198      -0.00352659       0.01111515       0.12546123       0.00524779       0.00953182       0.13054977      -0.02939513       0.01961623      -0.00188092
Cu       2.03195153       2.55159409      17.39430960       0.00161704      -0.00346773       0.13354349       0.00578190      -0.00050047       0.13574989       0.01813772      -0.00047006       0.06226875
Cu       2.03022255       5.11727113      17.38174430       0.01416908      -0.01332218       0.12553280       0.00082278      -0.00629671       0.12543010      -0.00580648      -0.01051014      -0.00289032
Cu       2.07528328       7.69163906      17.43494307       0.00723238       0.01241148       0.13911001       0.00273760       0.00679402       0.12253414      -0.16577734      -0.01603606      -0.20755512
Cu       6.26672773       1.27627312      16.72855380      -0.00655832       0.00275920       0.10418939      -0.00189632       0.00325088       0.10749546      -0.00154111       0.00034049      -0.03379149
Cu       6.25857335       3.84682282      16.72819534       0.00009570       0.00145113       0.10327795      -0.00209162      -0.00290750       0.10428321       0.00749544      -0.00899866      -0.04759747
Cu       6.28249365       6.42395999      16.71086704       0.01549438      -0.00239531       0.08431141       0.00233948      -0.00227907       0.09118126       0.06939821       0.03753390      -0.07821280
Cu       6.28319323       8.98124913      16.71780900      -0.00846768       0.00395827       0.10402218       0.00136989       0.00873066       0.09511712      -0.02214173      -0.02395240      -0.01179672
Cu       4.19156295       0.00000000      15.99982400       0.00000000       0.00000000       0.00000000       0.07701543      -0.01228276      -0.39741454       0.14068159      -0.22892587      -0.21304568
Cu       4.19156295       2.56679762      15.99982400       0.00000000       0.00000000       0.00000000       0.06079125       0.02260139      -0.48390274       0.11934782      -0.04824987      -0.48290696
Cu       4.19156295       5.13359523      15.99982400       0.00000000       0.00000000       0.00000000       0.06161371       0.02956463      -0.34893328       0.11585554      -0.00593450      -0.54791117
Cu       4.19156295       7.70039285      15.99982400       0.00000000       0.00000000       0.00000000       0.08823876       0.01395026      -0.20936861       0.13116365      -0.05496590      -0.40002314
Cu       2.09578148       1.28339881      15.24984600       0.00000000       0.00000000       0.00000000      -0.00300318       0.00259424      -0.31174978      -0.01548785      -0.01450523      -0.29638582
Cu       2.09578148       3.85019642      15.24984600       0.00000000       0.00000000       0.00000000      -0.00920874      -0.00854497      -0.31767027      -0.01614845      -0.04873162      -0.32303636
Cu       2.09578148       6.41699404      15.24984600       0.00000000       0.00000000       0.00000000       0.02946652       0.00743201      -0.29188558       0.06030110       0.05995054      -0.18392940
Cu       2.09578148       8.98379165      15.24984600       0.00000000       0.00000000       0.00000000       0.02264743      -0.00868581      -0.29977313       0.05620140      -0.03866808      -0.19170722
Cu       0.00000000       0.00000000      14.49986800       0.00000000       0.00000000       0.00000000      -0.07379243       0.00916075      -0.21769639      -0.09877159       0.01077732      -0.25013642
Cu       0.00000000       2.56679762      14.49986800       0.00000000       0.00000000       0.00000000      -0.07617192      -0.00172173      -0.19074166      -0.13531747      -0.02225726      -0.17337314
Cu       0.00000000       5.13359523      14.49986800       0.00000000       0.00000000       0.00000000      -0.07447422      -0.01155827      -0.21418018      -0.10551485      -0.00690604      -0.23497785
Cu       0.00000000       7.70039285      14.49986800       0.00000000       0.00000000       0.00000000      -0.07841858       0.00020544      -0.23319078      -0.11371446       0.00924032      -0.29110123
Cu       4.19156295       1.28339881      13.74989000       0.00000000       0.00000000       0.00000000      -0.04401218       0.00087082      -0.12751483      -0.07926640       0.04331572       0.00000387
Cu       4.19156295       3.85019642      13.74989000       0.00000000       0.00000000       0.00000000      -0.04499185      -0.00104151      -0.12463264      -0.07724920      -0.03906974      -0.01327378
Cu       4.19156295       6.41699404      13.74989000       0.00000000       0.00000000       0.00000000      -0.04595640       0.00070768      -0.12530437      -0.05438572       0.00992729      -0.05916764
Cu       4.19156295       8.98379165      13.74989000       0.00000000       0.00000000       0.00000000      -0.04433637      -0.00060256      -0.12767009      -0.05342236      -0.01227784      -0.02856322
Cu       2.09578148       0.00000000      12.99991200       0.00000000       0.00000000       0.00000000      -0.07822369       0.00001504       0.16954259      -0.09292349       0.01564524       0.23996177
Cu       2.09578148       2.56679762      12.99991200       0.00000000       0.00000000       0.00000000      -0.07930530       0.00002612       0.17075797      -0.03826467       0.00975956       0.17321712
Cu       2.09578148       5.13359523      12.99991200       0.00000000       0.00000000       0.00000000      -0.08149751       0.00014622       0.17001056      -0.09610307      -0.03020968       0.25989807
Cu       2.09578148       7.70039285      12.99991200       0.00000000       0.00000000       0.00000000      -0.08028805      -0.00008474       0.16792623      -0.10289326       0.00594944       0.28549208
Cu      -0.00000000       1.28339881      12.24993400       0.00000000       0.00000000       0.00000000       0.11790950      -0.00030574       0.43623852       0.09598959       0.00763793       0.68214757
Cu      -0.00000000       3.85019642      12.24993400       0.00000000       0.00000000       0.00000000       0.11789996       0.00084411       0.43603460       0.10114124      -0.00367337       0.68860006
Cu      -0.00000000       6.41699404      12.24993400       0.00000000       0.00000000       0.00000000       0.11771568       0.00033151       0.43674773       0.10854253      -0.00695209       0.71182780
Cu      -0.00000000       8.98379165      12.24993400       0.00000000       0.00000000       0.00000000       0.11774150      -0.00094163       0.43702592       0.11253406       0.00428835       0.70990628
O        4.20030856       6.43470271      19.97599940      -0.03590705       0.16998236       0.12602054       0.00646220      -0.03106808       0.00948445       0.24261841       0.17674506       0.54686441
C        3.58869127       7.98632140      19.78236132       0.03079781      -0.13273916       0.04391429       0.00145617      -0.01160697       0.04851044      -0.44777826       0.01378407       0.40046325
H        5.13327549       6.56180172      20.25381277      -0.00599258       0.19129368       0.04523317       0.00139965      -0.02412027      -0.02015204       0.44744781       0.66649128      -0.13642239
O        2.96873781       8.34124054      20.72285307      -0.03505379       0.07822462       0.01215646       0.00672406       0.00470636       0.05097493      -0.09832655      -0.03392582       0.03751919
40
Lattice="6.2873444314750255 0.0 0.0 0.0 10.26719046282867 0.0 0.0 0.0 28.249757996450562" Properties=species:S:1:pos:R:3:MACE_forces:R:3:forces:R:3:DFT_forces:R:3 adsorbate_info="_JSON {\"top layer atom index\": 0, \"sites\": {}}" method=neb MACE_energy=-160.77959243439759 energy=-161.29518959014217 stress="0.007046669745975515 -5.081940709053173e-06 -2.8341301429322483e-05 -5.081940709053173e-06 0.008150504215825277 0.00014417181696233446 -2.8341301429322483e-05 0.00014417181696233446 0.0014519238666479957" free_energy=-161.29518959014217 DFT_energy=-162.48486072 pbc="T T T"
Cu       4.09903851       1.27734932      18.08333532      -0.00589476       0.01608351       0.14888086      -0.00655368       0.00987067       0.14676571       0.06875766      -0.00996367      -0.06341365
Cu       4.08079020       3.79814770      18.07108260      -0.00431732      -0.02322288       0.14875877      -0.00849748      -0.00975303       0.14360010       0.05716952       0.02662789      -0.03464583
Cu       4.13368804       6.32384256      18.09950053       0.02304930       0.04906197       0.18222277      -0.00932419       0.00818123       0.14051927       0.07442164      -0.28477317      -0.42432035
Cu       4.18398395       8.97807837      18.11800857      -0.04761290       0.02643870       0.16593789      -0.00333753      -0.00521405       0.16530096      -0.21077862      -0.15387064       0.11729839
Cu       2.05599010      10.25972840      17.39921052       0.00105406       0.01211381       0.12708488       0.00524779       0.00953182       0.13054977      -0.03139251       0.04970770      -0.01781012
Cu       2.03347463       2.55418615      17.39430812       0.00141947       0.00134447       0.13328966       0.00578190      -0.00050047       0.13574989       0.01896950       0.00001869       0.06446829
Cu       2.03236844       5.12323569      17.38988196       0.01396103      -0.01151814       0.12464289       0.00082278      -0.00629671       0.12543010      -0.01314381      -0.01335619      -0.01462793
Cu       2.07106640       7.69584706      17.43564286       0.05000774       0.00506085       0.16483493       0.00273760       0.00679402       0.12253414      -0.11130509      -0.04247170      -0.20256495
Cu       6.26688440       1.27712347      16.72904005      -0.00524745       0.00173693       0.10474761      -0.00189632       0.00325088       0.10749546      -0.00468612      -0.00776688      -0.03200835
Cu       6.26163451       3.84708709      16.72712537      -0.00283349       0.00046572       0.10546128      -0.00209162      -0.00290750       0.10428321      -0.00238554       0.00151754      -0.04485593
Cu       6.27129295       6.42201001      16.72237070       0.02640435      -0.00158042       0.07573803       0.00233948      -0.00227907       0.09118126       0.08866629       0.03744547      -0.07491009
Cu       6.28815995       8.98211332      16.71216193      -0.00036470       0.00016085       0.09590418       0.00136989       0.00873066       0.09511712      -0.00635292      -0.02577551      -0.03180925
Cu       4.19156295       0.00000000      15.99982400       0.00000000       0.00000000       0.00000000       0.07701543      -0.01228276      -0.39741454       0.14954718      -0.17405594      -0.28263460
Cu       4.19156295       2.56679762      15.99982400       0.00000000       0.00000000       0.00000000       0.06079125       0.02260139      -0.48390274       0.12334803      -0.04507153      -0.48754025
Cu       4.19156295       5.13359523      15.99982400       0.00000000       0.00000000       0.00000000       0.06161371       0.02956463      -0.34893328       0.10468999       0.07734330      -0.37813061
Cu       4.19156295       7.70039285      15.99982400       0.00000000       0.00000000       0.00000000       0.08823876       0.01395026      -0.20936861       0.12760272      -0.09075829      -0.37920515
Cu       2.09578148       1.28339881      15.24984600       0.00000000       0.00000000       0.00000000      -0.00300318       0.00259424      -0.31174978      -0.01531950      -0.01461768      -0.28755166
Cu       2.09578148       3.85019642      15.24984600       0.00000000       0.00000000       0.00000000      -0.00920874      -0.00854497      -0.31767027      -0.01990539      -0.03389074      -0.31411272
Cu       2.09578148       6.41699404      15.24984600       0.00000000       0.00000000       0.00000000       0.02946652       0.00743201      -0.29188558       0.02989041       0.05797052      -0.16107500
Cu       2.09578148       8.98379165      15.24984600       0.00000000       0.00000000       0.00000000       0.02264743      -0.00868581      -0.29977313       0.07241280      -0.03804931      -0.19451450
Cu       0.00000000       0.00000000      14.49986800       0.00000000       0.00000000       0.00000000      -0.07379243       0.00916075      -0.21769639      -0.10089428       0.01927919      -0.26787646
Cu       0.00000000       2.56679762      14.49986800       0.00000000       0.00000000       0.00000000      -0.07617192      -0.00172173      -0.19074166      -0.13836450      -0.02695078      -0.17352425
Cu       0.00000000       5.13359523      14.49986800       0.00000000       0.00000000       0.00000000      -0.07447422      -0.01155827      -0.21418018      -0.10259255       0.00755442      -0.21996963
Cu       0.00000000       7.70039285      14.49986800       0.00000000       0.00000000       0.00000000      -0.07841858       0.00020544      -0.23319078      -0.11932966      -0.00927658      -0.27342450
Cu       4.19156295       1.28339881      13.74989000       0.00000000       0.00000000       0.00000000      -0.04401218       0.00087082      -0.12751483      -0.07698348       0.04690381      -0.00505375
Cu       4.19156295       3.85019642      13.74989000       0.00000000       0.00000000       0.00000000      -0.04499185      -0.00104151      -0.12463264      -0.08003467      -0.03397014      -0.00751304
Cu       4.19156295       6.41699404      13.74989000       0.00000000       0.00000000       0.00000000      -0.04595640       0.00070768      -0.12530437      -0.05651525       0.00171115      -0.05021742
Cu       4.19156295       8.98379165      13.74989000       0.00000000       0.00000000       0.00000000      -0.04433637      -0.00060256      -0.12767009      -0.05230988      -0.01395737      -0.01752635
Cu       2.09578148       0.00000000      12.99991200       0.00000000       0.00000000       0.00000000      -0.07822369       0.00001504       0.16954259      -0.10612891       0.01599149       0.24639236
Cu       2.09578148       2.56679762      12.99991200       0.00000000       0.00000000       0.00000000      -0.07930530       0.00002612       0.17075797      -0.03996171       0.00956311       0.16361023
Cu       2.09578148       5.13359523      12.99991200       0.00000000       0.00000000       0.00000000      -0.08149751       0.00014622       0.17001056      -0.09598914      -0.02646889       0.25986281
Cu       2.09578148       7.70039285      12.99991200       0.00000000       0.00000000       0.00000000      -0.08028805      -0.00008474       0.16792623      -0.10210169       0.00343314       0.28490103
Cu      -0.00000000       1.28339881      12.24993400       0.00000000       0.00000000       0.00000000       0.11790950      -0.00030574       0.43623852       0.10498101       0.00880440       0.67787005
Cu      -0.00000000       3.85019642      12.24993400       0.00000000       0.00000000       0.00000000       0.11789996       0.00084411       0.43603460       0.10144285      -0.00456454       0.68390637
Cu      -0.00000000       6.41699404      12.24993400       0.00000000       0.00000000       0.00000000       0.11771568       0.00033151       0.43674773       0.10653594      -0.01142440       0.71013572
Cu      -0.00000000       8.98379165      12.24993400       0.00000000       0.00000000       0.00000000       0.11774150      -0.00094163       0.43702592       0.11214297       0.00671128       0.71321943
O        4.32622158       6.63878852      20.07689720      -0.01993280       0.08210575      -0.01725026       0.00646220      -0.03106808       0.00948445      -0.00881024       0.21033145       0.23160193
C        3.51940968       7.97677123      19.70607701      -0.01269498      -0.07711322      -0.05311401       0.00145617      -0.01160697       0.04851044      -0.52246146      -0.19598469       0.36390103
H        5.26989324       6.89829388      20.15576100      -0.02716854       0.14420530       0.03981347       0.00139965      -0.02412027      -0.02015204       0.72871796       0.64982029      -0.07906382
O        2.70470130       8.30399825      20.50799057      -0.05446317       0.02650106       0.05877684       0.00672406       0.00470636       0.05097493      -0.05154954       0.02628379       0.00273254
40
Lattice="6.2873444314750255 0.0 0.0 0.0 10.26719046282867 0.0 0.0 0.0 28.249757996450562" Properties=species:S:1:pos:R:3:MACE_forces:R:3:forces:R:3:DFT_forces:R:3 adsorbate_info="_JSON {\"top layer atom index\": 0, \"sites\": {}}" method=neb MACE_energy=-160.95868664497536 energy=-161.29518959014217 stress="0.007046669745975515 -5.081940709053173e-06 -2.8341301429322483e-05 -5.081940709053173e-06 0.008150504215825277 0.00014417181696233446 -2.8341301429322483e-05 0.00014417181696233446 0.0014519238666479957" free_energy=-161.29518959014217 DFT_energy=-162.60727345 pbc="T T T"
Cu       4.10469307       1.27463392      18.08297041       0.00110328       0.01450732       0.14850026      -0.00655368       0.00987067       0.14676571       0.06717416      -0.02493662      -0.08762744
Cu       4.08319578       3.83230742      18.07881537      -0.00188845       0.00984881       0.15052590      -0.00849748      -0.00975303       0.14360010       0.06087342       0.08084521      -0.07805621
Cu       4.07213916       6.40502744      18.06877498      -0.04656911       0.06466155       0.13738948      -0.00932419       0.00818123       0.14051927      -0.06147880       0.07414181      -0.06273685
Cu       4.20364325       8.95250341      18.12589539      -0.00819706      -0.01456553       0.16758366      -0.00333753      -0.00521405       0.16530096      -0.08938776      -0.08359230       0.03498547
Cu       2.06473599      10.26207095      17.39548225       0.00782139       0.01513680       0.12438419       0.00524779       0.00953182       0.13054977      -0.00732746       0.04927512       0.01223154
Cu       2.04082718       2.55701737      17.39505208       0.01215129       0.00321577       0.13531902       0.00578190      -0.00050047       0.13574989       0.01959146      -0.00507919       0.07212954
Cu       2.02572472       5.12335599      17.39048902       0.00448345      -0.01173642       0.12542699       0.00082278      -0.00629671       0.12543010      -0.00265545      -0.01140077       0.03530346
Cu       2.02975400       7.70902952      17.44410885      -0.00927052       0.00917372       0.13523231       0.00273760       0.00679402       0.12253414      -0.12084803      -0.04599804      -0.19734494
Cu       6.27076139       1.27919238      16.72805125      -0.00036984       0.00345627       0.10436911      -0.00189632       0.00325088       0.10749546      -0.00698699      -0.03388121      -0.03474312
Cu       6.26166481       3.84499651      16.72705514      -0.00121199      -0.00473067       0.10387635      -0.00209162      -0.00290750       0.10428321      -0.01258599       0.03527721      -0.03453131
Cu       6.26375630       6.41927150      16.72756293      -0.00240932      -0.00681773       0.09425894       0.00233948      -0.00227907       0.09118126       0.04804553      -0.03127399      -0.04626673
Cu       6.28429597       8.98870047      16.71023921      -0.00381135       0.00861787       0.09240149       0.00136989       0.00873066       0.09511712       0.03721539       0.02420010      -0.06678666
Cu       4.19156295       0.00000000      15.99982400       0.00000000       0.00000000       0.00000000       0.07701543      -0.01228276      -0.39741454       0.14898921      -0.15716396      -0.22350715
Cu       4.19156295       2.56679762      15.99982400       0.00000000       0.00000000       0.00000000       0.06079125       0.02260139      -0.48390274       0.12853825      -0.04288249      -0.45448147
Cu       4.19156295       5.13359523      15.99982400       0.00000000       0.00000000       0.00000000       0.06161371       0.02956463      -0.34893328       0.11905966       0.03813643      -0.34792555
Cu       4.19156295       7.70039285      15.99982400       0.00000000       0.00000000       0.00000000       0.08823876       0.01395026      -0.20936861       0.07858237       0.06072100      -0.58538124
Cu       2.09578148       1.28339881      15.24984600       0.00000000       0.00000000       0.00000000      -0.00300318       0.00259424      -0.31174978      -0.01877142      -0.00320413      -0.31122680
Cu       2.09578148       3.85019642      15.24984600       0.00000000       0.00000000       0.00000000      -0.00920874      -0.00854497      -0.31767027      -0.02491101      -0.01653087      -0.31910561
Cu       2.09578148       6.41699404      15.24984600       0.00000000       0.00000000       0.00000000       0.02946652       0.00743201      -0.29188558       0.02719595       0.06111284      -0.14473539
Cu       2.09578148       8.98379165      15.24984600       0.00000000       0.00000000       0.00000000       0.02264743      -0.00868581      -0.29977313       0.06865117      -0.05284431      -0.16692725
Cu       0.00000000       0.00000000      14.49986800       0.00000000       0.00000000       0.00000000      -0.07379243       0.00916075      -0.21769639      -0.11034461       0.02428619      -0.27199139
Cu       0.00000000       2.56679762      14.49986800       0.00000000       0.00000000       0.00000000      -0.07617192      -0.00172173      -0.19074166      -0.15181182      -0.00359493      -0.17202125
Cu       0.00000000       5.13359523      14.49986800       0.00000000       0.00000000       0.00000000      -0.07447422      -0.01155827      -0.21418018      -0.10239997       0.00334849      -0.22422193
Cu       0.00000000       7.70039285      14.49986800       0.00000000       0.00000000       0.00000000      -0.07841858       0.00020544      -0.23319078      -0.14273424      -0.02199322      -0.24018809
Cu       4.19156295       1.28339881      13.74989000       0.00000000       0.00000000       0.00000000      -0.04401218       0.00087082      -0.12751483      -0.07830500       0.00818198      -0.01139600
Cu       4.19156295       3.85019642      13.74989000       0.00000000       0.00000000       0.00000000      -0.04499185      -0.00104151      -0.12463264      -0.07109572      -0.00414688       0.00171785
Cu       4.19156295       6.41699404      13.74989000       0.00000000       0.00000000       0.00000000      -0.04595640       0.00070768      -0.12530437      -0.05750679      -0.03027034      -0.00867182
Cu       4.19156295       8.98379165      13.74989000       0.00000000       0.00000000       0.00000000      -0.04433637      -0.00060256      -0.12767009      -0.06538321       0.02777101      -0.00664453
Cu       2.09578148       0.00000000      12.99991200       0.00000000       0.00000000       0.00000000      -0.07822369       0.00001504       0.16954259      -0.11973274       0.03751306       0.25050869
Cu       2.09578148       2.56679762      12.99991200       0.00000000       0.00000000       0.00000000      -0.07930530       0.00002612       0.17075797      -0.04045708      -0.02812129       0.13654195
Cu       2.09578148       5.13359523      12.99991200       0.00000000       0.00000000       0.00000000      -0.08149751       0.00014622       0.17001056      -0.11089303       0.00343576       0.25984405
Cu       2.09578148       7.70039285      12.99991200       0.00000000       0.00000000       0.00000000      -0.08028805      -0.00008474       0.16792623      -0.10331220      -0.01094988       0.29071194
Cu      -0.00000000       1.28339881      12.24993400       0.00000000       0.00000000       0.00000000       0.11790950      -0.00030574       0.43623852       0.12684379      -0.01768466       0.67002448
Cu      -0.00000000       3.85019642      12.24993400       0.00000000       0.00000000       0.00000000       0.11789996       0.00084411       0.43603460       0.11069629       0.00889892       0.66886948
Cu      -0.00000000       6.41699404      12.24993400       0.00000000       0.00000000       0.00000000       0.11771568       0.00033151       0.43674773       0.10406441      -0.02080243       0.71301689
Cu      -0.00000000       8.98379165      12.24993400       0.00000000       0.00000000       0.00000000       0.11774150      -0.00094163       0.43702592       0.11335751       0.02703361       0.70016478
O        4.49100164       7.02092932      20.54750857       0.06360195       0.20045829       0.27519283       0.00646220      -0.03106808       0.00948445      -0.20675174       0.15880525       0.43103928
C        3.61932444       7.68902900      19.68994772      -0.00671600      -0.12589908       0.02896344       0.00145617      -0.01160697       0.04851044       0.00683822      -0.20355275      -0.01058353
H        5.34406852       6.81058515      20.11088375       0.07041361       0.06807493      -0.03698528       0.00139965      -0.02412027      -0.02015204       0.50157412      -0.07328102      -0.01592363
O        2.56639141       8.11837099      20.15294166      -0.08351541      -0.11450898      -0.19683155       0.00672406       0.00470636       0.05097493      -0.06160984       0.20020129      -0.15406352
40
Lattice="6.2873444314750255 0.0 0.0 0.0 10.26719046282867 0.0 0.0 0.0 28.249757996450562" Properties=species:S:1:pos:R:3:MACE_forces:R:3:forces:R:3:DFT_forces:R:3 adsorbate_info="_JSON {\"top layer atom index\": 0, \"sites\": {}}" method=neb MACE_energy=-160.99630254566597 energy=-161.29518959014217 stress="0.007046669745975515 -5.081940709053173e-06 -2.8341301429322483e-05 -5.081940709053173e-06 0.008150504215825277 0.00014417181696233446 -2.8341301429322483e-05 0.00014417181696233446 0.0014519238666479957" free_energy=-161.29518959014217 DFT_energy=-162.83840388 pbc="T T T"
Cu       4.08381241       1.30961516      18.07849089      -0.00966779       0.01581455       0.14779580      -0.00655368       0.00987067       0.14676571       0.03791881       0.03086907      -0.07825034
Cu       4.08334133       3.84310895      18.08615841      -0.00555270      -0.00804490       0.14496273      -0.00849748      -0.00975303       0.14360010       0.03681913       0.00836030      -0.09493223
Cu       4.07676779       6.39214462      18.08511673      -0.00364908       0.00989978       0.18208060      -0.00932419       0.00818123       0.14051927       0.00510556       0.14303955       0.05680106
Cu       4.06610740       9.06032184      18.10360889      -0.06106141      -0.03853551       0.23049810      -0.00333753      -0.00521405       0.16530096      -0.00634419      -0.11905011       0.05189638
Cu       2.01291013      10.28357754      17.37445972      -0.00789526       0.01444251       0.12134367       0.00524779       0.00953182       0.13054977       0.01173686       0.02046657       0.01840450
Cu       2.03013639       2.56905516      17.39399384       0.00478239       0.00307617       0.13418888       0.00578190      -0.00050047       0.13574989       0.01711566       0.00978958       0.06902583
Cu       2.02173881       5.12441724      17.38899933       0.00454672      -0.00749353       0.12333842       0.00082278      -0.00629671       0.12543010       0.00680293      -0.00863053       0.04537763
Cu       2.00188343       7.69579311      17.38268846       0.00037491      -0.00146812       0.11022095       0.00273760       0.00679402       0.12253414      -0.06622614       0.03379954      -0.11090299
Cu       6.25503638       1.28931457      16.72526390      -0.00685985       0.00421360       0.10459968      -0.00189632       0.00325088       0.10749546       0.00409514       0.00004771      -0.04053392
Cu       6.25617259       3.84729722      16.72784075      -0.00272528      -0.00248607       0.10328563      -0.00209162      -0.00290750       0.10428321      -0.02083524       0.01055279      -0.02807957
Cu       6.25506189       6.41046809      16.71590764      -0.00081242      -0.00623785       0.08896048       0.00233948      -0.00227907       0.09118126       0.00173134       0.00965546      -0.02688646
Cu       6.24035080       8.98807199      16.73425596      -0.01076870       0.00491362       0.10126317       0.00136989       0.00873066       0.09511712       0.01282104      -0.01263902      -0.07627448
Cu       4.19156295       0.00000000      15.99982400       0.00000000       0.00000000       0.00000000       0.07701543      -0.01228276      -0.39741454       0.07326525      -0.06924754      -0.31659139
Cu       4.19156295       2.56679762      15.99982400       0.00000000       0.00000000       0.00000000       0.06079125       0.02260139      -0.48390274       0.08103274       0.01725157      -0.46206438
Cu       4.19156295       5.13359523      15.99982400       0.00000000       0.00000000       0.00000000       0.06161371       0.02956463      -0.34893328       0.06768247       0.06721670      -0.39725516
Cu       4.19156295       7.70039285      15.99982400       0.00000000       0.00000000       0.00000000       0.08823876       0.01395026      -0.20936861       0.04845671       0.06938351      -0.39329035
Cu       2.09578148       1.28339881      15.24984600       0.00000000       0.00000000       0.00000000      -0.00300318       0.00259424      -0.31174978      -0.01674738       0.04546177      -0.35010502
Cu       2.09578148       3.85019642      15.24984600       0.00000000       0.00000000       0.00000000      -0.00920874      -0.00854497      -0.31767027      -0.01772138      -0.01143681      -0.31708125
Cu       2.09578148       6.41699404      15.24984600       0.00000000       0.00000000       0.00000000       0.02946652       0.00743201      -0.29188558       0.05428470      -0.00315343      -0.24916596
Cu       2.09578148       8.98379165      15.24984600       0.00000000       0.00000000       0.00000000       0.02264743      -0.00868581      -0.29977313      -0.00627414      -0.01868143      -0.21907393
Cu       0.00000000       0.00000000      14.49986800       0.00000000       0.00000000       0.00000000      -0.07379243       0.00916075      -0.21769639      -0.09735040      -0.00692348      -0.22633193
Cu       0.00000000       2.56679762      14.49986800       0.00000000       0.00000000       0.00000000      -0.07617192      -0.00172173      -0.19074166      -0.13747857       0.02071451      -0.19131174
Cu       0.00000000       5.13359523      14.49986800       0.00000000       0.00000000       0.00000000      -0.07447422      -0.01155827      -0.21418018      -0.10752218      -0.00473236      -0.24187143
Cu       0.00000000       7.70039285      14.49986800       0.00000000       0.00000000       0.00000000      -0.07841858       0.00020544      -0.23319078      -0.11845628       0.00260209      -0.24348982
Cu       4.19156295       1.28339881      13.74989000       0.00000000       0.00000000       0.00000000      -0.04401218       0.00087082      -0.12751483      -0.09055997       0.01415762      -0.00100990
Cu       4.19156295       3.85019642      13.74989000       0.00000000       0.00000000       0.00000000      -0.04499185      -0.00104151      -0.12463264      -0.07265876      -0.04153810      -0.01099717
Cu       4.19156295       6.41699404      13.74989000       0.00000000       0.00000000       0.00000000      -0.04595640       0.00070768      -0.12530437      -0.04718148       0.00673416      -0.02193418
Cu       4.19156295       8.98379165      13.74989000       0.00000000       0.00000000       0.00000000      -0.04433637      -0.00060256      -0.12767009      -0.06253870       0.01482484      -0.03835948
Cu       2.09578148       0.00000000      12.99991200       0.00000000       0.00000000       0.00000000      -0.07822369       0.00001504       0.16954259      -0.09552855       0.04363669       0.23924526
Cu       2.09578148       2.56679762      12.99991200       0.00000000       0.00000000       0.00000000      -0.07930530       0.00002612       0.17075797      -0.05157061      -0.03764672       0.17434186
Cu       2.09578148       5.13359523      12.99991200       0.00000000       0.00000000       0.00000000      -0.08149751       0.00014622       0.17001056      -0.10895159       0.00414023       0.25301094
Cu       2.09578148       7.70039285      12.99991200       0.00000000       0.00000000       0.00000000      -0.08028805      -0.00008474       0.16792623      -0.10954412      -0.01022112       0.28398981
Cu      -0.00000000       1.28339881      12.24993400       0.00000000       0.00000000       0.00000000       0.11790950      -0.00030574       0.43623852       0.10901541      -0.00286137       0.68059638
Cu      -0.00000000       3.85019642      12.24993400       0.00000000       0.00000000       0.00000000       0.11789996       0.00084411       0.43603460       0.10941618      -0.01933160       0.67690985
Cu      -0.00000000       6.41699404      12.24993400       0.00000000       0.00000000       0.00000000       0.11771568       0.00033151       0.43674773       0.11259941      -0.00135693       0.72983159
Cu      -0.00000000       8.98379165      12.24993400       0.00000000       0.00000000       0.00000000       0.11774150      -0.00094163       0.43702592       0.11478258       0.01961705       0.70250996
O        4.52116483       6.75462221      20.82211696       0.05146567      -0.00893215       0.10829072       0.00646220      -0.03106808       0.00948445       0.30299120      -0.00381353       0.50418808
C        3.87211174       7.33692846      19.79050712       0.13665706      -0.11774848       0.00056732       0.00145617      -0.01160697       0.04851044       0.07438722       0.17449576       0.29375319
H        5.08071019       6.01972296      20.47053439      -0.01476964      -0.11777143       0.12524632       0.00139965      -0.02412027      -0.02015204       0.38091573      -0.68262988      -0.73121428
O        3.24631510       8.39464334      19.99508828       0.10321933       0.15913270      -0.01633040       0.00672406       0.00470636       0.05097493      -0.42948639       0.28707690       0.08712504
40
Lattice="6.2873444314750255 0.0 0.0 0.0 10.26719046282867 0.0 0.0 0.0 28.249757996450562" Properties=species:S:1:pos:R:3:MACE_forces:R:3:forces:R:3:DFT_forces:R:3 adsorbate_info="_JSON {\"top layer atom index\": 0, \"sites\": {}}" method=neb MACE_energy=-161.1716588707473 energy=-161.29518959014217 stress="0.007046669745975515 -5.081940709053173e-06 -2.8341301429322483e-05 -5.081940709053173e-06 0.008150504215825277 0.00014417181696233446 -2.8341301429322483e-05 0.00014417181696233446 0.0014519238666479957" free_energy=-161.29518959014217 DFT_energy=-162.98683804 pbc="T T T"
Cu       4.08166596       1.31223682      18.07788684      -0.01147197       0.01174217       0.14752487      -0.00655368       0.00987067       0.14676571       0.03915603       0.04187226      -0.07171418
Cu       4.08775735       3.84117919      18.09505828      -0.00793256      -0.01594261       0.14597778      -0.00849748      -0.00975303       0.14360010       0.02336201      -0.04715133      -0.17063969
Cu       4.08840026       6.37826042      18.05762333       0.00238633      -0.01139649       0.17052742      -0.00932419       0.00818123       0.14051927       0.03515717       0.06813617       0.10052840
Cu       4.05641131       9.06805892      18.12408543      -0.01612559      -0.00954075       0.17003719      -0.00333753      -0.00521405       0.16530096       0.05506754      -0.06756537       0.02509453
Cu       2.01335198      10.27860162      17.37953386      -0.00328988       0.00969142       0.12789755       0.00524779       0.00953182       0.13054977      -0.00309129       0.01795457       0.00227194
Cu       2.03078683       2.56868159      17.39431006       0.00217269       0.00037896       0.13319125       0.00578190      -0.00050047       0.13574989       0.02004728       0.01596605       0.06313641
Cu       2.02289014       5.12255150      17.39168051       0.00243410      -0.00745810       0.12208188       0.00082278      -0.00629671       0.12543010      -0.00119135      -0.01377144       0.02725295
Cu       2.01192134       7.69597610      17.38285732       0.01045847       0.00149652       0.12151042       0.00273760       0.00679402       0.12253414      -0.08338408       0.03602315      -0.11053569
Cu       6.25560097       1.28771951      16.72571243      -0.00662975       0.00254066       0.10542395      -0.00189632       0.00325088       0.10749546       0.00879928       0.00688800      -0.04296487
Cu       6.25642552       3.84676202      16.72808421      -0.00371989      -0.00101027       0.10343562      -0.00209162      -0.00290750       0.10428321      -0.02009518      -0.00521213      -0.03107017
Cu       6.26282454       6.41105496      16.70957126       0.00400075      -0.00154568       0.08962571       0.00233948      -0.00227907       0.09118126      -0.00670307       0.02921593      -0.03186496
Cu       6.23697165       8.98664037      16.73882480       0.00071153       0.00412498       0.09539347       0.00136989       0.00873066       0.09511712       0.05124284      -0.02585877      -0.09761844
Cu       4.19156295       0.00000000      15.99982400       0.00000000       0.00000000       0.00000000       0.07701543      -0.01228276      -0.39741454       0.06132079      -0.11262688      -0.26701797
Cu       4.19156295       2.56679762      15.99982400       0.00000000       0.00000000       0.00000000       0.06079125       0.02260139      -0.48390274       0.08331371       0.02999182      -0.44418100
Cu       4.19156295       5.13359523      15.99982400       0.00000000       0.00000000       0.00000000       0.06161371       0.02956463      -0.34893328       0.07353040       0.01450294      -0.49582663
Cu       4.19156295       7.70039285      15.99982400       0.00000000       0.00000000       0.00000000       0.08823876       0.01395026      -0.20936861       0.05568797       0.11846577      -0.39073874
Cu       2.09578148       1.28339881      15.24984600       0.00000000       0.00000000       0.00000000      -0.00300318       0.00259424      -0.31174978      -0.01384855       0.04101148      -0.33838737
Cu       2.09578148       3.85019642      15.24984600       0.00000000       0.00000000       0.00000000      -0.00920874      -0.00854497      -0.31767027      -0.01044083      -0.01361109      -0.30535847
Cu       2.09578148       6.41699404      15.24984600       0.00000000       0.00000000       0.00000000       0.02946652       0.00743201      -0.29188558       0.06872458      -0.01379244      -0.25606651
Cu       2.09578148       8.98379165      15.24984600       0.00000000       0.00000000       0.00000000       0.02264743      -0.00868581      -0.29977313      -0.01338300      -0.01354039      -0.22180490
Cu       0.00000000       0.00000000      14.49986800       0.00000000       0.00000000       0.00000000      -0.07379243       0.00916075      -0.21769639      -0.10249982      -0.01950788      -0.21302119
Cu       0.00000000       2.56679762      14.49986800       0.00000000       0.00000000       0.00000000      -0.07617192      -0.00172173      -0.19074166      -0.13082134       0.01594638      -0.19546757
Cu       0.00000000       5.13359523      14.49986800       0.00000000       0.00000000       0.00000000      -0.07447422      -0.01155827      -0.21418018      -0.10538430      -0.01056470      -0.24828836
Cu       0.00000000       7.70039285      14.49986800       0.00000000       0.00000000       0.00000000      -0.07841858       0.00020544      -0.23319078      -0.11279564       0.01840670      -0.24698690
Cu       4.19156295       1.28339881      13.74989000       0.00000000       0.00000000       0.00000000      -0.04401218       0.00087082      -0.12751483      -0.08976710       0.01931077      -0.00215350
Cu       4.19156295       3.85019642      13.74989000       0.00000000       0.00000000       0.00000000      -0.04499185      -0.00104151      -0.12463264      -0.07939095      -0.04908570      -0.01529147
Cu       4.19156295       6.41699404      13.74989000       0.00000000       0.00000000       0.00000000      -0.04595640       0.00070768      -0.12530437      -0.04939079       0.01995571      -0.03373312
Cu       4.19156295       8.98379165      13.74989000       0.00000000       0.00000000       0.00000000      -0.04433637      -0.00060256      -0.12767009      -0.06034907       0.00798547      -0.04098564
Cu       2.09578148       0.00000000      12.99991200       0.00000000       0.00000000       0.00000000      -0.07822369       0.00001504       0.16954259      -0.08633569       0.03662439       0.24153914
Cu       2.09578148       2.56679762      12.99991200       0.00000000       0.00000000       0.00000000      -0.07930530       0.00002612       0.17075797      -0.05493023      -0.02908644       0.18395084
Cu       2.09578148       5.13359523      12.99991200       0.00000000       0.00000000       0.00000000      -0.08149751       0.00014622       0.17001056      -0.10444914      -0.00306709       0.25339432
Cu       2.09578148       7.70039285      12.99991200       0.00000000       0.00000000       0.00000000      -0.08028805      -0.00008474       0.16792623      -0.10772946      -0.00892186       0.29163947
Cu      -0.00000000       1.28339881      12.24993400       0.00000000       0.00000000       0.00000000       0.11790950      -0.00030574       0.43623852       0.10382325       0.01120344       0.68424794
Cu      -0.00000000       3.85019642      12.24993400       0.00000000       0.00000000       0.00000000       0.11789996       0.00084411       0.43603460       0.10851330      -0.02462098       0.67671870
Cu      -0.00000000       6.41699404      12.24993400       0.00000000       0.00000000       0.00000000       0.11771568       0.00033151       0.43674773       0.11121810       0.00073647       0.72852760
Cu      -0.00000000       8.98379165      12.24993400       0.00000000       0.00000000       0.00000000       0.11774150      -0.00094163       0.43702592       0.11111300       0.00990440       0.70832193
O        4.29771819       6.39254002      20.85858226       0.01647864      -0.00813435       0.07849613       0.00646220      -0.03106808       0.00948445       0.20772450      -0.18620189       0.48680339
C        3.96669399       7.17329150      19.81224315       0.05502679       0.09688998       0.07494853       0.00145617      -0.01160697       0.04851044       0.10869692      -0.06286117       0.31832817
H        4.60680093       5.51532254      20.51028908      -0.08000574      -0.06160165       0.12305819       0.00139965      -0.02412027      -0.02015204       0.29001016      -0.45825029      -0.62822266
O        3.68769227       8.37429262      20.02629668       0.18793749      -0.06952377      -0.01175908       0.00672406       0.00470636       0.05097493      -0.38052795       0.60519599       0.10818431
40
Lattice="6.2873444314750255 0.0 0.0 0.0 10.26719046282867 0.0 0.0 0.0 28.249757996450562" Properties=species:S:1:pos:R:3:MACE_forces:R:3:forces:R:3:DFT_forces:R:3 adsorbate_info="_JSON {\"top layer atom index\": 0, \"sites\": {}}" method=neb MACE_energy=-161.20687019982807 energy=-161.29518959014217 stress="0.007046669745975515 -5.081940709053173e-06 -2.8341301429322483e-05 -5.081940709053173e-06 0.008150504215825277 0.00014417181696233446 -2.8341301429322483e-05 0.00014417181696233446 0.0014519238666479957" free_energy=-161.29518959014217 DFT_energy=-163.01150333 pbc="T T T"
Cu       4.08587254       1.31779891      18.07929912      -0.01349423      -0.00099050       0.14611421      -0.00655368       0.00987067       0.14676571       0.03716540       0.03278148      -0.06914313
Cu       4.08878102       3.84297510      18.09589999      -0.00825953      -0.02196682       0.14948069      -0.00849748      -0.00975303       0.14360010       0.02355695      -0.05747240      -0.18412885
Cu       4.09798357       6.37959894      18.03864532      -0.00538180      -0.03636137       0.17059916      -0.00932419       0.00818123       0.14051927       0.03603845       0.02145168       0.12079048
Cu       4.07653648       9.07516867      18.12903853      -0.01086301      -0.01767797       0.16435734      -0.00333753      -0.00521405       0.16530096       0.07640021      -0.05751193       0.01643968
Cu       2.02334018      10.27681240      17.38364228      -0.00319771       0.00791634       0.13167108       0.00524779       0.00953182       0.13054977      -0.01273118       0.01690160      -0.00073606
Cu       2.03201525       2.56873633      17.39485280       0.00175601      -0.00021843       0.13230866       0.00578190      -0.00050047       0.13574989       0.02229252       0.01895642       0.06339085
Cu       2.02488540       5.12391339      17.39369243       0.00290092      -0.00937678       0.11840015       0.00082278      -0.00629671       0.12543010      -0.00148720      -0.01660306       0.02151947
Cu       2.02370193       7.70065681      17.38702906       0.00964878      -0.00040973       0.12468777       0.00273760       0.00679402       0.12253414      -0.09506462       0.03017322      -0.10560461
Cu       6.25884369       1.28492539      16.72659227      -0.00859626       0.00596822       0.10485072      -0.00189632       0.00325088       0.10749546       0.00881148       0.01181040      -0.04631927
Cu       6.25758680       3.84644191      16.72824809      -0.00482533       0.00011391       0.10319073      -0.00209162      -0.00290750       0.10428321      -0.02025835      -0.00753001      -0.03137396
Cu       6.27126872       6.41293297      16.70659782      -0.00341523       0.00163680       0.09152750       0.00233948      -0.00227907       0.09118126      -0.01193149       0.03393783      -0.03632105
Cu       6.24436189       8.98664271      16.73676320       0.00303506       0.00243117       0.08964407       0.00136989       0.00873066       0.09511712       0.05997642      -0.02680529      -0.10274501
Cu       4.19156295       0.00000000      15.99982400       0.00000000       0.00000000       0.00000000       0.07701543      -0.01228276      -0.39741454       0.07226575      -0.11387305      -0.25763984
Cu       4.19156295       2.56679762      15.99982400       0.00000000       0.00000000       0.00000000       0.06079125       0.02260139      -0.48390274       0.09259642       0.03027755      -0.44351163
Cu       4.19156295       5.13359523      15.99982400       0.00000000       0.00000000       0.00000000       0.06161371       0.02956463      -0.34893328       0.08541253      -0.01213206      -0.55675054
Cu       4.19156295       7.70039285      15.99982400       0.00000000       0.00000000       0.00000000       0.08823876       0.01395026      -0.20936861       0.07744163       0.15655297      -0.43265078
Cu       2.09578148       1.28339881      15.24984600       0.00000000       0.00000000       0.00000000      -0.00300318       0.00259424      -0.31174978      -0.01343753       0.03893529      -0.33263050
Cu       2.09578148       3.85019642      15.24984600       0.00000000       0.00000000       0.00000000      -0.00920874      -0.00854497      -0.31767027      -0.00937054      -0.01307884      -0.29893602
Cu       2.09578148       6.41699404      15.24984600       0.00000000       0.00000000       0.00000000       0.02946652       0.00743201      -0.29188558       0.07919970      -0.00989704      -0.25169902
Cu       2.09578148       8.98379165      15.24984600       0.00000000       0.00000000       0.00000000       0.02264743      -0.00868581      -0.29977313      -0.00815121      -0.01063327      -0.22389436
Cu       0.00000000       0.00000000      14.49986800       0.00000000       0.00000000       0.00000000      -0.07379243       0.00916075      -0.21769639      -0.10584104      -0.01909173      -0.21460908
Cu       0.00000000       2.56679762      14.49986800       0.00000000       0.00000000       0.00000000      -0.07617192      -0.00172173      -0.19074166      -0.12923568       0.01326388      -0.19337052
Cu       0.00000000       5.13359523      14.49986800       0.00000000       0.00000000       0.00000000      -0.07447422      -0.01155827      -0.21418018      -0.10588462      -0.01196744      -0.25005823
Cu       0.00000000       7.70039285      14.49986800       0.00000000       0.00000000       0.00000000      -0.07841858       0.00020544      -0.23319078      -0.11342154       0.02212087      -0.25187683
Cu       4.19156295       1.28339881      13.74989000       0.00000000       0.00000000       0.00000000      -0.04401218       0.00087082      -0.12751483      -0.08922667       0.01973505      -0.00223525
Cu       4.19156295       3.85019642      13.74989000       0.00000000       0.00000000       0.00000000      -0.04499185      -0.00104151      -0.12463264      -0.08084335      -0.05087464      -0.01654666
Cu       4.19156295       6.41699404      13.74989000       0.00000000       0.00000000       0.00000000      -0.04595640       0.00070768      -0.12530437      -0.05054802       0.02261850      -0.03734769
Cu       4.19156295       8.98379165      13.74989000       0.00000000       0.00000000       0.00000000      -0.04433637      -0.00060256      -0.12767009      -0.06082466       0.00869839      -0.04257383
Cu       2.09578148       0.00000000      12.99991200       0.00000000       0.00000000       0.00000000      -0.07822369       0.00001504       0.16954259      -0.08514214       0.03546270       0.24164808
Cu       2.09578148       2.56679762      12.99991200       0.00000000       0.00000000       0.00000000      -0.07930530       0.00002612       0.17075797      -0.05628072      -0.02757460       0.18512166
Cu       2.09578148       5.13359523      12.99991200       0.00000000       0.00000000       0.00000000      -0.08149751       0.00014622       0.17001056      -0.10409965      -0.00320014       0.25406202
Cu       2.09578148       7.70039285      12.99991200       0.00000000       0.00000000       0.00000000      -0.08028805      -0.00008474       0.16792623      -0.10783744      -0.00859852       0.29266741
Cu      -0.00000000       1.28339881      12.24993400       0.00000000       0.00000000       0.00000000       0.11790950      -0.00030574       0.43623852       0.10268304       0.01442680       0.68283218
Cu      -0.00000000       3.85019642      12.24993400       0.00000000       0.00000000       0.00000000       0.11789996       0.00084411       0.43603460       0.10866258      -0.02516930       0.67517860
Cu      -0.00000000       6.41699404      12.24993400       0.00000000       0.00000000       0.00000000       0.11771568       0.00033151       0.43674773       0.11089189       0.00154354       0.72770044
Cu      -0.00000000       8.98379165      12.24993400       0.00000000       0.00000000       0.00000000       0.11774150      -0.00094163       0.43702592       0.11149514       0.00838468       0.70839498
O        4.26495622       6.30443151      20.83396163       0.02026910       0.01262903       0.07465344       0.00646220      -0.03106808       0.00948445       0.18365017      -0.23290806       0.47739206
C        4.03297155       7.13766034      19.80177936       0.05293746       0.02257942       0.07294809       0.00145617      -0.01160697       0.04851044       0.05676642       0.03024044       0.39045835
H        4.47892625       5.40506668      20.46485570      -0.07471323      -0.04277299       0.15120171       0.00139965      -0.02412027      -0.02015204       0.22674066      -0.57409495      -0.62374608
O        3.86679341       8.35386429      20.03165892       0.12818341       0.00174140       0.03633294       0.00672406       0.00470636       0.05097493      -0.31042969       0.71074305       0.14885253
40
Lattice="6.2873444314750255 0.0 0.0 0.0 10.26719046282867 0.0 0.0 0.0 28.249757996450562" Properties=species:S:1:pos:R:3:MACE_forces:R:3:forces:R:3:DFT_forces:R:3 adsorbate_info="_JSON {\"top layer atom index\": 0, \"sites\": {}}" method=neb MACE_energy=-161.24241314051324 energy=-161.29518959014217 stress="0.007046669745975515 -5.081940709053173e-06 -2.8341301429322483e-05 -5.081940709053173e-06 0.008150504215825277 0.00014417181696233446 -2.8341301429322483e-05 0.00014417181696233446 0.0014519238666479957" free_energy=-161.29518959014217 DFT_energy=-163.05449037 pbc="T T T"
Cu       4.08448767       1.32335853      18.07941578      -0.01358021      -0.01241380       0.14561589      -0.00655368       0.00987067       0.14676571       0.03753437       0.01881439      -0.07026218
Cu       4.08585887       3.84387197      18.09753382      -0.00849175      -0.01876835       0.14627585      -0.00849748      -0.00975303       0.14360010       0.02611293      -0.05348052      -0.18585587
Cu       4.10084979       6.37465607      18.05389417      -0.00501538      -0.03902543       0.19252816      -0.00932419       0.00818123       0.14051927       0.05308382       0.01609251       0.12912739
Cu       4.08426909       9.08017656      18.12530822      -0.00215555      -0.01352859       0.13994695      -0.00333753      -0.00521405       0.16530096       0.09351970      -0.03190266      -0.02882618
Cu       2.02450731      10.27696864      17.38521180       0.00515374       0.00445311       0.13429595       0.00524779       0.00953182       0.13054977      -0.00742899       0.01565905      -0.00274938
Cu       2.03019500       2.56975568      17.39463705       0.00192468      -0.00017672       0.13199385       0.00578190      -0.00050047       0.13574989       0.02261443       0.01872743       0.06294397
Cu       2.02419375       5.12550267      17.39291220       0.00812680      -0.00791243       0.12000775       0.00082278      -0.00629671       0.12543010       0.00697732      -0.01078249       0.02188641
Cu       2.02969104       7.70220755      17.38698331       0.00843311       0.00091924       0.12568552       0.00273760       0.00679402       0.12253414      -0.09510677       0.02152741      -0.09932740
Cu       6.25851222       1.28434158      16.72711193      -0.00863115       0.00636824       0.10465962      -0.00189632       0.00325088       0.10749546       0.00942132       0.01398655      -0.04727610
Cu       6.25621022       3.84700796      16.72916766      -0.00398573       0.00043700       0.10251536      -0.00209162      -0.00290750       0.10428321      -0.01729667      -0.01036374      -0.03544103
Cu       6.27094709       6.41420371      16.70754664      -0.00357566       0.00390556       0.09265565       0.00233948      -0.00227907       0.09118126      -0.00652775       0.03795197      -0.03442370
Cu       6.24826081       8.98647661      16.73277772       0.00490377       0.00008744       0.08935297       0.00136989       0.00873066       0.09511712       0.06283375      -0.02891713      -0.10093972
Cu       4.19156295       0.00000000      15.99982400       0.00000000       0.00000000       0.00000000       0.07701543      -0.01228276      -0.39741454       0.06994956      -0.10635458      -0.26769921
Cu       4.19156295       2.56679762      15.99982400       0.00000000       0.00000000       0.00000000       0.06079125       0.02260139      -0.48390274       0.09215232       0.03892031      -0.44316058
Cu       4.19156295       5.13359523      15.99982400       0.00000000       0.00000000       0.00000000       0.06161371       0.02956463      -0.34893328       0.07559457       0.01504133      -0.51799442
Cu       4.19156295       7.70039285      15.99982400       0.00000000       0.00000000       0.00000000       0.08823876       0.01395026      -0.20936861       0.07644085       0.12721050      -0.39447738
Cu       2.09578148       1.28339881      15.24984600       0.00000000       0.00000000       0.00000000      -0.00300318       0.00259424      -0.31174978      -0.01594880       0.04004542      -0.33064677
Cu       2.09578148       3.85019642      15.24984600       0.00000000       0.00000000       0.00000000      -0.00920874      -0.00854497      -0.31767027      -0.01210506      -0.01527895      -0.30050851
Cu       2.09578148       6.41699404      15.24984600       0.00000000       0.00000000       0.00000000       0.02946652       0.00743201      -0.29188558       0.07698580      -0.00872844      -0.25075268
Cu       2.09578148       8.98379165      15.24984600       0.00000000       0.00000000       0.00000000       0.02264743      -0.00868581      -0.29977313      -0.00229160      -0.00548967      -0.23073809
Cu       0.00000000       0.00000000      14.49986800       0.00000000       0.00000000       0.00000000      -0.07379243       0.00916075      -0.21769639      -0.10844489      -0.01573818      -0.21756701
Cu       0.00000000       2.56679762      14.49986800       0.00000000       0.00000000       0.00000000      -0.07617192      -0.00172173      -0.19074166      -0.12698931       0.01149399      -0.19154443
Cu       0.00000000       5.13359523      14.49986800       0.00000000       0.00000000       0.00000000      -0.07447422      -0.01155827      -0.21418018      -0.10817552      -0.01048522      -0.24444532
Cu       0.00000000       7.70039285      14.49986800       0.00000000       0.00000000       0.00000000      -0.07841858       0.00020544      -0.23319078      -0.11459145       0.01952521      -0.25158253
Cu       4.19156295       1.28339881      13.74989000       0.00000000       0.00000000       0.00000000      -0.04401218       0.00087082      -0.12751483      -0.08826776       0.02080972      -0.00272740
Cu       4.19156295       3.85019642      13.74989000       0.00000000       0.00000000       0.00000000      -0.04499185      -0.00104151      -0.12463264      -0.08180940      -0.04993502      -0.01702547
Cu       4.19156295       6.41699404      13.74989000       0.00000000       0.00000000       0.00000000      -0.04595640       0.00070768      -0.12530437      -0.05170656       0.02284100      -0.03944381
Cu       4.19156295       8.98379165      13.74989000       0.00000000       0.00000000       0.00000000      -0.04433637      -0.00060256      -0.12767009      -0.06160022       0.00771484      -0.04461179
Cu       2.09578148       0.00000000      12.99991200       0.00000000       0.00000000       0.00000000      -0.07822369       0.00001504       0.16954259      -0.08342293       0.03275083       0.24252655
Cu       2.09578148       2.56679762      12.99991200       0.00000000       0.00000000       0.00000000      -0.07930530       0.00002612       0.17075797      -0.05613085      -0.02473268       0.18686496
Cu       2.09578148       5.13359523      12.99991200       0.00000000       0.00000000       0.00000000      -0.08149751       0.00014622       0.17001056      -0.10240067      -0.00334959       0.25568980
Cu       2.09578148       7.70039285      12.99991200       0.00000000       0.00000000       0.00000000      -0.08028805      -0.00008474       0.16792623      -0.10777459      -0.00743226       0.29346606
Cu      -0.00000000       1.28339881      12.24993400       0.00000000       0.00000000       0.00000000       0.11790950      -0.00030574       0.43623852       0.10043945       0.01627694       0.68217198
Cu      -0.00000000       3.85019642      12.24993400       0.00000000       0.00000000       0.00000000       0.11789996       0.00084411       0.43603460       0.10728553      -0.02477006       0.67567480
Cu      -0.00000000       6.41699404      12.24993400       0.00000000       0.00000000       0.00000000       0.11771568       0.00033151       0.43674773       0.11134591       0.00266759       0.72683668
Cu      -0.00000000       8.98379165      12.24993400       0.00000000       0.00000000       0.00000000       0.11774150      -0.00094163       0.43702592       0.11190426       0.00597524       0.70889921
O        4.29852385       6.33346639      20.87630406       0.01923022      -0.01955349       0.07379375       0.00646220      -0.03106808       0.00948445       0.15591210      -0.26302532       0.46098649
C        4.10594349       7.14138478      19.81929646       0.02804005       0.04493190      -0.03986196       0.00145617      -0.01160697       0.04851044       0.06001192       0.01870318       0.48584562
H        4.44299525       5.41077419      20.53498342      -0.04787242      -0.04962742       0.14064408       0.00139965      -0.02412027      -0.02015204       0.12137144      -0.56811361      -0.71604716
O        3.99685029       8.37144093      20.01344400       0.10394975       0.00958945       0.10853390       0.00672406       0.00470636       0.05097493      -0.22347156       0.71614469       0.13315425
40
Lattice="6.2873444314750255 0.0 0.0 0.0 10.26719046282867 0.0 0.0 0.0 28.249757996450562" Properties=species:S:1:pos:R:3:MACE_forces:R:3:forces:R:3:DFT_forces:R:3 adsorbate_info="_JSON {\"top layer atom index\": 0, \"sites\": {}}" method=neb MACE_energy=-161.27281915118357 energy=-161.29518959014217 stress="0.007046669745975515 -5.081940709053173e-06 -2.8341301429322483e-05 -5.081940709053173e-06 0.008150504215825277 0.00014417181696233446 -2.8341301429322483e-05 0.00014417181696233446 0.0014519238666479957" free_energy=-161.29518959014217 DFT_energy=-163.09967107 pbc="T T T"
Cu       4.08351677       1.32509948      18.07914836      -0.00907731       0.00212490       0.14884795      -0.00655368       0.00987067       0.14676571       0.04429784       0.02745046      -0.06705841
Cu       4.08430132       3.84259327      18.09799725      -0.00798126      -0.02936727       0.14406185      -0.00849748      -0.00975303       0.14360010       0.03134688      -0.06376970      -0.17999593
Cu       4.10874774       6.36270315      18.07577608      -0.00365372       0.02372529       0.24956401      -0.00932419       0.00818123       0.14051927       0.06324316       0.09109644       0.16054600
Cu       4.10972859       9.08535821      18.11300147      -0.01042609      -0.03067688       0.19575935      -0.00333753      -0.00521405       0.16530096       0.07971054      -0.04331042       0.02939513
Cu       2.03294463      10.27324168      17.38887213      -0.00350091       0.00769856       0.13010401       0.00524779       0.00953182       0.13054977      -0.02160701       0.02091905      -0.01137780
Cu       2.02853809       2.56882865      17.39428039       0.00491296       0.00249573       0.13317334       0.00578190      -0.00050047       0.13574989       0.02622928       0.02065086       0.06301784
Cu       2.02875294       5.12664062      17.39273719      -0.00783721      -0.00869391       0.11761915       0.00082278      -0.00629671       0.12543010      -0.00507470      -0.00732155       0.01574359
Cu       2.04453438       7.70166973      17.39064882       0.00254673       0.00414546       0.12543091       0.00273760       0.00679402       0.12253414      -0.10336263       0.01195597      -0.09589125
Cu       6.25927623       1.28210395      16.72848915      -0.00391592       0.00415250       0.10476379      -0.00189632       0.00325088       0.10749546       0.01605947       0.01303228      -0.04841303
Cu       6.25581405       3.84857443      16.72985829       0.00068999      -0.00079238       0.10367006      -0.00209162      -0.00290750       0.10428321      -0.00914604      -0.01424500      -0.03800357
Cu       6.27063173       6.41667185      16.71176246       0.01478388       0.00015357       0.08536904       0.00233948      -0.00227907       0.09118126       0.02019568       0.03341516      -0.03940078
Cu       6.25972413       8.98404328      16.72472725       0.00618035       0.00431412       0.09276605       0.00136989       0.00873066       0.09511712       0.06281311      -0.02516129      -0.09884708
Cu       4.19156295       0.00000000      15.99982400       0.00000000       0.00000000       0.00000000       0.07701543      -0.01228276      -0.39741454       0.08521249      -0.09270328      -0.31261314
Cu       4.19156295       2.56679762      15.99982400       0.00000000       0.00000000       0.00000000       0.06079125       0.02260139      -0.48390274       0.09814188       0.03879032      -0.44237868
Cu       4.19156295       5.13359523      15.99982400       0.00000000       0.00000000       0.00000000       0.06161371       0.02956463      -0.34893328       0.07442317       0.04602183      -0.46764521
Cu       4.19156295       7.70039285      15.99982400       0.00000000       0.00000000       0.00000000       0.08823876       0.01395026      -0.20936861       0.08914863       0.08525722      -0.35275799
Cu       2.09578148       1.28339881      15.24984600       0.00000000       0.00000000       0.00000000      -0.00300318       0.00259424      -0.31174978      -0.01904831       0.03509368      -0.32248655
Cu       2.09578148       3.85019642      15.24984600       0.00000000       0.00000000       0.00000000      -0.00920874      -0.00854497      -0.31767027      -0.01576087      -0.01875827      -0.30220888
Cu       2.09578148       6.41699404      15.24984600       0.00000000       0.00000000       0.00000000       0.02946652       0.00743201      -0.29188558       0.06954110      -0.00624721      -0.24450185
Cu       2.09578148       8.98379165      15.24984600       0.00000000       0.00000000       0.00000000       0.02264743      -0.00868581      -0.29977313       0.01189668      -0.00693275      -0.23713966
Cu       0.00000000       0.00000000      14.49986800       0.00000000       0.00000000       0.00000000      -0.07379243       0.00916075      -0.21769639      -0.10974092      -0.01062970      -0.22530636
Cu       0.00000000       2.56679762      14.49986800       0.00000000       0.00000000       0.00000000      -0.07617192      -0.00172173      -0.19074166      -0.12496696       0.00916779      -0.18562768
Cu       0.00000000       5.13359523      14.49986800       0.00000000       0.00000000       0.00000000      -0.07447422      -0.01155827      -0.21418018      -0.11024872      -0.00707638      -0.23460901
Cu       0.00000000       7.70039285      14.49986800       0.00000000       0.00000000       0.00000000      -0.07841858       0.00020544      -0.23319078      -0.11584656       0.00940293      -0.25416587
Cu       4.19156295       1.28339881      13.74989000       0.00000000       0.00000000       0.00000000      -0.04401218       0.00087082      -0.12751483      -0.08654886       0.02209751      -0.00319700
Cu       4.19156295       3.85019642      13.74989000       0.00000000       0.00000000       0.00000000      -0.04499185      -0.00104151      -0.12463264      -0.08159261      -0.04829044      -0.01521104
Cu       4.19156295       6.41699404      13.74989000       0.00000000       0.00000000       0.00000000      -0.04595640       0.00070768      -0.12530437      -0.05239759       0.02119635      -0.03978543
Cu       4.19156295       8.98379165      13.74989000       0.00000000       0.00000000       0.00000000      -0.04433637      -0.00060256      -0.12767009      -0.06245322       0.00506108      -0.04723334
Cu       2.09578148       0.00000000      12.99991200       0.00000000       0.00000000       0.00000000      -0.07822369       0.00001504       0.16954259      -0.08223375       0.02917775       0.24551982
Cu       2.09578148       2.56679762      12.99991200       0.00000000       0.00000000       0.00000000      -0.07930530       0.00002612       0.17075797      -0.05488860      -0.02321891       0.18699667
Cu       2.09578148       5.13359523      12.99991200       0.00000000       0.00000000       0.00000000      -0.08149751       0.00014622       0.17001056      -0.10024737      -0.00344444       0.25724402
Cu       2.09578148       7.70039285      12.99991200       0.00000000       0.00000000       0.00000000      -0.08028805      -0.00008474       0.16792623      -0.10610006      -0.00680565       0.29362610
Cu      -0.00000000       1.28339881      12.24993400       0.00000000       0.00000000       0.00000000       0.11790950      -0.00030574       0.43623852       0.10000085       0.01703831       0.68195220
Cu      -0.00000000       3.85019642      12.24993400       0.00000000       0.00000000       0.00000000       0.11789996       0.00084411       0.43603460       0.10670028      -0.02500913       0.67551937
Cu      -0.00000000       6.41699404      12.24993400       0.00000000       0.00000000       0.00000000       0.11771568       0.00033151       0.43674773       0.11210031       0.00292185       0.72599445
Cu      -0.00000000       8.98379165      12.24993400       0.00000000       0.00000000       0.00000000       0.11774150      -0.00094163       0.43702592       0.11282535       0.00277564       0.70982300
O        4.33457620       6.39001794      20.92829691      -0.00372731      -0.00325943      -0.06902745       0.00646220      -0.03106808       0.00948445       0.07854769      -0.15706855       0.23947832
C        4.18592088       7.16679803      19.83277675       0.03300308       0.03933250       0.16119239       0.00145617      -0.01160697       0.04851044       0.04825649      -0.02246608       0.31786859
H        4.39589868       5.44634356      20.63215152      -0.02233363      -0.06893687       0.09066548       0.00139965      -0.02412027      -0.02015204       0.04661792      -0.59318187      -0.39060280
O        4.14806506       8.40568533      20.00629582       0.06217387      -0.03191283      -0.04493420       0.00672406       0.00470636       0.05097493      -0.11604401       0.63311811       0.05373324
40
Lattice="6.2873444314750255 0.0 0.0 0.0 10.26719046282867 0.0 0.0 0.0 28.249757996450562" Properties=species:S:1:pos:R:3:MACE_forces:R:3:forces:R:3:DFT_forces:R:3 adsorbate_info="_JSON {\"top layer atom index\": 0, \"sites\": {}}" method=neb MACE_energy=-161.2898727000541 energy=-161.29518959014217 stress="0.007046669745975515 -5.081940709053173e-06 -2.8341301429322483e-05 -5.081940709053173e-06 0.008150504215825277 0.00014417181696233446 -2.8341301429322483e-05 0.00014417181696233446 0.0014519238666479957" free_energy=-161.29518959014217 DFT_energy=-163.11512891 pbc="T T T"
Cu       4.08300660       1.32207397      18.07874946      -0.00631746       0.01017714       0.14875020      -0.00655368       0.00987067       0.14676571       0.04713642       0.03673915      -0.06645902
Cu       4.08493549       3.83462522      18.09733492      -0.00892152      -0.00093492       0.14358328      -0.00849748      -0.00975303       0.14360010       0.03462836      -0.02920585      -0.16723236
Cu       4.11442758       6.35450776      18.11084682       0.00064119       0.00489346       0.15754485      -0.00932419       0.00818123       0.14051927       0.07522253       0.07764040       0.02760590
Cu       4.13100341       9.08213777      18.10585824      -0.02067473      -0.00793623       0.16787784      -0.00333753      -0.00521405       0.16530096       0.07390846       0.01018489      -0.04058276
Cu       2.03892563      10.26846499      17.39196659       0.00223784       0.01151468       0.12724027       0.00524779       0.00953182       0.13054977      -0.01872746       0.02688670      -0.01523411
Cu       2.02799415       2.56761056      17.39392842       0.00685722       0.00017917       0.13445384       0.00578190      -0.00050047       0.13574989       0.02766024       0.01571648       0.06512280
Cu       2.03311947       5.12696398      17.39221697       0.00078345      -0.00594719       0.12513495       0.00082278      -0.00629671       0.12543010       0.00517188      -0.00103385       0.02287674
Cu       2.05829688       7.69889030      17.39642188      -0.00731332       0.00762234       0.11148872       0.00273760       0.00679402       0.12253414      -0.11942613       0.00712889      -0.10479212
Cu       6.26065189       1.28040393      16.72938907      -0.00457268       0.00290287       0.10464550      -0.00189632       0.00325088       0.10749546       0.01602998       0.01217949      -0.04795994
Cu       6.25740762       3.85030336      16.73022607      -0.00438022      -0.00441923       0.10310919      -0.00209162      -0.00290750       0.10428321      -0.01210215      -0.02010648      -0.04023746
Cu       6.27277142       6.41864094      16.71482371      -0.00120346      -0.00343440       0.08992798       0.00233948      -0.00227907       0.09118126       0.00944383       0.02922567      -0.03059037
Cu       6.27133725       8.98127233      16.71758276      -0.00783051       0.00724577       0.09915755       0.00136989       0.00873066       0.09511712       0.04558849      -0.02139802      -0.09480095
Cu       4.19156295       0.00000000      15.99982400       0.00000000       0.00000000       0.00000000       0.07701543      -0.01228276      -0.39741454       0.09925906      -0.09504909      -0.33531866
Cu       4.19156295       2.56679762      15.99982400       0.00000000       0.00000000       0.00000000       0.06079125       0.02260139      -0.48390274       0.10702087       0.03223884      -0.44571965
Cu       4.19156295       5.13359523      15.99982400       0.00000000       0.00000000       0.00000000       0.06161371       0.02956463      -0.34893328       0.07836622       0.09429741      -0.37553703
Cu       4.19156295       7.70039285      15.99982400       0.00000000       0.00000000       0.00000000       0.08823876       0.01395026      -0.20936861       0.10398781       0.03181668      -0.29649181
Cu       2.09578148       1.28339881      15.24984600       0.00000000       0.00000000       0.00000000      -0.00300318       0.00259424      -0.31174978      -0.02029285       0.03003394      -0.31524943
Cu       2.09578148       3.85019642      15.24984600       0.00000000       0.00000000       0.00000000      -0.00920874      -0.00854497      -0.31767027      -0.01580444      -0.02132689      -0.30455833
Cu       2.09578148       6.41699404      15.24984600       0.00000000       0.00000000       0.00000000       0.02946652       0.00743201      -0.29188558       0.06622380      -0.00137040      -0.23874344
Cu       2.09578148       8.98379165      15.24984600       0.00000000       0.00000000       0.00000000       0.02264743      -0.00868581      -0.29977313       0.02707390      -0.01279686      -0.23914044
Cu       0.00000000       0.00000000      14.49986800       0.00000000       0.00000000       0.00000000      -0.07379243       0.00916075      -0.21769639      -0.11154090      -0.00600779      -0.23095612
Cu       0.00000000       2.56679762      14.49986800       0.00000000       0.00000000       0.00000000      -0.07617192      -0.00172173      -0.19074166      -0.12333392       0.00838534      -0.18145090
Cu       0.00000000       5.13359523      14.49986800       0.00000000       0.00000000       0.00000000      -0.07447422      -0.01155827      -0.21418018      -0.11236875      -0.00305375      -0.22701875
Cu       0.00000000       7.70039285      14.49986800       0.00000000       0.00000000       0.00000000      -0.07841858       0.00020544      -0.23319078      -0.11807739       0.00147817      -0.25847307
Cu       4.19156295       1.28339881      13.74989000       0.00000000       0.00000000       0.00000000      -0.04401218       0.00087082      -0.12751483      -0.08548807       0.02274527      -0.00321808
Cu       4.19156295       3.85019642      13.74989000       0.00000000       0.00000000       0.00000000      -0.04499185      -0.00104151      -0.12463264      -0.08176558      -0.04686575      -0.01418202
Cu       4.19156295       6.41699404      13.74989000       0.00000000       0.00000000       0.00000000      -0.04595640       0.00070768      -0.12530437      -0.05302053       0.02118788      -0.03900897
Cu       4.19156295       8.98379165      13.74989000       0.00000000       0.00000000       0.00000000      -0.04433637      -0.00060256      -0.12767009      -0.06343845       0.00303829      -0.04893072
Cu       2.09578148       0.00000000      12.99991200       0.00000000       0.00000000       0.00000000      -0.07822369       0.00001504       0.16954259      -0.08098481       0.02671700       0.24664253
Cu       2.09578148       2.56679762      12.99991200       0.00000000       0.00000000       0.00000000      -0.07930530       0.00002612       0.17075797      -0.05425789      -0.02104336       0.18791019
Cu       2.09578148       5.13359523      12.99991200       0.00000000       0.00000000       0.00000000      -0.08149751       0.00014622       0.17001056      -0.09840809      -0.00351143       0.25820065
Cu       2.09578148       7.70039285      12.99991200       0.00000000       0.00000000       0.00000000      -0.08028805      -0.00008474       0.16792623      -0.10511503      -0.00596958       0.29303703
Cu      -0.00000000       1.28339881      12.24993400       0.00000000       0.00000000       0.00000000       0.11790950      -0.00030574       0.43623852       0.09913310       0.01818406       0.68246459
Cu      -0.00000000       3.85019642      12.24993400       0.00000000       0.00000000       0.00000000       0.11789996       0.00084411       0.43603460       0.10591384      -0.02457277       0.67678042
Cu      -0.00000000       6.41699404      12.24993400       0.00000000       0.00000000       0.00000000       0.11771568       0.00033151       0.43674773       0.11270863       0.00423321       0.72531343
Cu      -0.00000000       8.98379165      12.24993400       0.00000000       0.00000000       0.00000000       0.11774150      -0.00094163       0.43702592       0.11283215       0.00036947       0.71051991
O        4.36014654       6.44911895      20.97430920      -0.00096488      -0.04622303       0.07376034       0.00646220      -0.03106808       0.00948445       0.04878025      -0.20946034       0.39866476
C        4.24245580       7.18750415      19.85527450       0.01453148       0.00876411      -0.03875520       0.00145617      -0.01160697       0.04851044       0.05724197      -0.01128435       0.48142483
H        4.34884385       5.49114631      20.72478629      -0.00460681      -0.05038548       0.04345613       0.00139965      -0.02412027      -0.02015204      -0.04217806      -0.61593359      -0.60443478
O        4.26057106       8.43323371      19.98044685       0.04374811       0.00597305       0.06411859       0.00672406       0.00470636       0.05097493      -0.03700130       0.63956294      -0.01024249
40
Lattice="6.2873444314750255 0.0 0.0 0.0 10.26719046282867 0.0 0.0 0.0 28.249757996450562" Properties=species:S:1:pos:R:3:MACE_forces:R:3:forces:R:3:DFT_forces:R:3 adsorbate_info="_JSON {\"top layer atom index\": 0, \"sites\": {}}" method=neb MACE_energy=-161.29518959014217 energy=-161.29518959014217 stress="0.007046669745975515 -5.081940709053173e-06 -2.8341301429322483e-05 -5.081940709053173e-06 0.008150504215825277 0.00014417181696233446 -2.8341301429322483e-05 0.00014417181696233446 0.0014519238666479957" free_energy=-161.29518959014217 DFT_energy=-163.1258555 pbc="T T T"
Cu       4.08169598       1.32060015      18.07893527      -0.00655368       0.00987067       0.14676571      -0.00655368       0.00987067       0.14676571       0.04827859       0.03754009      -0.06993144
Cu       4.08420604       3.83189011      18.09546469      -0.00849748      -0.00975303       0.14360010      -0.00849748      -0.00975303       0.14360010       0.03950415      -0.03262856      -0.14872794
Cu       4.12310163       6.34296620      18.13619211      -0.00932419       0.00818123       0.14051927      -0.00932419       0.00818123       0.14051927       0.07263139       0.08878997      -0.01321800
Cu       4.13456658       9.07839421      18.10290089      -0.00333753      -0.00521405       0.16530096      -0.00333753      -0.00521405       0.16530096       0.08929732       0.02713870      -0.05760378
Cu       2.04059114      10.26644875      17.39260553       0.00524779       0.00953182       0.13054977       0.00524779       0.00953182       0.13054977      -0.01767663       0.02644067      -0.01609553
Cu       2.02754615       2.56733332      17.39342979       0.00578190      -0.00050047       0.13574989       0.00578190      -0.00050047       0.13574989       0.02476896       0.01321480       0.06581136
Cu       2.03623379       5.12885090      17.39256335       0.00082278      -0.00629671       0.12543010       0.00082278      -0.00629671       0.12543010       0.00385213       0.00096923       0.01944404
Cu       2.06301108       7.69764190      17.39527832       0.00273760       0.00679402       0.12253414       0.00273760       0.00679402       0.12253414      -0.10651796      -0.00333392      -0.08932085
Cu       6.26045405       1.27970279      16.72891789      -0.00189632       0.00325088       0.10749546      -0.00189632       0.00325088       0.10749546       0.02053147       0.01333908      -0.04510828
Cu       6.25775189       3.85077468      16.73031856      -0.00209162      -0.00290750       0.10428321      -0.00209162      -0.00290750       0.10428321      -0.00694097      -0.02014539      -0.04090461
Cu       6.27168401       6.41868500      16.71609223       0.00233948      -0.00227907       0.09118126       0.00233948      -0.00227907       0.09118126       0.01851841       0.02774892      -0.03071066
Cu       6.27329708       8.97994189      16.71496278       0.00136989       0.00873066       0.09511712       0.00136989       0.00873066       0.09511712       0.05610761      -0.01864089      -0.09946645
Cu       4.19156295       0.00000000      15.99982400       0.00000000       0.00000000       0.00000000       0.07701543      -0.01228276      -0.39741454       0.09651938      -0.09422091      -0.34376605
Cu       4.19156295       2.56679762      15.99982400       0.00000000       0.00000000       0.00000000       0.06079125       0.02260139      -0.48390274       0.10958092       0.02858877      -0.44821640
Cu       4.19156295       5.13359523      15.99982400       0.00000000       0.00000000       0.00000000       0.06161371       0.02956463      -0.34893328       0.07512384       0.12300474      -0.32941962
Cu       4.19156295       7.70039285      15.99982400       0.00000000       0.00000000       0.00000000       0.08823876       0.01395026      -0.20936861       0.10244010      -0.00822623      -0.25800924
Cu       2.09578148       1.28339881      15.24984600       0.00000000       0.00000000       0.00000000      -0.00300318       0.00259424      -0.31174978      -0.02238609       0.02993187      -0.31588154
Cu       2.09578148       3.85019642      15.24984600       0.00000000       0.00000000       0.00000000      -0.00920874      -0.00854497      -0.31767027      -0.01775071      -0.02233323      -0.30459918
Cu       2.09578148       6.41699404      15.24984600       0.00000000       0.00000000       0.00000000       0.02946652       0.00743201      -0.29188558       0.06108247      -0.00341043      -0.24145570
Cu       2.09578148       8.98379165      15.24984600       0.00000000       0.00000000       0.00000000       0.02264743      -0.00868581      -0.29977313       0.03044533      -0.01127027      -0.24682699
Cu       0.00000000       0.00000000      14.49986800       0.00000000       0.00000000       0.00000000      -0.07379243       0.00916075      -0.21769639      -0.11423424      -0.00516518      -0.23092879
Cu       0.00000000       2.56679762      14.49986800       0.00000000       0.00000000       0.00000000      -0.07617192      -0.00172173      -0.19074166      -0.12146278       0.00809680      -0.18158863
Cu       0.00000000       5.13359523      14.49986800       0.00000000       0.00000000       0.00000000      -0.07447422      -0.01155827      -0.21418018      -0.11417792      -0.00281371      -0.22437963
Cu       0.00000000       7.70039285      14.49986800       0.00000000       0.00000000       0.00000000      -0.07841858       0.00020544      -0.23319078      -0.12018070      -0.00191936      -0.25531339
Cu       4.19156295       1.28339881      13.74989000       0.00000000       0.00000000       0.00000000      -0.04401218       0.00087082      -0.12751483      -0.08501349       0.02285678      -0.00283628
Cu       4.19156295       3.85019642      13.74989000       0.00000000       0.00000000       0.00000000      -0.04499185      -0.00104151      -0.12463264      -0.08155631      -0.04480027      -0.01468692
Cu       4.19156295       6.41699404      13.74989000       0.00000000       0.00000000       0.00000000      -0.04595640       0.00070768      -0.12530437      -0.05398697       0.02051934      -0.04032437
Cu       4.19156295       8.98379165      13.74989000       0.00000000       0.00000000       0.00000000      -0.04433637      -0.00060256      -0.12767009      -0.06451871       0.00147532      -0.04946480
Cu       2.09578148       0.00000000      12.99991200       0.00000000       0.00000000       0.00000000      -0.07822369       0.00001504       0.16954259      -0.07967470       0.02457230       0.24723044
Cu       2.09578148       2.56679762      12.99991200       0.00000000       0.00000000       0.00000000      -0.07930530       0.00002612       0.17075797      -0.05379116      -0.02011551       0.18817412
Cu       2.09578148       5.13359523      12.99991200       0.00000000       0.00000000       0.00000000      -0.08149751       0.00014622       0.17001056      -0.09660033      -0.00293002       0.25937875
Cu       2.09578148       7.70039285      12.99991200       0.00000000       0.00000000       0.00000000      -0.08028805      -0.00008474       0.16792623      -0.10414263      -0.00599986       0.29251156
Cu      -0.00000000       1.28339881      12.24993400       0.00000000       0.00000000       0.00000000       0.11790950      -0.00030574       0.43623852       0.09830117       0.01894998       0.68164195
Cu      -0.00000000       3.85019642      12.24993400       0.00000000       0.00000000       0.00000000       0.11789996       0.00084411       0.43603460       0.10489057      -0.02423940       0.67716203
Cu      -0.00000000       6.41699404      12.24993400       0.00000000       0.00000000       0.00000000       0.11771568       0.00033151       0.43674773       0.11298054       0.00515734       0.72422081
Cu      -0.00000000       8.98379165      12.24993400       0.00000000       0.00000000       0.00000000       0.11774150      -0.00094163       0.43702592       0.11261627      -0.00199438       0.71067875
O        4.37014687       6.49650210      21.02701084       0.00646220      -0.03106808       0.00948445       0.00646220      -0.03106808       0.00948445       0.02714496      -0.14012227       0.29256773
C        4.30257016       7.19062322      19.87161310       0.00145617      -0.01160697       0.04851044       0.00145617      -0.01160697       0.04851044       0.04557146      -0.01624689       0.47515672
H        4.30144752       5.53006936      20.83174236       0.00139965      -0.02412027      -0.02015204       0.00139965      -0.02412027      -0.02015204      -0.10816614      -0.64116448      -0.43746011
O        4.38014380       8.43831775      19.95883565       0.00672406       0.00470636       0.05097493       0.00672406       0.00470636       0.05097493       0.01859139       0.60338645      -0.09773310
