40
Lattice="7.700392847121503 0.0 0.0 0.0 8.891647766302935 0.0 0.0 0.0 26.3637743517507" Properties=species:S:1:pos:R:3:tags:I:1:MACE_forces:R:3:forces:R:3:DFT_forces:R:3 method=neb MACE_energy=-162.32094061980612 energy=-162.10200129477914 stress="0.008795264645495418 0.00011656477790891593 -2.9569974072722832e-05 0.00011656477790891593 0.008634118939168078 6.0141823762087764e-05 -2.9569974072722832e-05 6.0141823762087764e-05 -0.00022290270273621232" free_energy=-162.10200129477914 DFT_energy=-164.17644037 pbc="T T T"
Cu       1.28339881       0.74097065      12.12125812        3       0.00000000       0.00000000       0.00000000       0.00220675       0.00041103       0.12990664       0.05331953       0.01215747       0.28742592
Cu       3.85019642       0.74097065      12.12125812        3       0.00000000       0.00000000       0.00000000      -0.00146444      -0.00030530       0.12628216      -0.03231458       0.01430213       0.28479769
Cu       6.41699404       0.74097065      12.12125812        3       0.00000000       0.00000000       0.00000000      -0.00069660      -0.00314441       0.12278106      -0.02177154      -0.01293200       0.24573065
Cu       0.00000000       2.96388259      12.12125812        3       0.00000000       0.00000000       0.00000000       0.00213822       0.00284214       0.12358441       0.05005151       0.01951672       0.24249814
Cu       2.56679762       2.96388259      12.12125812        3       0.00000000       0.00000000       0.00000000      -0.00084266       0.00010888       0.12519778      -0.04529190      -0.01911114       0.28206678
Cu       5.13359523       2.96388259      12.12125812        3       0.00000000       0.00000000       0.00000000      -0.00187751       0.00377398       0.12944610      -0.00057349      -0.02377545       0.31867723
Cu       1.28339881       5.18679453      12.12125812        3       0.00000000       0.00000000       0.00000000       0.00068372      -0.00121997       0.12278985      -0.00150197      -0.03899045       0.32351880
Cu       3.85019642       5.18679453      12.12125812        3       0.00000000       0.00000000       0.00000000      -0.00008429      -0.00004677       0.12208298      -0.04262330      -0.00015834       0.28910951
Cu       6.41699404       5.18679453      12.12125812        3       0.00000000       0.00000000       0.00000000      -0.00060268      -0.00091558       0.12726778       0.03849937       0.01761771       0.28289457
Cu       0.00000000       7.40970647      12.12125812        3       0.00000000       0.00000000       0.00000000       0.00013774      -0.00145973       0.12761299      -0.02742644      -0.01223782       0.25551399
Cu       2.56679762       7.40970647      12.12125812        3       0.00000000       0.00000000       0.00000000       0.00097586      -0.00018748       0.12755945       0.02324154       0.01323369       0.28616858
Cu       5.13359523       7.40970647      12.12125812        3       0.00000000       0.00000000       0.00000000      -0.00082412       0.00025215       0.12463986       0.00378775       0.00099863       0.35992786
Cu       0.00000000       1.48194129      14.24251623        2       0.00000000       0.00000000       0.00000000      -0.02030762       0.00727762      -0.24248339      -0.05797501       0.00922305      -0.06739957
Cu       2.56679762       1.48194129      14.24251623        2       0.00000000       0.00000000       0.00000000       0.00108271      -0.01273597      -0.32219477      -0.06849219       0.08579790      -0.15416278
Cu       5.13359523       1.48194129      14.24251623        2       0.00000000       0.00000000       0.00000000       0.03444356       0.00267876      -0.29030559       0.09712343       0.04512800      -0.27771489
Cu       1.28339881       3.70485324      14.24251623        2       0.00000000       0.00000000       0.00000000      -0.01531833      -0.04425246      -0.32345571       0.01369573      -0.04340103      -0.17557790
Cu       3.85019642       3.70485324      14.24251623        2       0.00000000       0.00000000       0.00000000       0.08307649       0.01020870      -0.16097276      -0.02043423       0.04305933      -0.41779272
Cu       6.41699404       3.70485324      14.24251623        2       0.00000000       0.00000000       0.00000000      -0.09704921       0.03547827      -0.14569641      -0.00584408      -0.07933667      -0.22097532
Cu       0.00000000       5.92776518      14.24251623        2       0.00000000       0.00000000       0.00000000      -0.01104711      -0.00976909      -0.29403129       0.01508046       0.01595705      -0.33475723
Cu       2.56679762       5.92776518      14.24251623        2       0.00000000       0.00000000       0.00000000      -0.00081523       0.01057973      -0.31444962       0.00533374      -0.03594892      -0.31987394
Cu       5.13359523       5.92776518      14.24251623        2       0.00000000       0.00000000       0.00000000       0.00987762      -0.04032440      -0.21918202      -0.03981937      -0.09828631      -0.24799544
Cu       1.28339881       8.15067712      14.24251623        2       0.00000000       0.00000000       0.00000000       0.00098262      -0.00171533      -0.28404401      -0.09366275       0.01780477      -0.23771351
Cu       3.85019642       8.15067712      14.24251623        2       0.00000000       0.00000000       0.00000000      -0.00393883       0.02323252      -0.31659574      -0.00592539      -0.02410117      -0.43176994
Cu       6.41699404       8.15067712      14.24251623        2       0.00000000       0.00000000       0.00000000       0.01517658       0.03094903      -0.29891898       0.06022778       0.03396575      -0.21938579
Cu       7.68220953       8.75606515      16.32885751        1      -0.00028548      -0.00123980       0.14159338       0.00357473      -0.00517264       0.12980999       0.00001863       0.08270750      -0.17183059
Cu       2.57795930       8.85810919      16.26058209        1       0.00118446       0.00437415       0.10011565      -0.00283947      -0.00082853       0.13586750       0.02686359       0.08677859      -0.01452132
Cu       5.09340002       8.86116766      16.26958018        1       0.00121836      -0.00381826       0.10391536      -0.00531873      -0.00623657       0.12771085       0.02861348      -0.07061790      -0.09879973
Cu       1.34337270       2.29456852      16.31617378        1       0.00359617       0.00166633       0.13048627       0.00487888       0.00102155       0.12634010       0.10709114      -0.06046868      -0.12951528
Cu       3.82303430       2.20394467      16.31708711        1       0.01521915       0.00303639       0.12797961      -0.00389234       0.00212423       0.13265762      -0.01009903       0.02187645       0.00208812
Cu       6.33598159       2.27185928      16.35718554        1       0.00557562      -0.00544701       0.13005223      -0.00659331       0.01255436       0.13823323       0.08387255      -0.06538115      -0.17129904
Cu      -0.00255968       4.49764703      16.27128941        1       0.00688023       0.01112565       0.10412143      -0.00088954       0.00561881       0.13429531       0.05405284       0.04201124      -0.11787155
Cu       2.56708009       4.46973277      16.29499034        1       0.00295800      -0.00612799       0.12111581      -0.00422276       0.00783545       0.13114736      -0.09004855       0.08147603      -0.15262876
Cu       5.11953572       4.48678006      16.32058904        1      -0.00138911      -0.01467595       0.13958139       0.01365412      -0.02346501       0.18657272       0.01429006      -0.02001013       0.01284658
Cu       1.29495823       6.65535368      16.28992944        1       0.00071217      -0.00806299       0.11211060      -0.00130981       0.00727979       0.13847007      -0.00278238      -0.05571854      -0.07124438
Cu       3.83885448       6.67027420      16.28616268        1       0.00039525       0.00048443       0.10529108      -0.00259613       0.00451702       0.13564729       0.02251173      -0.02762866       0.01881685
Cu       6.39407191       6.66218824      16.28640751        1      -0.00005522       0.00341430       0.10784505      -0.00278399       0.00813879       0.13035594      -0.02718943      -0.09556927      -0.05309347
O        7.74751044       1.41442690      17.56101344        0       0.00212703       0.00756775       0.05406086       0.01087181      -0.01954379       0.02068951      -0.13350559       0.10005971       0.28406007
C        4.99911268       3.04295298      17.71521744        0       0.02343041      -0.01240823       0.05302313      -0.02172752       0.03699359       0.01777304       0.03356212      -0.03945836       0.04201830
H        7.61576701       1.46296692      18.52172834        0      -0.00505847       0.02473787       0.02895465       0.00833522      -0.01364935      -0.01101744      -0.07527353       0.09700645       0.12417031
O        5.01007478       3.02896376      18.90148609        0       0.03150567      -0.01573002       0.06286124       0.01494562      -0.02890404       0.02862615       0.07131778      -0.01754620       0.14359320
40
Lattice="7.700392847121503 0.0 0.0 0.0 8.891647766302935 0.0 0.0 0.0 26.3637743517507" Properties=species:S:1:pos:R:3:tags:I:1:MACE_forces:R:3:forces:R:3:DFT_forces:R:3 method=neb MACE_energy=-162.31414301703222 energy=-162.10200129477914 stress="0.008795264645495418 0.00011656477790891593 -2.9569974072722832e-05 0.00011656477790891593 0.008634118939168078 6.0141823762087764e-05 -2.9569974072722832e-05 6.0141823762087764e-05 -0.00022290270273621232" free_energy=-162.10200129477914 DFT_energy=-164.16848883 pbc="T T T"
Cu       1.28339881       0.74097065      12.12125812        3       0.00000000       0.00000000       0.00000000       0.00220675       0.00041103       0.12990664       0.05142784       0.01103684       0.29012447
Cu       3.85019642       0.74097065      12.12125812        3       0.00000000       0.00000000       0.00000000      -0.00146444      -0.00030530       0.12628216      -0.03073055       0.01555822       0.28712598
Cu       6.41699404       0.74097065      12.12125812        3       0.00000000       0.00000000       0.00000000      -0.00069660      -0.00314441       0.12278106      -0.02058889      -0.01273395       0.24879831
Cu       0.00000000       2.96388259      12.12125812        3       0.00000000       0.00000000       0.00000000       0.00213822       0.00284214       0.12358441       0.04927372       0.02182944       0.24452501
Cu       2.56679762       2.96388259      12.12125812        3       0.00000000       0.00000000       0.00000000      -0.00084266       0.00010888       0.12519778      -0.04316516      -0.01732612       0.28062482
Cu       5.13359523       2.96388259      12.12125812        3       0.00000000       0.00000000       0.00000000      -0.00187751       0.00377398       0.12944610      -0.00144923      -0.02432059       0.31488143
Cu       1.28339881       5.18679453      12.12125812        3       0.00000000       0.00000000       0.00000000       0.00068372      -0.00121997       0.12278985      -0.00245948      -0.03787898       0.31738760
Cu       3.85019642       5.18679453      12.12125812        3       0.00000000       0.00000000       0.00000000      -0.00008429      -0.00004677       0.12208298      -0.04392106      -0.00084587       0.28479335
Cu       6.41699404       5.18679453      12.12125812        3       0.00000000       0.00000000       0.00000000      -0.00060268      -0.00091558       0.12726778       0.04051093       0.01751106       0.27701219
Cu       0.00000000       7.40970647      12.12125812        3       0.00000000       0.00000000       0.00000000       0.00013774      -0.00145973       0.12761299      -0.02748718      -0.01371901       0.26326184
Cu       2.56679762       7.40970647      12.12125812        3       0.00000000       0.00000000       0.00000000       0.00097586      -0.00018748       0.12755945       0.02379628       0.01161582       0.28649802
Cu       5.13359523       7.40970647      12.12125812        3       0.00000000       0.00000000       0.00000000      -0.00082412       0.00025215       0.12463986       0.00419169       0.00381553       0.36010833
Cu       0.00000000       1.48194129      14.24251623        2       0.00000000       0.00000000       0.00000000      -0.02030762       0.00727762      -0.24248339      -0.01987385       0.00083161      -0.03912834
Cu       2.56679762       1.48194129      14.24251623        2       0.00000000       0.00000000       0.00000000       0.00108271      -0.01273597      -0.32219477      -0.04666713       0.13194347      -0.10240470
Cu       5.13359523       1.48194129      14.24251623        2       0.00000000       0.00000000       0.00000000       0.03444356       0.00267876      -0.29030559       0.08633253       0.06192872      -0.26914789
Cu       1.28339881       3.70485324      14.24251623        2       0.00000000       0.00000000       0.00000000      -0.01531833      -0.04425246      -0.32345571       0.01446722      -0.07078837      -0.16984489
Cu       3.85019642       3.70485324      14.24251623        2       0.00000000       0.00000000       0.00000000       0.08307649       0.01020870      -0.16097276      -0.03049129       0.02935384      -0.43333238
Cu       6.41699404       3.70485324      14.24251623        2       0.00000000       0.00000000       0.00000000      -0.09704921       0.03547827      -0.14569641       0.00348609      -0.08563190      -0.27410534
Cu       0.00000000       5.92776518      14.24251623        2       0.00000000       0.00000000       0.00000000      -0.01104711      -0.00976909      -0.29403129       0.01481153       0.01330509      -0.37141994
Cu       2.56679762       5.92776518      14.24251623        2       0.00000000       0.00000000       0.00000000      -0.00081523       0.01057973      -0.31444962      -0.00865979      -0.03735518      -0.32705619
Cu       5.13359523       5.92776518      14.24251623        2       0.00000000       0.00000000       0.00000000       0.00987762      -0.04032440      -0.21918202      -0.02424462      -0.07590134      -0.27466026
Cu       1.28339881       8.15067712      14.24251623        2       0.00000000       0.00000000       0.00000000       0.00098262      -0.00171533      -0.28404401      -0.11942002       0.05710727      -0.20116816
Cu       3.85019642       8.15067712      14.24251623        2       0.00000000       0.00000000       0.00000000      -0.00393883       0.02323252      -0.31659574      -0.00426418      -0.01486166      -0.45838162
Cu       6.41699404       8.15067712      14.24251623        2       0.00000000       0.00000000       0.00000000       0.01517658       0.03094903      -0.29891898       0.09868776       0.07562189      -0.20843354
Cu       7.68178218       8.79080539      16.35682283        1      -0.00409708      -0.01500476       0.09049968       0.00357473      -0.00517264       0.12980999       0.00383821       0.08507456      -0.17806643
Cu       2.58246134       8.87315635      16.25427006        1       0.00405648       0.00104435       0.13387143      -0.00283947      -0.00082853       0.13586750       0.02438749       0.07625334       0.02203286
Cu       5.09869460       8.86760236      16.26334039        1      -0.00572215       0.00731690       0.13688396      -0.00531873      -0.00623657       0.12771085       0.01613042      -0.05378636      -0.05264182
Cu       1.35503451       2.29382177      16.33460086        1      -0.02183642       0.01333232       0.10032617       0.00487888       0.00102155       0.12634010       0.08856562      -0.05577863      -0.15290113
Cu       3.85135688       2.22151188      16.33560494        1      -0.03664942      -0.00755794       0.13697180      -0.00389234       0.00212423       0.13265762      -0.06709057       0.00369646       0.00732645
Cu       6.36179425       2.26218853      16.34487159        1       0.03316647      -0.00851079       0.13506231      -0.00659331       0.01255436       0.13823323       0.10988874      -0.07665619      -0.15402183
Cu      -0.00123564       4.50221633      16.26350835        1       0.02345496       0.02093673       0.13738759      -0.00088954       0.00561881       0.13429531       0.08036575       0.06321119      -0.08902151
Cu       2.56709703       4.46736967      16.28898890        1       0.01937037       0.04286662       0.14117856      -0.00422276       0.00783545       0.13114736      -0.07782351       0.14562587      -0.13162795
Cu       5.12915556       4.49094324      16.30048808        1      -0.01870682       0.03614516       0.17168681       0.01365412      -0.02346501       0.18657272       0.00553900       0.05545424       0.02273063
Cu       1.28626972       6.67469651      16.28244429        1       0.04445957      -0.04036804       0.13939771      -0.00130981       0.00727979       0.13847007       0.04227231      -0.09081181      -0.03310368
Cu       3.83722436       6.67483481      16.27542590        1       0.00793320       0.00033708       0.14200401      -0.00259613       0.00451702       0.13564729       0.03454365      -0.02722170       0.05696516
Cu       6.40629081       6.68695772      16.27866765        1      -0.04386568      -0.06795497       0.13807014      -0.00278399       0.00813879       0.13035594      -0.08148522      -0.17029151      -0.01568326
O        7.76697286       1.45895091      17.62144104        0      -0.01084951       0.04754401      -0.02546546       0.01087181      -0.01954379       0.02068951      -0.15225528       0.13897620       0.10044656
C        5.05176145       3.09555479      17.71431685        0       0.08075283      -0.06263068       0.08224835      -0.02172752       0.03699359       0.01777304      -0.05948416      -0.08655629      -0.01890618
H        7.55642374       1.65315726      18.55047353        0       0.01213092      -0.03774874      -0.01145246       0.00833522      -0.01364935      -0.01101744      -0.03160806       0.04725214       0.17130835
O        5.14364030       3.10107149      18.89826334        0      -0.04668354      -0.03335955       0.00949009       0.01494562      -0.02890404       0.02862615       0.10065245      -0.11453733       0.11910569
40
Lattice="7.700392847121503 0.0 0.0 0.0 8.891647766302935 0.0 0.0 0.0 26.3637743517507" Properties=species:S:1:pos:R:3:tags:I:1:MACE_forces:R:3:forces:R:3:DFT_forces:R:3 method=neb MACE_energy=-162.31232386847876 energy=-162.10200129477914 stress="0.008795264645495418 0.00011656477790891593 -2.9569974072722832e-05 0.00011656477790891593 0.008634118939168078 6.0141823762087764e-05 -2.9569974072722832e-05 6.0141823762087764e-05 -0.00022290270273621232" free_energy=-162.10200129477914 DFT_energy=-164.15680379 pbc="T T T"
Cu       1.28339881       0.74097065      12.12125812        3       0.00000000       0.00000000       0.00000000       0.00220675       0.00041103       0.12990664       0.05150627       0.01064923       0.28885174
Cu       3.85019642       0.74097065      12.12125812        3       0.00000000       0.00000000       0.00000000      -0.00146444      -0.00030530       0.12628216      -0.03178638       0.01664681       0.28764963
Cu       6.41699404       0.74097065      12.12125812        3       0.00000000       0.00000000       0.00000000      -0.00069660      -0.00314441       0.12278106      -0.02071118      -0.01225894       0.24617509
Cu       0.00000000       2.96388259      12.12125812        3       0.00000000       0.00000000       0.00000000       0.00213822       0.00284214       0.12358441       0.04827354       0.02096709       0.24417140
Cu       2.56679762       2.96388259      12.12125812        3       0.00000000       0.00000000       0.00000000      -0.00084266       0.00010888       0.12519778      -0.04213707      -0.01763475       0.28140470
Cu       5.13359523       2.96388259      12.12125812        3       0.00000000       0.00000000       0.00000000      -0.00187751       0.00377398       0.12944610      -0.00144256      -0.02473356       0.31566245
Cu       1.28339881       5.18679453      12.12125812        3       0.00000000       0.00000000       0.00000000       0.00068372      -0.00121997       0.12278985      -0.00157450      -0.03759399       0.31728229
Cu       3.85019642       5.18679453      12.12125812        3       0.00000000       0.00000000       0.00000000      -0.00008429      -0.00004677       0.12208298      -0.04473923      -0.00214371       0.28732722
Cu       6.41699404       5.18679453      12.12125812        3       0.00000000       0.00000000       0.00000000      -0.00060268      -0.00091558       0.12726778       0.03915780       0.01734878       0.27725861
Cu       0.00000000       7.40970647      12.12125812        3       0.00000000       0.00000000       0.00000000       0.00013774      -0.00145973       0.12761299      -0.02837338      -0.01404659       0.26357419
Cu       2.56679762       7.40970647      12.12125812        3       0.00000000       0.00000000       0.00000000       0.00097586      -0.00018748       0.12755945       0.02299740       0.01051278       0.28561272
Cu       5.13359523       7.40970647      12.12125812        3       0.00000000       0.00000000       0.00000000      -0.00082412       0.00025215       0.12463986       0.00471854       0.00292352       0.36021340
Cu       0.00000000       1.48194129      14.24251623        2       0.00000000       0.00000000       0.00000000      -0.02030762       0.00727762      -0.24248339      -0.01505870      -0.00116448      -0.05815775
Cu       2.56679762       1.48194129      14.24251623        2       0.00000000       0.00000000       0.00000000       0.00108271      -0.01273597      -0.32219477      -0.03903901       0.14110278      -0.10349402
Cu       5.13359523       1.48194129      14.24251623        2       0.00000000       0.00000000       0.00000000       0.03444356       0.00267876      -0.29030559       0.07971516       0.07369338      -0.25405052
Cu       1.28339881       3.70485324      14.24251623        2       0.00000000       0.00000000       0.00000000      -0.01531833      -0.04425246      -0.32345571       0.02507210      -0.05313712      -0.18154791
Cu       3.85019642       3.70485324      14.24251623        2       0.00000000       0.00000000       0.00000000       0.08307649       0.01020870      -0.16097276      -0.02525065       0.02308175      -0.40620745
Cu       6.41699404       3.70485324      14.24251623        2       0.00000000       0.00000000       0.00000000      -0.09704921       0.03547827      -0.14569641      -0.00062000      -0.07359176      -0.26538919
Cu       0.00000000       5.92776518      14.24251623        2       0.00000000       0.00000000       0.00000000      -0.01104711      -0.00976909      -0.29403129       0.01670893       0.02223714      -0.36650542
Cu       2.56679762       5.92776518      14.24251623        2       0.00000000       0.00000000       0.00000000      -0.00081523       0.01057973      -0.31444962      -0.00360757      -0.03339640      -0.34446869
Cu       5.13359523       5.92776518      14.24251623        2       0.00000000       0.00000000       0.00000000       0.00987762      -0.04032440      -0.21918202      -0.03005872      -0.07638126      -0.29559246
Cu       1.28339881       8.15067712      14.24251623        2       0.00000000       0.00000000       0.00000000       0.00098262      -0.00171533      -0.28404401      -0.10012228       0.05619901      -0.20615603
Cu       3.85019642       8.15067712      14.24251623        2       0.00000000       0.00000000       0.00000000      -0.00393883       0.02323252      -0.31659574      -0.00106598      -0.01291977      -0.45610133
Cu       6.41699404       8.15067712      14.24251623        2       0.00000000       0.00000000       0.00000000       0.01517658       0.03094903      -0.29891898       0.07681616       0.06310896      -0.21829854
Cu       7.67694578       8.78020398      16.34202574        1       0.01787437       0.05330034       0.15274879       0.00357473      -0.00517264       0.12980999       0.02724245       0.17983232      -0.08670199
Cu       2.58838181       8.88192787      16.25399194        1      -0.02934209      -0.02329212       0.13507916      -0.00283947      -0.00082853       0.13586750      -0.01863494       0.04715475       0.02212788
Cu       5.09851164       8.87555611      16.26498496        1       0.00544336      -0.01118827       0.13119468      -0.00531873      -0.00623657       0.12771085       0.03102600      -0.08232961      -0.06070883
Cu       1.35712977       2.30753884      16.32984395        1       0.00842457       0.00046198       0.09485647       0.00487888       0.00102155       0.12634010       0.13697920      -0.06260511      -0.16781573
Cu       3.84826834       2.22683301      16.34581084        1       0.02933224       0.01544754       0.12166622      -0.00389234       0.00212423       0.13265762       0.00916750       0.02889262      -0.01384325
Cu       6.37242546       2.26556619      16.34047173        1      -0.04855583       0.00861384       0.10149238      -0.00659331       0.01255436       0.13823323       0.02040818      -0.05595021      -0.18925978
Cu       0.00605158       4.50891928      16.26452968        1      -0.00059882       0.01696179       0.13359769      -0.00088954       0.00561881       0.13429531       0.05915308       0.05465747      -0.09491571
Cu       2.57518313       4.47944933      16.29191126        1       0.00048838      -0.00450296       0.13367509      -0.00422276       0.00783545       0.13114736      -0.09418441       0.09905582      -0.13764462
Cu       5.12846723       4.50286056      16.30593760        1      -0.00141330      -0.05711313       0.15757976       0.01365412      -0.02346501       0.18657272       0.02651511      -0.04332041       0.00697869
Cu       1.29647302       6.67398471      16.28258343        1       0.00218987      -0.00691522       0.14017709      -0.00130981       0.00727979       0.13847007      -0.00394404      -0.05496033      -0.03062927
Cu       3.83967392       6.67641238      16.27588526        1       0.00134805       0.04436189       0.14481219      -0.00259613       0.00451702       0.13564729       0.02884318       0.01991410       0.06055667
Cu       6.39799829       6.67830817      16.27960688        1       0.00938836      -0.00339680       0.13722195      -0.00278399       0.00813879       0.13035594      -0.01962824      -0.09721975      -0.01693278
O        7.77833776       1.47914917      17.60688088        0      -0.01681537      -0.04512568       0.00818232       0.01087181      -0.01954379       0.02068951      -0.17895994       0.03534891       0.13394502
C        5.07378825       3.09903460      17.71599676        0       0.05093666      -0.04047544       0.03234062      -0.02172752       0.03699359       0.01777304      -0.06797377      -0.10201914       0.00120252
H        7.54764897       1.70500529      18.52380872        0       0.03168254      -0.03952173       0.02358533       0.00833522      -0.01364935      -0.01101744      -0.05417484       0.06192318       0.11992938
O        5.17457906       3.11514758      18.89907169        0      -0.04191216      -0.05358934       0.02329678       0.01494562      -0.02890404       0.02862615       0.11878678      -0.12784349       0.15449768
40
Lattice="7.700392847121503 0.0 0.0 0.0 8.891647766302935 0.0 0.0 0.0 26.3637743517507" Properties=species:S:1:pos:R:3:tags:I:1:MACE_forces:R:3:forces:R:3:DFT_forces:R:3 method=neb MACE_energy=-162.27205523369372 energy=-162.10200129477914 stress="0.008795264645495418 0.00011656477790891593 -2.9569974072722832e-05 0.00011656477790891593 0.008634118939168078 6.0141823762087764e-05 -2.9569974072722832e-05 6.0141823762087764e-05 -0.00022290270273621232" free_energy=-162.10200129477914 DFT_energy=-164.08607241 pbc="T T T"
Cu       1.28339881       0.74097065      12.12125812        3       0.00000000       0.00000000       0.00000000       0.00220675       0.00041103       0.12990664       0.05047008       0.00999463       0.28742637
Cu       3.85019642       0.74097065      12.12125812        3       0.00000000       0.00000000       0.00000000      -0.00146444      -0.00030530       0.12628216      -0.02993426       0.01832969       0.29126590
Cu       6.41699404       0.74097065      12.12125812        3       0.00000000       0.00000000       0.00000000      -0.00069660      -0.00314441       0.12278106      -0.01939614      -0.01295637       0.24752411
Cu       0.00000000       2.96388259      12.12125812        3       0.00000000       0.00000000       0.00000000       0.00213822       0.00284214       0.12358441       0.04726241       0.02137179       0.24636636
Cu       2.56679762       2.96388259      12.12125812        3       0.00000000       0.00000000       0.00000000      -0.00084266       0.00010888       0.12519778      -0.03728052      -0.01659711       0.28159512
Cu       5.13359523       2.96388259      12.12125812        3       0.00000000       0.00000000       0.00000000      -0.00187751       0.00377398       0.12944610      -0.00191698      -0.02600294       0.31239748
Cu       1.28339881       5.18679453      12.12125812        3       0.00000000       0.00000000       0.00000000       0.00068372      -0.00121997       0.12278985      -0.00072468      -0.03454664       0.31234927
Cu       3.85019642       5.18679453      12.12125812        3       0.00000000       0.00000000       0.00000000      -0.00008429      -0.00004677       0.12208298      -0.04802564      -0.00446097       0.28642814
Cu       6.41699404       5.18679453      12.12125812        3       0.00000000       0.00000000       0.00000000      -0.00060268      -0.00091558       0.12726778       0.04277443       0.01821829       0.27061702
Cu       0.00000000       7.40970647      12.12125812        3       0.00000000       0.00000000       0.00000000       0.00013774      -0.00145973       0.12761299      -0.02918858      -0.01638784       0.27104203
Cu       2.56679762       7.40970647      12.12125812        3       0.00000000       0.00000000       0.00000000       0.00097586      -0.00018748       0.12755945       0.02262253       0.00815783       0.28432063
Cu       5.13359523       7.40970647      12.12125812        3       0.00000000       0.00000000       0.00000000      -0.00082412       0.00025215       0.12463986       0.00662828       0.00744122       0.36098394
Cu       0.00000000       1.48194129      14.24251623        2       0.00000000       0.00000000       0.00000000      -0.02030762       0.00727762      -0.24248339       0.00502196       0.01154041      -0.04025688
Cu       2.56679762       1.48194129      14.24251623        2       0.00000000       0.00000000       0.00000000       0.00108271      -0.01273597      -0.32219477      -0.03343437       0.17497644      -0.04906474
Cu       5.13359523       1.48194129      14.24251623        2       0.00000000       0.00000000       0.00000000       0.03444356       0.00267876      -0.29030559       0.07227286       0.09398194      -0.20356623
Cu       1.28339881       3.70485324      14.24251623        2       0.00000000       0.00000000       0.00000000      -0.01531833      -0.04425246      -0.32345571       0.02688909      -0.07369834      -0.15912551
Cu       3.85019642       3.70485324      14.24251623        2       0.00000000       0.00000000       0.00000000       0.08307649       0.01020870      -0.16097276      -0.03332502       0.00969099      -0.39285704
Cu       6.41699404       3.70485324      14.24251623        2       0.00000000       0.00000000       0.00000000      -0.09704921       0.03547827      -0.14569641       0.00839035      -0.07604835      -0.28989520
Cu       0.00000000       5.92776518      14.24251623        2       0.00000000       0.00000000       0.00000000      -0.01104711      -0.00976909      -0.29403129       0.01837047       0.02674880      -0.36650587
Cu       2.56679762       5.92776518      14.24251623        2       0.00000000       0.00000000       0.00000000      -0.00081523       0.01057973      -0.31444962      -0.01132935      -0.02416054      -0.33685071
Cu       5.13359523       5.92776518      14.24251623        2       0.00000000       0.00000000       0.00000000       0.00987762      -0.04032440      -0.21918202      -0.02048046      -0.03924596      -0.31627916
Cu       1.28339881       8.15067712      14.24251623        2       0.00000000       0.00000000       0.00000000       0.00098262      -0.00171533      -0.28404401      -0.09491226       0.07855183      -0.17183681
Cu       3.85019642       8.15067712      14.24251623        2       0.00000000       0.00000000       0.00000000      -0.00393883       0.02323252      -0.31659574       0.00166037       0.00072577      -0.44859740
Cu       6.41699404       8.15067712      14.24251623        2       0.00000000       0.00000000       0.00000000       0.01517658       0.03094903      -0.29891898       0.08343649       0.08251407      -0.21033957
Cu       7.67904165       8.81892914      16.34479005        1       0.01517604       0.01656586       0.13205938       0.00357473      -0.00517264       0.12980999       0.02743016       0.12911731      -0.05968588
Cu       2.59429463       8.89709150      16.25735704        1      -0.02954735      -0.01144046       0.13133518      -0.00283947      -0.00082853       0.13586750      -0.03180509       0.03922756       0.01595695
Cu       5.10426297       8.88511214      16.26617816        1      -0.00063990      -0.00458213       0.12769409      -0.00531873      -0.00623657       0.12771085       0.02242244      -0.05969258      -0.05212658
Cu       1.35763029       2.30891238      16.34934308        1       0.03292749       0.00164422       0.04892313       0.00487888       0.00102155       0.12634010       0.16766828      -0.05475742      -0.23270232
Cu       3.86763609       2.24877142      16.36391979        1       0.03211030       0.02288891       0.14142233      -0.00389234       0.00212423       0.13265762       0.01447876       0.03158487       0.00825148
Cu       6.38621048       2.26466356      16.34120608        1      -0.06235200       0.01759311       0.09665149      -0.00659331       0.01255436       0.13823323      -0.00899625      -0.06808883      -0.17000998
Cu       0.00950215       4.51686189      16.26366004        1      -0.00360207       0.02213961       0.13402657      -0.00088954       0.00561881       0.13429531       0.06710817       0.06474674      -0.09920806
Cu       2.57606184       4.48534022      16.29114552        1      -0.00444222      -0.00252438       0.13251779      -0.00422276       0.00783545       0.13114736      -0.10159385       0.10922418      -0.13440071
Cu       5.12874566       4.51910978      16.28970832        1       0.01063884      -0.06111874       0.16093190       0.01365412      -0.02346501       0.18657272       0.03798729      -0.03168003      -0.00218511
Cu       1.29466492       6.68938756      16.28346099        1      -0.00028949       0.00192945       0.13663029      -0.00130981       0.00727979       0.13847007      -0.00463410      -0.03807871      -0.02712459
Cu       3.83868245       6.68571958      16.27516730        1       0.00292723       0.05798556       0.14428009      -0.00259613       0.00451702       0.13564729       0.03305198       0.03110847       0.05888882
Cu       6.40515794       6.69461105      16.28053491        1       0.01312446       0.00419280       0.13376974      -0.00278399       0.00813879       0.13035594      -0.02084229      -0.08076291      -0.01569898
O        7.79064337       1.54402856      17.66665863        0      -0.00994006      -0.02651089      -0.02124301       0.01087181      -0.01954379       0.02068951      -0.16452345       0.08382434       0.03377422
C        5.15500531       3.19873995      17.73683502        0       0.01719965      -0.10120835       0.01159612      -0.02172752       0.03699359       0.01777304      -0.13029502      -0.18719587      -0.01483008
H        7.52842252       1.94282460      18.51582013        0       0.05675162      -0.09863251       0.01657217       0.00833522      -0.01364935      -0.01101744      -0.06578644       0.01720840       0.06182155
O        5.30241586       3.25312675      18.91317811        0      -0.08323607      -0.09885405      -0.03379849       0.01494562      -0.02890404       0.02862615       0.13247830      -0.22392417       0.16213804
40
Lattice="7.700392847121503 0.0 0.0 0.0 8.891647766302935 0.0 0.0 0.0 26.3637743517507" Properties=species:S:1:pos:R:3:tags:I:1:MACE_forces:R:3:forces:R:3:DFT_forces:R:3 method=neb MACE_energy=-162.22351345730794 energy=-162.10200129477914 stress="0.008795264645495418 0.00011656477790891593 -2.9569974072722832e-05 0.00011656477790891593 0.008634118939168078 6.0141823762087764e-05 -2.9569974072722832e-05 6.0141823762087764e-05 -0.00022290270273621232" free_energy=-162.10200129477914 DFT_energy=-164.03814851 pbc="T T T"
Cu       1.28339881       0.74097065      12.12125812        3       0.00000000       0.00000000       0.00000000       0.00220675       0.00041103       0.12990664       0.04984208       0.00948378       0.28203300
Cu       3.85019642       0.74097065      12.12125812        3       0.00000000       0.00000000       0.00000000      -0.00146444      -0.00030530       0.12628216      -0.02813012       0.01877893       0.29204553
Cu       6.41699404       0.74097065      12.12125812        3       0.00000000       0.00000000       0.00000000      -0.00069660      -0.00314441       0.12278106      -0.02079064      -0.01609873       0.24659274
Cu       0.00000000       2.96388259      12.12125812        3       0.00000000       0.00000000       0.00000000       0.00213822       0.00284214       0.12358441       0.04582796       0.01936223       0.24555531
Cu       2.56679762       2.96388259      12.12125812        3       0.00000000       0.00000000       0.00000000      -0.00084266       0.00010888       0.12519778      -0.03379097      -0.01810568       0.28094515
Cu       5.13359523       2.96388259      12.12125812        3       0.00000000       0.00000000       0.00000000      -0.00187751       0.00377398       0.12944610      -0.00231619      -0.02835235       0.30771331
Cu       1.28339881       5.18679453      12.12125812        3       0.00000000       0.00000000       0.00000000       0.00068372      -0.00121997       0.12278985       0.00087084      -0.03223471       0.31010468
Cu       3.85019642       5.18679453      12.12125812        3       0.00000000       0.00000000       0.00000000      -0.00008429      -0.00004677       0.12208298      -0.05146553      -0.00741848       0.28829289
Cu       6.41699404       5.18679453      12.12125812        3       0.00000000       0.00000000       0.00000000      -0.00060268      -0.00091558       0.12726778       0.04421587       0.01816263       0.26577967
Cu       0.00000000       7.40970647      12.12125812        3       0.00000000       0.00000000       0.00000000       0.00013774      -0.00145973       0.12761299      -0.03057384      -0.01761708       0.27615669
Cu       2.56679762       7.40970647      12.12125812        3       0.00000000       0.00000000       0.00000000       0.00097586      -0.00018748       0.12755945       0.02073023       0.00595447       0.28345118
Cu       5.13359523       7.40970647      12.12125812        3       0.00000000       0.00000000       0.00000000      -0.00082412       0.00025215       0.12463986       0.00816559       0.01201936       0.36216211
Cu       0.00000000       1.48194129      14.24251623        2       0.00000000       0.00000000       0.00000000      -0.02030762       0.00727762      -0.24248339       0.00660760       0.02509905      -0.04985128
Cu       2.56679762       1.48194129      14.24251623        2       0.00000000       0.00000000       0.00000000       0.00108271      -0.01273597      -0.32219477      -0.04539425       0.16879549      -0.06805233
Cu       5.13359523       1.48194129      14.24251623        2       0.00000000       0.00000000       0.00000000       0.03444356       0.00267876      -0.29030559       0.07689209       0.09671795      -0.19495458
Cu       1.28339881       3.70485324      14.24251623        2       0.00000000       0.00000000       0.00000000      -0.01531833      -0.04425246      -0.32345571       0.02044092      -0.07727028      -0.16131743
Cu       3.85019642       3.70485324      14.24251623        2       0.00000000       0.00000000       0.00000000       0.08307649       0.01020870      -0.16097276      -0.03551564       0.01553125      -0.39154850
Cu       6.41699404       3.70485324      14.24251623        2       0.00000000       0.00000000       0.00000000      -0.09704921       0.03547827      -0.14569641       0.01380602      -0.07342796      -0.31785048
Cu       0.00000000       5.92776518      14.24251623        2       0.00000000       0.00000000       0.00000000      -0.01104711      -0.00976909      -0.29403129       0.01925476       0.02697893      -0.36517197
Cu       2.56679762       5.92776518      14.24251623        2       0.00000000       0.00000000       0.00000000      -0.00081523       0.01057973      -0.31444962      -0.01223163      -0.01730724      -0.32439386
Cu       5.13359523       5.92776518      14.24251623        2       0.00000000       0.00000000       0.00000000       0.00987762      -0.04032440      -0.21918202      -0.01866688      -0.03175350      -0.30351271
Cu       1.28339881       8.15067712      14.24251623        2       0.00000000       0.00000000       0.00000000       0.00098262      -0.00171533      -0.28404401      -0.08744538       0.07770151      -0.17179814
Cu       3.85019642       8.15067712      14.24251623        2       0.00000000       0.00000000       0.00000000      -0.00393883       0.02323252      -0.31659574       0.00069325       0.00839003      -0.44291701
Cu       6.41699404       8.15067712      14.24251623        2       0.00000000       0.00000000       0.00000000       0.01517658       0.03094903      -0.29891898       0.08240221       0.08722870      -0.21476497
Cu       7.68791081       8.84331506      16.33832900        1       0.00121585      -0.02067996       0.13451667       0.00357473      -0.00517264       0.12980999       0.00242276       0.07122632      -0.04211543
Cu       2.59249983       8.90178852      16.26096888        1      -0.00442413      -0.00887600       0.12778139      -0.00283947      -0.00082853       0.13586750      -0.01185022       0.02670315       0.00794451
Cu       5.10916541       8.88896885      16.26627890        1      -0.00864879      -0.00610441       0.12598478      -0.00531873      -0.00623657       0.12771085       0.01424110      -0.04106651      -0.04258936
Cu       1.36230966       2.30355294      16.34873285        1       0.01036139       0.00601896       0.06934195       0.00487888       0.00102155       0.12634010       0.12439466      -0.05290554      -0.22148227
Cu       3.86871572       2.25048680      16.35111949        1       0.06479896       0.05370825       0.19732363      -0.00389234       0.00212423       0.13265762      -0.01405007       0.01081142       0.00544631
Cu       6.38118429       2.26491926      16.33833869        1      -0.05769877       0.05105040       0.16684994      -0.00659331       0.01255436       0.13823323       0.01887665      -0.08389709      -0.06531391
Cu       0.00891292       4.52123390      16.26367718        1       0.00221709       0.01731548       0.13123723      -0.00088954       0.00561881       0.13429531       0.08732745       0.06268378      -0.10631938
Cu       2.57405842       4.48570629      16.29007147        1       0.00339174       0.01755088       0.13024042      -0.00422276       0.00783545       0.13114736      -0.09002194       0.13144731      -0.13243749
Cu       5.12758330       4.51803233      16.28241676        1       0.00180582      -0.00945721       0.15598095       0.01365412      -0.02346501       0.18657272       0.01168650       0.04420368      -0.02316419
Cu       1.29305487       6.69601128      16.28479753        1       0.00596128       0.00159619       0.13513224      -0.00130981       0.00727979       0.13847007       0.00047827      -0.03239478      -0.02707397
Cu       3.83960238       6.69553836      16.27689454        1       0.00356146       0.01685243       0.13600342      -0.00259613       0.00451702       0.13564729       0.03229395      -0.01373481       0.04641313
Cu       6.41122152       6.70286993      16.28157869        1       0.00064479       0.00541374       0.13117873      -0.00278399       0.00813879       0.13035594      -0.02808044      -0.06893685      -0.01581293
O        7.78534479       1.60470461      17.69049477        0       0.01584784      -0.03894146      -0.03820966       0.01087181      -0.01954379       0.02068951      -0.12362077       0.10222678      -0.02138807
C        5.22002555       3.28904006      17.77002649        0      -0.04929726      -0.16320365      -0.11317965      -0.02172752       0.03699359       0.01777304      -0.11692842      -0.23735248       0.12033699
H        7.56886813       2.08238073      18.51231531        0       0.06154987      -0.12265551       0.00087455       0.00833522      -0.01364935      -0.01101744      -0.04246635       0.06319028      -0.07038234
O        5.36854702       3.34939079      18.94132204        0      -0.07063249      -0.10176681       0.03040532       0.01494562      -0.02890404       0.02862615       0.11186853      -0.25282297       0.15323940
40
Lattice="7.700392847121503 0.0 0.0 0.0 8.891647766302935 0.0 0.0 0.0 26.3637743517507" Properties=species:S:1:pos:R:3:tags:I:1:MACE_forces:R:3:forces:R:3:DFT_forces:R:3 method=neb MACE_energy=-162.17285099045066 energy=-162.10200129477914 stress="0.008795264645495418 0.00011656477790891593 -2.9569974072722832e-05 0.00011656477790891593 0.008634118939168078 6.0141823762087764e-05 -2.9569974072722832e-05 6.0141823762087764e-05 -0.00022290270273621232" free_energy=-162.10200129477914 DFT_energy=-164.01573737 pbc="T T T"
Cu       1.28339881       0.74097065      12.12125812        3       0.00000000       0.00000000       0.00000000       0.00220675       0.00041103       0.12990664       0.04928834       0.01008465       0.27466795
Cu       3.85019642       0.74097065      12.12125812        3       0.00000000       0.00000000       0.00000000      -0.00146444      -0.00030530       0.12628216      -0.02549032       0.02036476       0.29354073
Cu       6.41699404       0.74097065      12.12125812        3       0.00000000       0.00000000       0.00000000      -0.00069660      -0.00314441       0.12278106      -0.02219292      -0.01703110       0.24452009
Cu       0.00000000       2.96388259      12.12125812        3       0.00000000       0.00000000       0.00000000       0.00213822       0.00284214       0.12358441       0.04195045       0.01777816       0.24397167
Cu       2.56679762       2.96388259      12.12125812        3       0.00000000       0.00000000       0.00000000      -0.00084266       0.00010888       0.12519778      -0.03005002      -0.01972240       0.27724817
Cu       5.13359523       2.96388259      12.12125812        3       0.00000000       0.00000000       0.00000000      -0.00187751       0.00377398       0.12944610       0.00025590      -0.03065914       0.30450128
Cu       1.28339881       5.18679453      12.12125812        3       0.00000000       0.00000000       0.00000000       0.00068372      -0.00121997       0.12278985       0.00391396      -0.02846370       0.30627581
Cu       3.85019642       5.18679453      12.12125812        3       0.00000000       0.00000000       0.00000000      -0.00008429      -0.00004677       0.12208298      -0.05386688      -0.00859283       0.29273524
Cu       6.41699404       5.18679453      12.12125812        3       0.00000000       0.00000000       0.00000000      -0.00060268      -0.00091558       0.12726778       0.04398873       0.01717211       0.26113668
Cu       0.00000000       7.40970647      12.12125812        3       0.00000000       0.00000000       0.00000000       0.00013774      -0.00145973       0.12761299      -0.03116742      -0.01830771       0.28271305
Cu       2.56679762       7.40970647      12.12125812        3       0.00000000       0.00000000       0.00000000       0.00097586      -0.00018748       0.12755945       0.01966011       0.00263752       0.28340391
Cu       5.13359523       7.40970647      12.12125812        3       0.00000000       0.00000000       0.00000000      -0.00082412       0.00025215       0.12463986       0.00997374       0.01590807       0.36403149
Cu       0.00000000       1.48194129      14.24251623        2       0.00000000       0.00000000       0.00000000      -0.02030762       0.00727762      -0.24248339      -0.00258043       0.03550422      -0.07433810
Cu       2.56679762       1.48194129      14.24251623        2       0.00000000       0.00000000       0.00000000       0.00108271      -0.01273597      -0.32219477      -0.02566829       0.14678193      -0.12016317
Cu       5.13359523       1.48194129      14.24251623        2       0.00000000       0.00000000       0.00000000       0.03444356       0.00267876      -0.29030559       0.08408864       0.09872804      -0.18168519
Cu       1.28339881       3.70485324      14.24251623        2       0.00000000       0.00000000       0.00000000      -0.01531833      -0.04425246      -0.32345571       0.02077209      -0.04830844      -0.20420790
Cu       3.85019642       3.70485324      14.24251623        2       0.00000000       0.00000000       0.00000000       0.08307649       0.01020870      -0.16097276      -0.02926944       0.02087247      -0.37445350
Cu       6.41699404       3.70485324      14.24251623        2       0.00000000       0.00000000       0.00000000      -0.09704921       0.03547827      -0.14569641       0.00921818      -0.05862993      -0.33288687
Cu       0.00000000       5.92776518      14.24251623        2       0.00000000       0.00000000       0.00000000      -0.01104711      -0.00976909      -0.29403129       0.02175831       0.02871966      -0.36338361
Cu       2.56679762       5.92776518      14.24251623        2       0.00000000       0.00000000       0.00000000      -0.00081523       0.01057973      -0.31444962      -0.01089119      -0.00616700      -0.32434884
Cu       5.13359523       5.92776518      14.24251623        2       0.00000000       0.00000000       0.00000000       0.00987762      -0.04032440      -0.21918202      -0.01430381      -0.03349626      -0.29183662
Cu       1.28339881       8.15067712      14.24251623        2       0.00000000       0.00000000       0.00000000       0.00098262      -0.00171533      -0.28404401      -0.07137512       0.07452797      -0.17913864
Cu       3.85019642       8.15067712      14.24251623        2       0.00000000       0.00000000       0.00000000      -0.00393883       0.02323252      -0.31659574       0.00674734       0.01011844      -0.43948835
Cu       6.41699404       8.15067712      14.24251623        2       0.00000000       0.00000000       0.00000000       0.01517658       0.03094903      -0.29891898       0.08088679       0.08961355      -0.22037389
Cu       7.69988993       8.85862891      16.32992050        1      -0.00012354      -0.02322777       0.14123827       0.00357473      -0.00517264       0.12980999      -0.00607515       0.05479371      -0.03758585
Cu       2.59767952       8.90090563      16.26411059        1       0.00030262      -0.00043656       0.12506318      -0.00283947      -0.00082853       0.13586750      -0.01450712       0.02869740       0.00037850
Cu       5.11634959       8.89146069      16.26745792        1      -0.00472261      -0.00144114       0.12321761      -0.00531873      -0.00623657       0.12771085       0.02388609      -0.01613226      -0.03893894
Cu       1.38927964       2.30108920      16.32310427        1      -0.02878520       0.01562423       0.11270223       0.00487888       0.00102155       0.12634010       0.06420057      -0.05544729      -0.18283198
Cu       3.87515951       2.25253955      16.34567027        1       0.07083624       0.06170842       0.20942038      -0.00389234       0.00212423       0.13265762      -0.04541615      -0.01491977      -0.03355642
Cu       6.36933788       2.27558359      16.33479842        1      -0.03874191       0.07110746       0.21160586      -0.00659331       0.01255436       0.13823323       0.06125280      -0.10772909       0.03325351
Cu       0.01098042       4.52760369      16.26331093        1       0.00659317       0.01861773       0.12536186      -0.00088954       0.00561881       0.13429531       0.10044755       0.06104332      -0.11529690
Cu       2.57779661       4.49284652      16.28859665        1       0.00410308       0.01521024       0.13390676      -0.00422276       0.00783545       0.13114736      -0.08706011       0.13162833      -0.12760662
Cu       5.12805020       4.52220070      16.28370064        1       0.00504386      -0.00318203       0.15410820       0.01365412      -0.02346501       0.18657272       0.00215688       0.06957903      -0.04395525
Cu       1.29507809       6.69996505      16.28698890        1       0.00612272       0.00948367       0.13226716      -0.00130981       0.00727979       0.13847007      -0.00007718      -0.01996665      -0.02887167
Cu       3.84371749       6.69930079      16.27864735        1       0.00084980       0.01765425       0.13196662      -0.00259613       0.00451702       0.13564729       0.02894680      -0.00931469       0.03691928
Cu       6.41550530       6.70900466      16.28348050        1       0.00465540       0.01261385       0.12852580      -0.00278399       0.00813879       0.13035594      -0.01380117      -0.05227358      -0.01737689
O        7.79495514       1.70641129      17.67306348        0       0.01741231      -0.15309946       0.03392471       0.01087181      -0.01954379       0.02068951      -0.11628311       0.00825928       0.04383803
C        5.24330788       3.37115618      17.80868081        0      -0.05276657      -0.19874988      -0.12881022      -0.02172752       0.03699359       0.01777304      -0.10615096      -0.26292320       0.15053023
H        7.68722197       2.21375169      18.49801091        0       0.01672570      -0.09816693      -0.01582496       0.00833522      -0.01364935      -0.01101744      -0.01602423       0.09201645      -0.11402558
O        5.38749965       3.42583778      18.97716240        0      -0.06981492      -0.08890492       0.01598841       0.01494562      -0.02890404       0.02862615       0.04885772      -0.22674404       0.15268516
40
Lattice="7.700392847121503 0.0 0.0 0.0 8.891647766302935 0.0 0.0 0.0 26.3637743517507" Properties=species:S:1:pos:R:3:tags:I:1:MACE_forces:R:3:forces:R:3:DFT_forces:R:3 method=neb MACE_energy=-162.1085923728235 energy=-162.10200129477914 stress="0.008795264645495418 0.00011656477790891593 -2.9569974072722832e-05 0.00011656477790891593 0.008634118939168078 6.0141823762087764e-05 -2.9569974072722832e-05 6.0141823762087764e-05 -0.00022290270273621232" free_energy=-162.10200129477914 DFT_energy=-163.99038509 pbc="T T T"
Cu       1.28339881       0.74097065      12.12125812        3       0.00000000       0.00000000       0.00000000       0.00220675       0.00041103       0.12990664       0.04667532       0.00983827       0.27493907
Cu       3.85019642       0.74097065      12.12125812        3       0.00000000       0.00000000       0.00000000      -0.00146444      -0.00030530       0.12628216      -0.02556491       0.01922277       0.30382392
Cu       6.41699404       0.74097065      12.12125812        3       0.00000000       0.00000000       0.00000000      -0.00069660      -0.00314441       0.12278106      -0.02140459      -0.01466951       0.24512866
Cu       0.00000000       2.96388259      12.12125812        3       0.00000000       0.00000000       0.00000000       0.00213822       0.00284214       0.12358441       0.03415120       0.01777230       0.24867566
Cu       2.56679762       2.96388259      12.12125812        3       0.00000000       0.00000000       0.00000000      -0.00084266       0.00010888       0.12519778      -0.02816792      -0.02020046       0.27806755
Cu       5.13359523       2.96388259      12.12125812        3       0.00000000       0.00000000       0.00000000      -0.00187751       0.00377398       0.12944610       0.00388836      -0.03098142       0.30143434
Cu       1.28339881       5.18679453      12.12125812        3       0.00000000       0.00000000       0.00000000       0.00068372      -0.00121997       0.12278985       0.00280608      -0.02913415       0.30286461
Cu       3.85019642       5.18679453      12.12125812        3       0.00000000       0.00000000       0.00000000      -0.00008429      -0.00004677       0.12208298      -0.05483219      -0.00823253       0.29594343
Cu       6.41699404       5.18679453      12.12125812        3       0.00000000       0.00000000       0.00000000      -0.00060268      -0.00091558       0.12726778       0.04426603       0.01334223       0.25928956
Cu       0.00000000       7.40970647      12.12125812        3       0.00000000       0.00000000       0.00000000       0.00013774      -0.00145973       0.12761299      -0.03260414      -0.02165119       0.29199966
Cu       2.56679762       7.40970647      12.12125812        3       0.00000000       0.00000000       0.00000000       0.00097586      -0.00018748       0.12755945       0.02148566       0.00075162       0.28791520
Cu       5.13359523       7.40970647      12.12125812        3       0.00000000       0.00000000       0.00000000      -0.00082412       0.00025215       0.12463986       0.00846827       0.01567036       0.36731969
Cu       0.00000000       1.48194129      14.24251623        2       0.00000000       0.00000000       0.00000000      -0.02030762       0.00727762      -0.24248339       0.02490031       0.05623526      -0.09485368
Cu       2.56679762       1.48194129      14.24251623        2       0.00000000       0.00000000       0.00000000       0.00108271      -0.01273597      -0.32219477       0.00193472       0.14372166      -0.10160071
Cu       5.13359523       1.48194129      14.24251623        2       0.00000000       0.00000000       0.00000000       0.03444356       0.00267876      -0.29030559       0.06525207       0.09337631      -0.17882781
Cu       1.28339881       3.70485324      14.24251623        2       0.00000000       0.00000000       0.00000000      -0.01531833      -0.04425246      -0.32345571       0.03227101      -0.05265561      -0.19072052
Cu       3.85019642       3.70485324      14.24251623        2       0.00000000       0.00000000       0.00000000       0.08307649       0.01020870      -0.16097276      -0.02557548       0.01055928      -0.35736826
Cu       6.41699404       3.70485324      14.24251623        2       0.00000000       0.00000000       0.00000000      -0.09704921       0.03547827      -0.14569641       0.00303219      -0.04374849      -0.32466892
Cu       0.00000000       5.92776518      14.24251623        2       0.00000000       0.00000000       0.00000000      -0.01104711      -0.00976909      -0.29403129       0.02947624       0.00456558      -0.34679577
Cu       2.56679762       5.92776518      14.24251623        2       0.00000000       0.00000000       0.00000000      -0.00081523       0.01057973      -0.31444962      -0.00342226      -0.01287914      -0.31899694
Cu       5.13359523       5.92776518      14.24251623        2       0.00000000       0.00000000       0.00000000       0.00987762      -0.04032440      -0.21918202      -0.00936062      -0.04021179      -0.27680505
Cu       1.28339881       8.15067712      14.24251623        2       0.00000000       0.00000000       0.00000000       0.00098262      -0.00171533      -0.28404401      -0.04486380       0.06583828      -0.19181039
Cu       3.85019642       8.15067712      14.24251623        2       0.00000000       0.00000000       0.00000000      -0.00393883       0.02323252      -0.31659574       0.01392950       0.00544815      -0.43152101
Cu       6.41699404       8.15067712      14.24251623        2       0.00000000       0.00000000       0.00000000       0.01517658       0.03094903      -0.29891898       0.07770318       0.07936268      -0.22938560
Cu       7.71661261       8.87241354      16.31574130        1      -0.00657228       0.01249363       0.19172449       0.00357473      -0.00517264       0.12980999      -0.02045508       0.06214569      -0.01245870
Cu       2.60594798       8.89653679      16.26840007        1      -0.00074207       0.00444664       0.12042373      -0.00283947      -0.00082853       0.13586750      -0.01333090       0.03701929      -0.00930277
Cu       5.12807309       8.88467057      16.26989317        1      -0.00839072       0.00531645       0.11861918      -0.00531873      -0.00623657       0.12771085       0.01785485       0.00899588      -0.04381188
Cu       1.43454876       2.28705306      16.32873439        1      -0.07647072       0.06573380       0.09885213       0.00487888       0.00102155       0.12634010       0.01830900      -0.02499081      -0.20670779
Cu       3.89428783       2.25651404      16.36324896        1       0.03072644       0.03920716       0.17536655      -0.00389234       0.00212423       0.13265762      -0.05106185      -0.01805696      -0.03363526
Cu       6.35816133       2.26370801      16.31586525        1      -0.02010774       0.11104967       0.20762536      -0.00659331       0.01255436       0.13823323       0.07319036      -0.07117312       0.07697250
Cu       0.01825458       4.51905161      16.26565700        1       0.00977077       0.03967693       0.10529942      -0.00088954       0.00561881       0.13429531       0.09007321       0.07051285      -0.12837658
Cu       2.58988771       4.49369608      16.28935739        1      -0.00171334       0.02022696       0.13491969      -0.00422276       0.00783545       0.13114736      -0.11883313       0.14055124      -0.14006310
Cu       5.13670009       4.51942592      16.28819045        1       0.00500398       0.00512502       0.14403263       0.01365412      -0.02346501       0.18657272       0.00935100       0.11041024      -0.07142764
Cu       1.30052574       6.69493806      16.28720614        1       0.00181130       0.02906397       0.13449375      -0.00130981       0.00727979       0.13847007      -0.00262614       0.00670873      -0.02274762
Cu       3.85051271       6.69775616      16.27928133        1       0.00640764       0.01957026       0.13151735      -0.00259613       0.00451702       0.13564729       0.03359822      -0.00166089       0.02816510
Cu       6.42529542       6.70546840      16.28374453        1       0.00803335       0.02903308       0.12931438      -0.00278399       0.00813879       0.13035594      -0.00066025      -0.03439548      -0.01530699
O        7.78059994       1.85756797      17.65563410        0       0.01486932      -0.45024790       0.08511249       0.01087181      -0.01954379       0.02068951      -0.07268213      -0.24606265       0.11901751
C        5.17239226       3.41206868      17.84099799        0      -0.03169559      -0.16983047      -0.08409674      -0.02172752       0.03699359       0.01777304      -0.10658933      -0.28454222       0.15717632
H        7.70733441       2.24572088      18.54451679        0       0.00308255       0.04138445      -0.06696559       0.00833522      -0.01364935      -0.01101744      -0.04801278       0.06583478      -0.21739514
O        5.33496628       3.46809307      19.00487342        0      -0.08726529      -0.09561024      -0.01759608       0.01494562      -0.02890404       0.02862615       0.02743072      -0.08263703       0.10585535
40
Lattice="7.700392847121503 0.0 0.0 0.0 8.891647766302935 0.0 0.0 0.0 26.3637743517507" Properties=species:S:1:pos:R:3:tags:I:1:MACE_forces:R:3:forces:R:3:DFT_forces:R:3 method=neb MACE_energy=-161.96025743083123 energy=-162.10200129477914 stress="0.008795264645495418 0.00011656477790891593 -2.9569974072722832e-05 0.00011656477790891593 0.008634118939168078 6.0141823762087764e-05 -2.9569974072722832e-05 6.0141823762087764e-05 -0.00022290270273621232" free_energy=-162.10200129477914 DFT_energy=-163.91177394 pbc="T T T"
Cu       1.28339881       0.74097065      12.12125812        3       0.00000000       0.00000000       0.00000000       0.00220675       0.00041103       0.12990664       0.04081426       0.00721585       0.27381774
Cu       3.85019642       0.74097065      12.12125812        3       0.00000000       0.00000000       0.00000000      -0.00146444      -0.00030530       0.12628216      -0.02359568       0.01681730       0.31815843
Cu       6.41699404       0.74097065      12.12125812        3       0.00000000       0.00000000       0.00000000      -0.00069660      -0.00314441       0.12278106      -0.01731294      -0.01381588       0.24273156
Cu       0.00000000       2.96388259      12.12125812        3       0.00000000       0.00000000       0.00000000       0.00213822       0.00284214       0.12358441       0.02771280       0.01468023       0.24590307
Cu       2.56679762       2.96388259      12.12125812        3       0.00000000       0.00000000       0.00000000      -0.00084266       0.00010888       0.12519778      -0.02239441      -0.01679448       0.27793799
Cu       5.13359523       2.96388259      12.12125812        3       0.00000000       0.00000000       0.00000000      -0.00187751       0.00377398       0.12944610       0.00358271      -0.03014607       0.30050633
Cu       1.28339881       5.18679453      12.12125812        3       0.00000000       0.00000000       0.00000000       0.00068372      -0.00121997       0.12278985       0.00384076      -0.02712128       0.29912407
Cu       3.85019642       5.18679453      12.12125812        3       0.00000000       0.00000000       0.00000000      -0.00008429      -0.00004677       0.12208298      -0.05472236      -0.00882125       0.29578070
Cu       6.41699404       5.18679453      12.12125812        3       0.00000000       0.00000000       0.00000000      -0.00060268      -0.00091558       0.12726778       0.04218383       0.01373221       0.25583687
Cu       0.00000000       7.40970647      12.12125812        3       0.00000000       0.00000000       0.00000000       0.00013774      -0.00145973       0.12761299      -0.03159210      -0.02214396       0.30392611
Cu       2.56679762       7.40970647      12.12125812        3       0.00000000       0.00000000       0.00000000       0.00097586      -0.00018748       0.12755945       0.02038795       0.00094680       0.29048139
Cu       5.13359523       7.40970647      12.12125812        3       0.00000000       0.00000000       0.00000000      -0.00082412       0.00025215       0.12463986       0.00800265       0.01630358       0.36893191
Cu       0.00000000       1.48194129      14.24251623        2       0.00000000       0.00000000       0.00000000      -0.02030762       0.00727762      -0.24248339       0.03504603       0.08294020      -0.12081264
Cu       2.56679762       1.48194129      14.24251623        2       0.00000000       0.00000000       0.00000000       0.00108271      -0.01273597      -0.32219477       0.02336136       0.13056626      -0.11046626
Cu       5.13359523       1.48194129      14.24251623        2       0.00000000       0.00000000       0.00000000       0.03444356       0.00267876      -0.29030559       0.05397291       0.08034286      -0.18892919
Cu       1.28339881       3.70485324      14.24251623        2       0.00000000       0.00000000       0.00000000      -0.01531833      -0.04425246      -0.32345571       0.01231316      -0.05554862      -0.16660863
Cu       3.85019642       3.70485324      14.24251623        2       0.00000000       0.00000000       0.00000000       0.08307649       0.01020870      -0.16097276      -0.02720843       0.00237008      -0.36859283
Cu       6.41699404       3.70485324      14.24251623        2       0.00000000       0.00000000       0.00000000      -0.09704921       0.03547827      -0.14569641       0.01756050      -0.04350187      -0.29664457
Cu       0.00000000       5.92776518      14.24251623        2       0.00000000       0.00000000       0.00000000      -0.01104711      -0.00976909      -0.29403129       0.03152999      -0.04490895      -0.29801666
Cu       2.56679762       5.92776518      14.24251623        2       0.00000000       0.00000000       0.00000000      -0.00081523       0.01057973      -0.31444962      -0.00114241      -0.01972243      -0.31958644
Cu       5.13359523       5.92776518      14.24251623        2       0.00000000       0.00000000       0.00000000       0.00987762      -0.04032440      -0.21918202      -0.00926112      -0.04349729      -0.28086159
Cu       1.28339881       8.15067712      14.24251623        2       0.00000000       0.00000000       0.00000000       0.00098262      -0.00171533      -0.28404401      -0.00756542       0.04055457      -0.24088131
Cu       3.85019642       8.15067712      14.24251623        2       0.00000000       0.00000000       0.00000000      -0.00393883       0.02323252      -0.31659574       0.01700057      -0.00346034      -0.42055316
Cu       6.41699404       8.15067712      14.24251623        2       0.00000000       0.00000000       0.00000000       0.01517658       0.03094903      -0.29891898       0.04311893       0.05513819      -0.26839014
Cu       7.71859239       8.86565055      16.28998012        1       0.00286404       0.02722129       0.16237703       0.00357473      -0.00517264       0.12980999      -0.01780902       0.08775704      -0.03429653
Cu       2.60347808       8.88804220      16.27298834        1       0.00117388      -0.00371084       0.12271008      -0.00283947      -0.00082853       0.13586750       0.00560635       0.02361406      -0.01569274
Cu       5.13272522       8.87834392      16.27422523        1      -0.00227603      -0.00311412       0.12237979      -0.00531873      -0.00623657       0.12771085       0.01214773      -0.00329977      -0.04533348
Cu       1.45894511       2.24864844      16.32335930        1       0.05189950       0.06996532       0.07062246       0.00487888       0.00102155       0.12634010       0.12866536      -0.00948239      -0.24657887
Cu       3.89976881       2.25616355      16.36645182        1       0.02869956       0.02556226       0.16713673      -0.00389234       0.00212423       0.13265762      -0.02202537      -0.04290604      -0.01715970
Cu       6.34756962       2.22984103      16.30580133        1      -0.07611064       0.07911764       0.15216215      -0.00659331       0.01255436       0.13823323      -0.01860256      -0.07132948       0.06843091
Cu       0.01620337       4.50659610      16.27909910        1       0.01236498       0.02275912       0.09374970      -0.00088954       0.00561881       0.13429531       0.09001889       0.05329760      -0.15027557
Cu       2.59089935       4.48811464      16.28447265        1       0.00070782       0.02354669       0.13637113      -0.00422276       0.00783545       0.13114736      -0.12865808       0.13088971      -0.13932723
Cu       5.13388284       4.51290607      16.28520645        1       0.00749608       0.01252594       0.13814057       0.01365412      -0.02346501       0.18657272       0.01724739       0.12191048      -0.07395783
Cu       1.30060216       6.68457404      16.28752851        1       0.00023471       0.02646086       0.13487607      -0.00130981       0.00727979       0.13847007      -0.00657731       0.02477083      -0.01943585
Cu       3.85158821       6.69520868      16.27963655        1       0.00396763       0.01465633       0.13214735      -0.00259613       0.00451702       0.13564729       0.02436607      -0.01283266       0.02269896
Cu       6.42566390       6.69504186      16.28400667        1       0.00878074       0.02850253       0.13007381      -0.00278399       0.00813879       0.13035594       0.00772872      -0.01528218      -0.01126541
O        7.78166576       2.10753113      17.64387437        0      -0.02563640      -0.40446032      -0.01322224       0.01087181      -0.01954379       0.02068951      -0.08312827      -0.26084469       0.05262352
C        5.16104662       3.43292809      17.85065797        0      -0.09567826      -0.12930739      -0.02790807      -0.02172752       0.03699359       0.01777304      -0.11452785      -0.29321077       0.17781365
H        7.70188494       2.22936273      18.59962387        0       0.00513303       0.13186262       0.15972262       0.00833522      -0.01364935      -0.01101744      -0.11623817       0.07279102      -0.24784608
O        5.32965875       3.48797330      19.01197133        0      -0.09773106      -0.09168880      -0.00471247       0.01494562      -0.02890404       0.02862615       0.03615260       0.06203149       0.28680950
40
Lattice="7.700392847121503 0.0 0.0 0.0 8.891647766302935 0.0 0.0 0.0 26.3637743517507" Properties=species:S:1:pos:R:3:tags:I:1:MACE_forces:R:3:forces:R:3:DFT_forces:R:3 method=neb MACE_energy=-161.99331710938807 energy=-162.10200129477914 stress="0.008795264645495418 0.00011656477790891593 -2.9569974072722832e-05 0.00011656477790891593 0.008634118939168078 6.0141823762087764e-05 -2.9569974072722832e-05 6.0141823762087764e-05 -0.00022290270273621232" free_energy=-162.10200129477914 DFT_energy=-163.8951615 pbc="T T T"
Cu       1.28339881       0.74097065      12.12125812        3       0.00000000       0.00000000       0.00000000       0.00220675       0.00041103       0.12990664       0.02476927       0.00838199       0.26319870
Cu       3.85019642       0.74097065      12.12125812        3       0.00000000       0.00000000       0.00000000      -0.00146444      -0.00030530       0.12628216      -0.01454397       0.00531470       0.33129212
Cu       6.41699404       0.74097065      12.12125812        3       0.00000000       0.00000000       0.00000000      -0.00069660      -0.00314441       0.12278106      -0.00734681      -0.01663724       0.24465824
Cu       0.00000000       2.96388259      12.12125812        3       0.00000000       0.00000000       0.00000000       0.00213822       0.00284214       0.12358441       0.02150637      -0.00099117       0.24419567
Cu       2.56679762       2.96388259      12.12125812        3       0.00000000       0.00000000       0.00000000      -0.00084266       0.00010888       0.12519778      -0.01231785      -0.01004981       0.27808753
Cu       5.13359523       2.96388259      12.12125812        3       0.00000000       0.00000000       0.00000000      -0.00187751       0.00377398       0.12944610       0.00023066      -0.02396828       0.29718776
Cu       1.28339881       5.18679453      12.12125812        3       0.00000000       0.00000000       0.00000000       0.00068372      -0.00121997       0.12278985       0.00861540      -0.02026226       0.28309330
Cu       3.85019642       5.18679453      12.12125812        3       0.00000000       0.00000000       0.00000000      -0.00008429      -0.00004677       0.12208298      -0.05274490      -0.00891365       0.29671929
Cu       6.41699404       5.18679453      12.12125812        3       0.00000000       0.00000000       0.00000000      -0.00060268      -0.00091558       0.12726778       0.03562269       0.01216824       0.24278743
Cu       0.00000000       7.40970647      12.12125812        3       0.00000000       0.00000000       0.00000000       0.00013774      -0.00145973       0.12761299      -0.02547204      -0.02107264       0.32543335
Cu       2.56679762       7.40970647      12.12125812        3       0.00000000       0.00000000       0.00000000       0.00097586      -0.00018748       0.12755945       0.01747451      -0.00825781       0.29355888
Cu       5.13359523       7.40970647      12.12125812        3       0.00000000       0.00000000       0.00000000      -0.00082412       0.00025215       0.12463986       0.00634824       0.01756815       0.36734696
Cu       0.00000000       1.48194129      14.24251623        2       0.00000000       0.00000000       0.00000000      -0.02030762       0.00727762      -0.24248339       0.02973009       0.05873821      -0.18741634
Cu       2.56679762       1.48194129      14.24251623        2       0.00000000       0.00000000       0.00000000       0.00108271      -0.01273597      -0.32219477       0.01832243       0.10117296      -0.08925253
Cu       5.13359523       1.48194129      14.24251623        2       0.00000000       0.00000000       0.00000000       0.03444356       0.00267876      -0.29030559       0.11703059       0.08376268      -0.11092076
Cu       1.28339881       3.70485324      14.24251623        2       0.00000000       0.00000000       0.00000000      -0.01531833      -0.04425246      -0.32345571      -0.05985377      -0.05680620      -0.10666722
Cu       3.85019642       3.70485324      14.24251623        2       0.00000000       0.00000000       0.00000000       0.08307649       0.01020870      -0.16097276      -0.02321936      -0.01721813      -0.39952411
Cu       6.41699404       3.70485324      14.24251623        2       0.00000000       0.00000000       0.00000000      -0.09704921       0.03547827      -0.14569641       0.06385359      -0.04620504      -0.24198578
Cu       0.00000000       5.92776518      14.24251623        2       0.00000000       0.00000000       0.00000000      -0.01104711      -0.00976909      -0.29403129       0.02567159      -0.11505561      -0.17991011
Cu       2.56679762       5.92776518      14.24251623        2       0.00000000       0.00000000       0.00000000      -0.00081523       0.01057973      -0.31444962      -0.01071740      -0.01550863      -0.32285941
Cu       5.13359523       5.92776518      14.24251623        2       0.00000000       0.00000000       0.00000000       0.00987762      -0.04032440      -0.21918202      -0.00743139      -0.04876353      -0.28839095
Cu       1.28339881       8.15067712      14.24251623        2       0.00000000       0.00000000       0.00000000       0.00098262      -0.00171533      -0.28404401       0.05290573      -0.00583370      -0.32028070
Cu       3.85019642       8.15067712      14.24251623        2       0.00000000       0.00000000       0.00000000      -0.00393883       0.02323252      -0.31659574       0.03128518      -0.01583563      -0.38856935
Cu       6.41699404       8.15067712      14.24251623        2       0.00000000       0.00000000       0.00000000       0.01517658       0.03094903      -0.29891898      -0.02938241       0.00622959      -0.34873838
Cu       7.71269760       8.82579326      16.25901706        1       0.01666941      -0.00457936       0.12826615       0.00357473      -0.00517264       0.12980999      -0.01126206       0.06560113      -0.03800232
Cu       2.59826442       8.87287810      16.28155570        1       0.02021908      -0.00375190       0.13317829      -0.00283947      -0.00082853       0.13586750       0.04494417      -0.01353097      -0.03080734
Cu       5.14180321       8.88238895      16.28290050        1       0.00837225      -0.00572887       0.12824164      -0.00531873      -0.00623657       0.12771085       0.01851787      -0.01393176      -0.03731207
Cu       1.40838927       2.14790053      16.31364626        1       0.04138655      -0.00511886       0.11139026       0.00487888       0.00102155       0.12634010       0.20517441      -0.00109051      -0.24681285
Cu       3.91396860       2.24802869      16.35176055        1       0.04147509       0.02989684       0.17650200      -0.00389234       0.00212423       0.13265762      -0.05333687      -0.14031705      -0.06038318
Cu       6.42635758       2.17978774      16.32539057        1      -0.00203045       0.00919936       0.12621448      -0.00659331       0.01255436       0.13823323      -0.08008806      -0.05313799       0.07099817
Cu       0.00201640       4.50733126      16.32072444        1       0.02018058       0.00700810       0.13828412      -0.00088954       0.00561881       0.13429531       0.11549788       0.06925259      -0.11816579
Cu       2.59020106       4.46693065      16.26646363        1       0.01669289       0.01626086       0.13104785      -0.00422276       0.00783545       0.13114736      -0.14537905       0.07913979      -0.11092456
Cu       5.11974012       4.49174689      16.27246599        1       0.00453121       0.02832733       0.11935733       0.01365412      -0.02346501       0.18657272       0.02939755       0.11942254      -0.10271045
Cu       1.29802342       6.66399962      16.28754324        1       0.00938957       0.00714641       0.13396408      -0.00130981       0.00727979       0.13847007       0.01786400       0.05409298      -0.01996965
Cu       3.84874772       6.68915114      16.27964346        1       0.00530456       0.01727726       0.13178819      -0.00259613       0.00451702       0.13564729       0.01412201      -0.02656705       0.01307787
Cu       6.41360520       6.67576250      16.28627503        1       0.01445391       0.01643865       0.12705744      -0.00278399       0.00813879       0.13035594       0.00213363       0.03484338      -0.02466580
O        7.87415736       2.67689621      17.70345844        0      -0.00793274       0.05361618      -0.01889956       0.01087181      -0.01954379       0.02068951      -0.12737144      -0.03138292       0.00814926
C        5.25836313       3.52584392      17.87657181        0      -0.25461989      -0.15662074       0.03710539      -0.02172752       0.03699359       0.01777304      -0.17636785      -0.31203047       0.10123876
H        7.74187530       2.10260275      18.48037989        0       0.03239852       0.08315946      -0.00553971       0.00833522      -0.01364935      -0.01101744      -0.17009412       0.13521697      -0.01330654
O        5.40220992       3.57762055      19.03657699        0      -0.16457995      -0.06930672       0.02970938       0.01494562      -0.02890404       0.02862615       0.10591152       0.17246214       0.12655289
40
Lattice="7.700392847121503 0.0 0.0 0.0 8.891647766302935 0.0 0.0 0.0 26.3637743517507" Properties=species:S:1:pos:R:3:tags:I:1:MACE_forces:R:3:forces:R:3:DFT_forces:R:3 method=neb MACE_energy=-161.8149892333961 energy=-162.10200129477914 stress="0.008795264645495418 0.00011656477790891593 -2.9569974072722832e-05 0.00011656477790891593 0.008634118939168078 6.0141823762087764e-05 -2.9569974072722832e-05 6.0141823762087764e-05 -0.00022290270273621232" free_energy=-162.10200129477914 DFT_energy=-163.79172245 pbc="T T T"
Cu       1.28339881       0.74097065      12.12125812        3       0.00000000       0.00000000       0.00000000       0.00220675       0.00041103       0.12990664       0.03187952       0.00940606       0.23508533
Cu       3.85019642       0.74097065      12.12125812        3       0.00000000       0.00000000       0.00000000      -0.00146444      -0.00030530       0.12628216       0.00061222       0.01881478       0.31905299
Cu       6.41699404       0.74097065      12.12125812        3       0.00000000       0.00000000       0.00000000      -0.00069660      -0.00314441       0.12278106      -0.02666528      -0.03364631       0.26192983
Cu       0.00000000       2.96388259      12.12125812        3       0.00000000       0.00000000       0.00000000       0.00213822       0.00284214       0.12358441       0.03321062       0.00418911       0.22401668
Cu       2.56679762       2.96388259      12.12125812        3       0.00000000       0.00000000       0.00000000      -0.00084266       0.00010888       0.12519778      -0.00786284      -0.00209002       0.27944492
Cu       5.13359523       2.96388259      12.12125812        3       0.00000000       0.00000000       0.00000000      -0.00187751       0.00377398       0.12944610      -0.00906828      -0.02467915       0.28508631
Cu       1.28339881       5.18679453      12.12125812        3       0.00000000       0.00000000       0.00000000       0.00068372      -0.00121997       0.12278985       0.02864852      -0.01773967       0.28251409
Cu       3.85019642       5.18679453      12.12125812        3       0.00000000       0.00000000       0.00000000      -0.00008429      -0.00004677       0.12208298      -0.05046441      -0.01524252       0.30194023
Cu       6.41699404       5.18679453      12.12125812        3       0.00000000       0.00000000       0.00000000      -0.00060268      -0.00091558       0.12726778       0.01779074       0.00754041       0.25213634
Cu       0.00000000       7.40970647      12.12125812        3       0.00000000       0.00000000       0.00000000       0.00013774      -0.00145973       0.12761299      -0.01015096      -0.00376523       0.33089851
Cu       2.56679762       7.40970647      12.12125812        3       0.00000000       0.00000000       0.00000000       0.00097586      -0.00018748       0.12755945       0.00313991      -0.02017085       0.30048991
Cu       5.13359523       7.40970647      12.12125812        3       0.00000000       0.00000000       0.00000000      -0.00082412       0.00025215       0.12463986       0.00865745       0.02647460       0.36187661
Cu       0.00000000       1.48194129      14.24251623        2       0.00000000       0.00000000       0.00000000      -0.02030762       0.00727762      -0.24248339       0.01565455       0.06956808      -0.16996322
Cu       2.56679762       1.48194129      14.24251623        2       0.00000000       0.00000000       0.00000000       0.00108271      -0.01273597      -0.32219477      -0.05207298       0.05984940      -0.20858387
Cu       5.13359523       1.48194129      14.24251623        2       0.00000000       0.00000000       0.00000000       0.03444356       0.00267876      -0.29030559       0.19335365       0.07155334      -0.09481760
Cu       1.28339881       3.70485324      14.24251623        2       0.00000000       0.00000000       0.00000000      -0.01531833      -0.04425246      -0.32345571      -0.08594343      -0.07287972      -0.14461674
Cu       3.85019642       3.70485324      14.24251623        2       0.00000000       0.00000000       0.00000000       0.08307649       0.01020870      -0.16097276       0.04968270       0.03123142      -0.28146435
Cu       6.41699404       3.70485324      14.24251623        2       0.00000000       0.00000000       0.00000000      -0.09704921       0.03547827      -0.14569641       0.03940111      -0.08590783      -0.26810571
Cu       0.00000000       5.92776518      14.24251623        2       0.00000000       0.00000000       0.00000000      -0.01104711      -0.00976909      -0.29403129       0.00067591      -0.06391817      -0.22548566
Cu       2.56679762       5.92776518      14.24251623        2       0.00000000       0.00000000       0.00000000      -0.00081523       0.01057973      -0.31444962      -0.02891615       0.01478119      -0.34681858
Cu       5.13359523       5.92776518      14.24251623        2       0.00000000       0.00000000       0.00000000       0.00987762      -0.04032440      -0.21918202      -0.00713290      -0.09969045      -0.25073420
Cu       1.28339881       8.15067712      14.24251623        2       0.00000000       0.00000000       0.00000000       0.00098262      -0.00171533      -0.28404401       0.03716083      -0.01142369      -0.31905725
Cu       3.85019642       8.15067712      14.24251623        2       0.00000000       0.00000000       0.00000000      -0.00393883       0.02323252      -0.31659574       0.03074827      -0.01253212      -0.37403881
Cu       6.41699404       8.15067712      14.24251623        2       0.00000000       0.00000000       0.00000000       0.01517658       0.03094903      -0.29891898      -0.02385262       0.00921814      -0.34600314
Cu       7.70758156       8.82855788      16.25874412        1       0.02028886      -0.02133009       0.12853675       0.00357473      -0.00517264       0.12980999      -0.00626185       0.02444055      -0.02468176
Cu       2.59279569       8.86514859      16.27814658        1       0.02350478      -0.01234859       0.13305350      -0.00283947      -0.00082853       0.13586750       0.04462639      -0.02815205      -0.02213758
Cu       5.14171067       8.88584412      16.28310296        1       0.01129287      -0.01053894       0.12966879      -0.00531873      -0.00623657       0.12771085       0.01329318      -0.01264055      -0.00465242
Cu       1.40399277       2.15867673      16.30415584        1       0.05574810      -0.00579147       0.10414718       0.00487888       0.00102155       0.12634010       0.17050474      -0.02232282      -0.28311007
Cu       3.89974438       2.22079460      16.29777675        1       0.03533374       0.00087859       0.13802651      -0.00389234       0.00212423       0.13265762      -0.08237686      -0.12895322      -0.18334163
Cu       6.44758480       2.18570145      16.35480977        1       0.01244037       0.01936327       0.17143297      -0.00659331       0.01255436       0.13823323      -0.04267550      -0.08142379       0.00844943
Cu      -0.00433687       4.51889392      16.29899533        1       0.00600201       0.00541824       0.13513345      -0.00088954       0.00561881       0.13429531       0.19684990       0.04387302      -0.13555733
Cu       2.57912959       4.46479373      16.25928021        1       0.01319251       0.00409721       0.12834672      -0.00422276       0.00783545       0.13114736      -0.00850549       0.03675526      -0.04816111
Cu       5.11945633       4.46442268      16.29387403        1       0.00402283       0.00811707       0.13387183       0.01365412      -0.02346501       0.18657272       0.01577473       0.07527580      -0.14510242
Cu       1.29271536       6.66867854      16.28719385        1       0.01710512       0.00050198       0.13432653      -0.00130981       0.00727979       0.13847007       0.01069513       0.04030145      -0.00954505
Cu       3.84543396       6.68127736      16.27995690        1       0.00716378       0.00550865       0.13136611      -0.00259613       0.00451702       0.13564729       0.00235286      -0.02905853       0.01495983
Cu       6.40230727       6.67493976      16.29184332        1       0.01055267       0.00164367       0.13194142      -0.00278399       0.00813879       0.13035594       0.04638538       0.13046507      -0.05516184
O        7.95946325       2.56411316      17.78108804        0      -0.10983922      -0.04615924      -0.06102165       0.01087181      -0.01954379       0.02068951      -0.22574283      -0.09277314      -0.01528956
C        5.69579669       3.84004242      17.94422515        0      -0.17380814       0.06577700       0.11334159      -0.02172752       0.03699359       0.01777304       0.01839097      -0.07173520       0.00857663
H        7.87209978       1.90593035      18.49401073        0      -0.00009707      -0.01325828      -0.02023536       0.00833522      -0.01364935      -0.01101744      -0.41108614       0.22207931       0.36105271
O        5.75101288       3.79334566      19.10642754        0      -0.09158120       0.04321752       0.07539600       0.01494562      -0.02890404       0.02862615       0.06928923       0.03492802       0.12891954
40
Lattice="7.700392847121503 0.0 0.0 0.0 8.891647766302935 0.0 0.0 0.0 26.3637743517507" Properties=species:S:1:pos:R:3:tags:I:1:MACE_forces:R:3:forces:R:3:DFT_forces:R:3 method=neb MACE_energy=-161.64000252321622 energy=-162.10200129477914 stress="0.008795264645495418 0.00011656477790891593 -2.9569974072722832e-05 0.00011656477790891593 0.008634118939168078 6.0141823762087764e-05 -2.9569974072722832e-05 6.0141823762087764e-05 -0.00022290270273621232" free_energy=-162.10200129477914 DFT_energy=-163.50276915 pbc="T T T"
Cu       1.28339881       0.74097065      12.12125812        3       0.00000000       0.00000000       0.00000000       0.00220675       0.00041103       0.12990664       0.02984768      -0.00406313       0.24607776
Cu       3.85019642       0.74097065      12.12125812        3       0.00000000       0.00000000       0.00000000      -0.00146444      -0.00030530       0.12628216       0.00243732       0.01444306       0.31214386
Cu       6.41699404       0.74097065      12.12125812        3       0.00000000       0.00000000       0.00000000      -0.00069660      -0.00314441       0.12278106      -0.02074433      -0.03859654       0.27488845
Cu       0.00000000       2.96388259      12.12125812        3       0.00000000       0.00000000       0.00000000       0.00213822       0.00284214       0.12358441       0.02808489      -0.00296064       0.22836773
Cu       2.56679762       2.96388259      12.12125812        3       0.00000000       0.00000000       0.00000000      -0.00084266       0.00010888       0.12519778       0.01088855       0.00366833       0.27218518
Cu       5.13359523       2.96388259      12.12125812        3       0.00000000       0.00000000       0.00000000      -0.00187751       0.00377398       0.12944610      -0.01642183      -0.01543587       0.28222944
Cu       1.28339881       5.18679453      12.12125812        3       0.00000000       0.00000000       0.00000000       0.00068372      -0.00121997       0.12278985       0.04339852      -0.00487709       0.28122658
Cu       3.85019642       5.18679453      12.12125812        3       0.00000000       0.00000000       0.00000000      -0.00008429      -0.00004677       0.12208298      -0.04742012      -0.01940094       0.30598162
Cu       6.41699404       5.18679453      12.12125812        3       0.00000000       0.00000000       0.00000000      -0.00060268      -0.00091558       0.12726778       0.00756684       0.00133269       0.26519440
Cu       0.00000000       7.40970647      12.12125812        3       0.00000000       0.00000000       0.00000000       0.00013774      -0.00145973       0.12761299      -0.00313222       0.00065363       0.33353934
Cu       2.56679762       7.40970647      12.12125812        3       0.00000000       0.00000000       0.00000000       0.00097586      -0.00018748       0.12755945       0.00229324      -0.03097904       0.30201162
Cu       5.13359523       7.40970647      12.12125812        3       0.00000000       0.00000000       0.00000000      -0.00082412       0.00025215       0.12463986       0.00547146       0.02248103       0.34782214
Cu       0.00000000       1.48194129      14.24251623        2       0.00000000       0.00000000       0.00000000      -0.02030762       0.00727762      -0.24248339       0.01135178       0.10179846      -0.13249873
Cu       2.56679762       1.48194129      14.24251623        2       0.00000000       0.00000000       0.00000000       0.00108271      -0.01273597      -0.32219477      -0.15655914       0.09515960      -0.16243784
Cu       5.13359523       1.48194129      14.24251623        2       0.00000000       0.00000000       0.00000000       0.03444356       0.00267876      -0.29030559       0.13579546       0.04732334      -0.14396473
Cu       1.28339881       3.70485324      14.24251623        2       0.00000000       0.00000000       0.00000000      -0.01531833      -0.04425246      -0.32345571      -0.10713259      -0.09373408      -0.12446198
Cu       3.85019642       3.70485324      14.24251623        2       0.00000000       0.00000000       0.00000000       0.08307649       0.01020870      -0.16097276       0.05717683       0.03975859      -0.24478477
Cu       6.41699404       3.70485324      14.24251623        2       0.00000000       0.00000000       0.00000000      -0.09704921       0.03547827      -0.14569641       0.03661532      -0.06490808      -0.42397789
Cu       0.00000000       5.92776518      14.24251623        2       0.00000000       0.00000000       0.00000000      -0.01104711      -0.00976909      -0.29403129      -0.01299685      -0.04191801      -0.25602817
Cu       2.56679762       5.92776518      14.24251623        2       0.00000000       0.00000000       0.00000000      -0.00081523       0.01057973      -0.31444962      -0.03361180       0.03468794      -0.37007391
Cu       5.13359523       5.92776518      14.24251623        2       0.00000000       0.00000000       0.00000000       0.00987762      -0.04032440      -0.21918202      -0.00043908      -0.08596944      -0.23474576
Cu       1.28339881       8.15067712      14.24251623        2       0.00000000       0.00000000       0.00000000       0.00098262      -0.00171533      -0.28404401       0.00579694      -0.00435833      -0.32937873
Cu       3.85019642       8.15067712      14.24251623        2       0.00000000       0.00000000       0.00000000      -0.00393883       0.02323252      -0.31659574       0.00978986      -0.01514077      -0.36425381
Cu       6.41699404       8.15067712      14.24251623        2       0.00000000       0.00000000       0.00000000       0.01517658       0.03094903      -0.29891898      -0.03034547       0.01101257      -0.36091155
Cu       7.68852793       8.85452537      16.25964206        1       0.01856451      -0.02024902       0.13094284       0.00357473      -0.00517264       0.12980999      -0.01892417      -0.00724977      -0.01019510
Cu       2.57118083       8.87686043      16.27365076        1       0.02669405      -0.01685750       0.12977708      -0.00283947      -0.00082853       0.13586750       0.03417442      -0.04269541      -0.01804164
Cu       5.12420200       8.89002516      16.28163591        1       0.01526454      -0.00925257       0.12985985      -0.00531873      -0.00623657       0.12771085       0.03374932       0.02906867       0.01464504
Cu       1.33063747       2.17981572      16.33810192        1       0.06705226      -0.02821386       0.08288905       0.00487888       0.00102155       0.12634010       0.14524834      -0.01756369      -0.25211742
Cu       3.85329064       2.21701203      16.28229574        1       0.04255412      -0.00732167       0.13107198      -0.00389234       0.00212423       0.13265762      -0.00011457      -0.05217132      -0.13596431
Cu       6.41302151       2.20842319      16.34243426        1       0.06275842       0.02671120       0.20928343      -0.00659331       0.01255436       0.13823323      -0.00697421       0.02264156       0.16983105
Cu      -0.01547364       4.51703846      16.29332473        1      -0.01399990      -0.02818010       0.17977025      -0.00088954       0.00561881       0.13429531       0.05865905       0.03252967       0.01555663
Cu       2.56822937       4.47014612      16.25574586        1       0.01147507       0.00225376       0.12586414      -0.00422276       0.00783545       0.13114736       0.06296735       0.01253180      -0.00812768
Cu       5.12371910       4.45297154      16.30610697        1       0.02839435      -0.01455347       0.18113996       0.01365412      -0.02346501       0.18657272       0.05314848       0.01681434       0.03278467
Cu       1.28188979       6.67909559      16.28285235        1       0.01629040       0.00027525       0.13206684      -0.00130981       0.00727979       0.13847007      -0.01223930       0.02394096       0.00402347
Cu       3.83785967       6.68146898      16.27985445        1       0.00602091       0.00285328       0.13015467      -0.00259613       0.00451702       0.13564729       0.02734523      -0.04396139       0.01686083
Cu       6.39482120       6.68744324      16.28921942        1       0.01355392      -0.00377443       0.13281739      -0.00278399       0.00813879       0.13035594       0.03034934       0.11503456      -0.04626194
O        8.17820027       2.56729342      17.99545778        0      -0.02955374      -0.07376674      -0.07718050       0.01087181      -0.01954379       0.02068951       0.11102972      -0.21125506      -0.17183439
C        6.10831031       3.74010584      17.87417523        0      -0.22608237       0.15689279      -0.06027987      -0.02172752       0.03699359       0.01777304      -0.00651755       0.10415581      -0.02151836
H        7.96645379       1.77893812      18.52940782        0       0.03428027      -0.05784223      -0.04674688       0.00833522      -0.01364935      -0.01101744      -0.50905809       0.11480494      -0.01391360
O        5.96953153       3.78514889      19.03485167        0      -0.02952307       0.03529264       0.06040621       0.01494562      -0.02890404       0.02862615       0.03944539      -0.04660292       0.12012250
40
Lattice="7.700392847121503 0.0 0.0 0.0 8.891647766302935 0.0 0.0 0.0 26.3637743517507" Properties=species:S:1:pos:R:3:tags:I:1:MACE_forces:R:3:forces:R:3:DFT_forces:R:3 method=neb MACE_energy=-161.5331324498078 energy=-162.10200129477914 stress="0.008795264645495418 0.00011656477790891593 -2.9569974072722832e-05 0.00011656477790891593 0.008634118939168078 6.0141823762087764e-05 -2.9569974072722832e-05 6.0141823762087764e-05 -0.00022290270273621232" free_energy=-162.10200129477914 DFT_energy=-163.29462483 pbc="T T T"
Cu       1.28339881       0.74097065      12.12125812        3       0.00000000       0.00000000       0.00000000       0.00220675       0.00041103       0.12990664       0.02932870      -0.00730657       0.26164581
Cu       3.85019642       0.74097065      12.12125812        3       0.00000000       0.00000000       0.00000000      -0.00146444      -0.00030530       0.12628216       0.00076564       0.01076536       0.32245081
Cu       6.41699404       0.74097065      12.12125812        3       0.00000000       0.00000000       0.00000000      -0.00069660      -0.00314441       0.12278106      -0.01704652      -0.03624705       0.26863505
Cu       0.00000000       2.96388259      12.12125812        3       0.00000000       0.00000000       0.00000000       0.00213822       0.00284214       0.12358441       0.02356079      -0.00594614       0.23429501
Cu       2.56679762       2.96388259      12.12125812        3       0.00000000       0.00000000       0.00000000      -0.00084266       0.00010888       0.12519778       0.02153339       0.00686321       0.27643958
Cu       5.13359523       2.96388259      12.12125812        3       0.00000000       0.00000000       0.00000000      -0.00187751       0.00377398       0.12944610      -0.02530503      -0.00397476       0.27196713
Cu       1.28339881       5.18679453      12.12125812        3       0.00000000       0.00000000       0.00000000       0.00068372      -0.00121997       0.12278985       0.04194525      -0.00009189       0.27978656
Cu       3.85019642       5.18679453      12.12125812        3       0.00000000       0.00000000       0.00000000      -0.00008429      -0.00004677       0.12208298      -0.03175348      -0.02734940       0.30575477
Cu       6.41699404       5.18679453      12.12125812        3       0.00000000       0.00000000       0.00000000      -0.00060268      -0.00091558       0.12726778      -0.00216284      -0.00035513       0.26299442
Cu       0.00000000       7.40970647      12.12125812        3       0.00000000       0.00000000       0.00000000       0.00013774      -0.00145973       0.12761299       0.00231991      -0.00255833       0.34202212
Cu       2.56679762       7.40970647      12.12125812        3       0.00000000       0.00000000       0.00000000       0.00097586      -0.00018748       0.12755945      -0.00265849      -0.02843195       0.30445117
Cu       5.13359523       7.40970647      12.12125812        3       0.00000000       0.00000000       0.00000000      -0.00082412       0.00025215       0.12463986       0.00618940       0.01282621       0.33964712
Cu       0.00000000       1.48194129      14.24251623        2       0.00000000       0.00000000       0.00000000      -0.02030762       0.00727762      -0.24248339       0.01776427       0.11878866      -0.10408741
Cu       2.56679762       1.48194129      14.24251623        2       0.00000000       0.00000000       0.00000000       0.00108271      -0.01273597      -0.32219477      -0.21260430       0.10806501      -0.11532551
Cu       5.13359523       1.48194129      14.24251623        2       0.00000000       0.00000000       0.00000000       0.03444356       0.00267876      -0.29030559       0.06595646       0.01019722      -0.21644318
Cu       1.28339881       3.70485324      14.24251623        2       0.00000000       0.00000000       0.00000000      -0.01531833      -0.04425246      -0.32345571      -0.11291370      -0.09820367      -0.10128621
Cu       3.85019642       3.70485324      14.24251623        2       0.00000000       0.00000000       0.00000000       0.08307649       0.01020870      -0.16097276       0.02822868       0.01494057      -0.27376017
Cu       6.41699404       3.70485324      14.24251623        2       0.00000000       0.00000000       0.00000000      -0.09704921       0.03547827      -0.14569641       0.03712426      -0.03887032      -0.48394758
Cu       0.00000000       5.92776518      14.24251623        2       0.00000000       0.00000000       0.00000000      -0.01104711      -0.00976909      -0.29403129      -0.00904617      -0.00865285      -0.28481297
Cu       2.56679762       5.92776518      14.24251623        2       0.00000000       0.00000000       0.00000000      -0.00081523       0.01057973      -0.31444962      -0.03103571       0.03580872      -0.37171206
Cu       5.13359523       5.92776518      14.24251623        2       0.00000000       0.00000000       0.00000000       0.00987762      -0.04032440      -0.21918202       0.00604892      -0.03784570      -0.26866263
Cu       1.28339881       8.15067712      14.24251623        2       0.00000000       0.00000000       0.00000000       0.00098262      -0.00171533      -0.28404401      -0.00089929       0.00184769      -0.34345294
Cu       3.85019642       8.15067712      14.24251623        2       0.00000000       0.00000000       0.00000000      -0.00393883       0.02323252      -0.31659574      -0.00658918      -0.02595548      -0.35941300
Cu       6.41699404       8.15067712      14.24251623        2       0.00000000       0.00000000       0.00000000       0.01517658       0.03094903      -0.29891898      -0.04007492       0.01529432      -0.38260137
Cu       7.68156497       8.86320951      16.25666091        1       0.00659747      -0.01042286       0.12797270       0.00357473      -0.00517264       0.12980999      -0.03663133       0.03286252       0.00615174
Cu       2.55829380       8.88601005      16.27420019        1       0.00712840      -0.00178173       0.13297607      -0.00283947      -0.00082853       0.13586750      -0.00435134      -0.02250088      -0.01464302
Cu       5.11079885       8.88747062      16.28152798        1       0.00238703      -0.00567054       0.12977984      -0.00531873      -0.00623657       0.12771085       0.04473395       0.06805897       0.02374219
Cu       1.28260465       2.20975231      16.36882027        1       0.01447742       0.00164979       0.13227759       0.00487888       0.00102155       0.12634010       0.13547757      -0.02410772      -0.25993872
Cu       3.82060375       2.21808965      16.27910512        1      -0.00167437      -0.00601249       0.12750208      -0.00389234       0.00212423       0.13265762      -0.01418892      -0.02861937      -0.12186425
Cu       6.35082078       2.21903657      16.31146983        1       0.00633396       0.03342952       0.16835048      -0.00659331       0.01255436       0.13823323       0.01357361       0.07255022       0.13440159
Cu      -0.03551788       4.53186660      16.28521865        1      -0.03829773      -0.03396406       0.18502176      -0.00088954       0.00561881       0.13429531      -0.02170151      -0.02002462       0.06415753
Cu       2.56754902       4.47412211      16.25578372        1       0.00814910       0.00488403       0.12659488      -0.00422276       0.00783545       0.13114736       0.00663637      -0.00316004       0.00374121
Cu       5.11457031       4.46015099      16.27796344        1       0.06690026      -0.04122125       0.22941367       0.01365412      -0.02346501       0.18657272       0.03395674       0.00588331       0.10444164
Cu       1.28060111       6.68427006      16.28251435        1       0.01273665       0.00546112       0.13200095      -0.00130981       0.00727979       0.13847007      -0.03831882       0.01202143       0.00165349
Cu       3.83617816       6.68154294      16.28226356        1       0.00332318       0.00209976       0.13399450      -0.00259613       0.00451702       0.13564729       0.01621232      -0.01657532       0.00366335
Cu       6.38929619       6.69825748      16.28621116        1       0.00920806       0.00504007       0.12827738      -0.00278399       0.00813879       0.13035594       0.02899097       0.08246014      -0.03762610
O        8.18915846       2.61527957      18.09811144        0      -0.04120305      -0.00948893       0.04896195       0.01087181      -0.01954379       0.02068951       0.37052427      -0.41191036      -0.02167885
C        6.40382162       3.56444636      17.92804230        0       0.08518136       0.00875923      -0.13222054      -0.02172752       0.03699359       0.01777304      -0.07869957       0.13160514       0.06660550
H        7.96157005       1.78507510      18.56712974        0       0.00419009      -0.03482623       0.03766501       0.00833522      -0.01364935      -0.01101744      -0.29989635       0.01780921      -0.23271993
O        6.03136973       3.74611995      19.02536552        0       0.03426590      -0.01572481       0.01729094       0.01494562      -0.02890404       0.02862615       0.05500603       0.09003964       0.11532809
40
Lattice="7.700392847121503 0.0 0.0 0.0 8.891647766302935 0.0 0.0 0.0 26.3637743517507" Properties=species:S:1:pos:R:3:tags:I:1:MACE_forces:R:3:forces:R:3:DFT_forces:R:3 method=neb MACE_energy=-161.696391109992 energy=-162.10200129477914 stress="0.008795264645495418 0.00011656477790891593 -2.9569974072722832e-05 0.00011656477790891593 0.008634118939168078 6.0141823762087764e-05 -2.9569974072722832e-05 6.0141823762087764e-05 -0.00022290270273621232" free_energy=-162.10200129477914 DFT_energy=-163.28449357 pbc="T T T"
Cu       1.28339881       0.74097065      12.12125812        3       0.00000000       0.00000000       0.00000000       0.00220675       0.00041103       0.12990664       0.01804513      -0.00857268       0.27647907
Cu       3.85019642       0.74097065      12.12125812        3       0.00000000       0.00000000       0.00000000      -0.00146444      -0.00030530       0.12628216       0.00496337      -0.00047327       0.32973520
Cu       6.41699404       0.74097065      12.12125812        3       0.00000000       0.00000000       0.00000000      -0.00069660      -0.00314441       0.12278106      -0.01477599      -0.02465874       0.25365118
Cu       0.00000000       2.96388259      12.12125812        3       0.00000000       0.00000000       0.00000000       0.00213822       0.00284214       0.12358441       0.02812788      -0.01741136       0.24966779
Cu       2.56679762       2.96388259      12.12125812        3       0.00000000       0.00000000       0.00000000      -0.00084266       0.00010888       0.12519778       0.02403016       0.01510450       0.27984844
Cu       5.13359523       2.96388259      12.12125812        3       0.00000000       0.00000000       0.00000000      -0.00187751       0.00377398       0.12944610      -0.04149832      -0.00543075       0.26224106
Cu       1.28339881       5.18679453      12.12125812        3       0.00000000       0.00000000       0.00000000       0.00068372      -0.00121997       0.12278985       0.03390439      -0.00238480       0.26851073
Cu       3.85019642       5.18679453      12.12125812        3       0.00000000       0.00000000       0.00000000      -0.00008429      -0.00004677       0.12208298      -0.01218403      -0.03751977       0.31228710
Cu       6.41699404       5.18679453      12.12125812        3       0.00000000       0.00000000       0.00000000      -0.00060268      -0.00091558       0.12726778      -0.00559052       0.00345811       0.26619632
Cu       0.00000000       7.40970647      12.12125812        3       0.00000000       0.00000000       0.00000000       0.00013774      -0.00145973       0.12761299       0.01349153      -0.00479919       0.35337509
Cu       2.56679762       7.40970647      12.12125812        3       0.00000000       0.00000000       0.00000000       0.00097586      -0.00018748       0.12755945      -0.00787701      -0.02028659       0.31948635
Cu       5.13359523       7.40970647      12.12125812        3       0.00000000       0.00000000       0.00000000      -0.00082412       0.00025215       0.12463986       0.00461806       0.00828211       0.33497564
Cu       0.00000000       1.48194129      14.24251623        2       0.00000000       0.00000000       0.00000000      -0.02030762       0.00727762      -0.24248339       0.04776580       0.09094821      -0.14660827
Cu       2.56679762       1.48194129      14.24251623        2       0.00000000       0.00000000       0.00000000       0.00108271      -0.01273597      -0.32219477      -0.21798620       0.10197791      -0.10012629
Cu       5.13359523       1.48194129      14.24251623        2       0.00000000       0.00000000       0.00000000       0.03444356       0.00267876      -0.29030559      -0.02118387      -0.02432361      -0.31745645
Cu       1.28339881       3.70485324      14.24251623        2       0.00000000       0.00000000       0.00000000      -0.01531833      -0.04425246      -0.32345571      -0.11556999      -0.09103012      -0.10777643
Cu       3.85019642       3.70485324      14.24251623        2       0.00000000       0.00000000       0.00000000       0.08307649       0.01020870      -0.16097276       0.04770318       0.00656407      -0.24183707
Cu       6.41699404       3.70485324      14.24251623        2       0.00000000       0.00000000       0.00000000      -0.09704921       0.03547827      -0.14569641      -0.04597101       0.05611136      -0.56365977
Cu       0.00000000       5.92776518      14.24251623        2       0.00000000       0.00000000       0.00000000      -0.01104711      -0.00976909      -0.29403129      -0.01932718      -0.02740855      -0.25146622
Cu       2.56679762       5.92776518      14.24251623        2       0.00000000       0.00000000       0.00000000      -0.00081523       0.01057973      -0.31444962      -0.03018245       0.03544828      -0.37680776
Cu       5.13359523       5.92776518      14.24251623        2       0.00000000       0.00000000       0.00000000       0.00987762      -0.04032440      -0.21918202       0.01467305      -0.04928795      -0.23170383
Cu       1.28339881       8.15067712      14.24251623        2       0.00000000       0.00000000       0.00000000       0.00098262      -0.00171533      -0.28404401       0.00330427       0.00484468      -0.34599093
Cu       3.85019642       8.15067712      14.24251623        2       0.00000000       0.00000000       0.00000000      -0.00393883       0.02323252      -0.31659574      -0.02969053      -0.03450787      -0.34216436
Cu       6.41699404       8.15067712      14.24251623        2       0.00000000       0.00000000       0.00000000       0.01517658       0.03094903      -0.29891898      -0.04887223       0.01637331      -0.38555121
Cu       7.67362303       8.87346044      16.25709523        1       0.00493419      -0.00757460       0.12610777       0.00357473      -0.00517264       0.12980999      -0.02657329       0.04063311       0.00757511
Cu       2.54203327       8.89534552      16.27885482        1      -0.00273542       0.00063399       0.13526767      -0.00283947      -0.00082853       0.13586750      -0.01036325      -0.00840437      -0.01538447
Cu       5.10128947       8.89435232      16.27978648        1      -0.00712106      -0.00643320       0.12846879      -0.00531873      -0.00623657       0.12771085       0.04920493       0.09108106       0.02499395
Cu       1.25339292       2.22861610      16.38580091        1      -0.01941417       0.01342753       0.15391079       0.00487888       0.00102155       0.12634010       0.24133323      -0.11794594      -0.38971080
Cu       3.79421724       2.22554285      16.28011589        1      -0.02367383      -0.00443317       0.12587611      -0.00389234       0.00212423       0.13265762      -0.00896598      -0.02979310      -0.10320585
Cu       6.32079855       2.24348815      16.25922228        1      -0.02400468       0.02904881       0.08189608      -0.00659331       0.01255436       0.13823323       0.06360117       0.01340374       0.06827335
Cu      -0.08227333       4.50501204      16.28900092        1      -0.04447870      -0.03309654       0.14201577      -0.00088954       0.00561881       0.13429531       0.00110264      -0.02157847       0.01057412
Cu       2.55233699       4.47487512      16.25635626        1      -0.00708442       0.00381419       0.12813446      -0.00422276       0.00783545       0.13114736      -0.03327493       0.00039596       0.00584125
Cu       5.08764231       4.47046575      16.30148657        1      -0.01139686       0.00638130       0.15855961       0.01365412      -0.02346501       0.18657272      -0.15661087       0.09246710      -0.14232389
Cu       1.26771174       6.68027165      16.28015322        1       0.00319360       0.00176093       0.12900829      -0.00130981       0.00727979       0.13847007      -0.07583643      -0.01787906       0.00099832
Cu       3.82728987       6.68507717      16.28301699        1      -0.00566843       0.01023835       0.13653164      -0.00259613       0.00451702       0.13564729       0.01321987       0.00826904       0.00328790
Cu       6.38021479       6.70015115      16.28551899        1       0.00151442       0.00787604       0.12906699      -0.00278399       0.00813879       0.13035594       0.03157306       0.08925920      -0.04441076
O        8.16299090       2.67388591      18.25755434        0      -0.04082313       0.04644222       0.19601418       0.01087181      -0.01954379       0.02068951      -0.22767243      -0.24796490       0.16079989
C        6.79760047       3.39571225      17.89838370        0       0.44850329      -0.18908958       0.01642033      -0.02172752       0.03699359       0.01777304       0.05789612      -0.11375150       0.14254292
H        7.89931358       1.83719585      18.69996481        0      -0.05456481       0.03135588       0.12039354       0.00833522      -0.01364935      -0.01101744       0.34447119       0.15033129      -0.12104427
O        6.11118244       3.73778114      18.82630522        0       0.11414632      -0.02114390      -0.16280083       0.01494562      -0.02890404       0.02862615       0.10697746       0.08045956       0.29588785
40
Lattice="7.700392847121503 0.0 0.0 0.0 8.891647766302935 0.0 0.0 0.0 26.3637743517507" Properties=species:S:1:pos:R:3:tags:I:1:MACE_forces:R:3:forces:R:3:DFT_forces:R:3 method=neb MACE_energy=-161.79498742836225 energy=-162.10200129477914 stress="0.008795264645495418 0.00011656477790891593 -2.9569974072722832e-05 0.00011656477790891593 0.008634118939168078 6.0141823762087764e-05 -2.9569974072722832e-05 6.0141823762087764e-05 -0.00022290270273621232" free_energy=-162.10200129477914 DFT_energy=-163.36221709 pbc="T T T"
Cu       1.28339881       0.74097065      12.12125812        3       0.00000000       0.00000000       0.00000000       0.00220675       0.00041103       0.12990664       0.01188019      -0.00269598       0.28043864
Cu       3.85019642       0.74097065      12.12125812        3       0.00000000       0.00000000       0.00000000      -0.00146444      -0.00030530       0.12628216       0.01222589      -0.00119167       0.32793704
Cu       6.41699404       0.74097065      12.12125812        3       0.00000000       0.00000000       0.00000000      -0.00069660      -0.00314441       0.12278106      -0.01860203      -0.01383925       0.24948211
Cu       0.00000000       2.96388259      12.12125812        3       0.00000000       0.00000000       0.00000000       0.00213822       0.00284214       0.12358441       0.02728111      -0.02376881       0.26304577
Cu       2.56679762       2.96388259      12.12125812        3       0.00000000       0.00000000       0.00000000      -0.00084266       0.00010888       0.12519778       0.02062135       0.01708067       0.28744953
Cu       5.13359523       2.96388259      12.12125812        3       0.00000000       0.00000000       0.00000000      -0.00187751       0.00377398       0.12944610      -0.04189399      -0.01080667       0.25541824
Cu       1.28339881       5.18679453      12.12125812        3       0.00000000       0.00000000       0.00000000       0.00068372      -0.00121997       0.12278985       0.03164327      -0.00738216       0.26765368
Cu       3.85019642       5.18679453      12.12125812        3       0.00000000       0.00000000       0.00000000      -0.00008429      -0.00004677       0.12208298      -0.00693800      -0.04154345       0.31205987
Cu       6.41699404       5.18679453      12.12125812        3       0.00000000       0.00000000       0.00000000      -0.00060268      -0.00091558       0.12726778      -0.00690490       0.00298107       0.25889985
Cu       0.00000000       7.40970647      12.12125812        3       0.00000000       0.00000000       0.00000000       0.00013774      -0.00145973       0.12761299       0.01364427      -0.00555663       0.35781167
Cu       2.56679762       7.40970647      12.12125812        3       0.00000000       0.00000000       0.00000000       0.00097586      -0.00018748       0.12755945      -0.00910568      -0.01855344       0.32436778
Cu       5.13359523       7.40970647      12.12125812        3       0.00000000       0.00000000       0.00000000      -0.00082412       0.00025215       0.12463986       0.00575777       0.00789330       0.33425152
Cu       0.00000000       1.48194129      14.24251623        2       0.00000000       0.00000000       0.00000000      -0.02030762       0.00727762      -0.24248339       0.08398877       0.04685759      -0.21775554
Cu       2.56679762       1.48194129      14.24251623        2       0.00000000       0.00000000       0.00000000       0.00108271      -0.01273597      -0.32219477      -0.21102921       0.08054686      -0.13092593
Cu       5.13359523       1.48194129      14.24251623        2       0.00000000       0.00000000       0.00000000       0.03444356       0.00267876      -0.29030559      -0.05743400      -0.02289554      -0.34524475
Cu       1.28339881       3.70485324      14.24251623        2       0.00000000       0.00000000       0.00000000      -0.01531833      -0.04425246      -0.32345571      -0.07566956      -0.10804064      -0.16835738
Cu       3.85019642       3.70485324      14.24251623        2       0.00000000       0.00000000       0.00000000       0.08307649       0.01020870      -0.16097276       0.06356125       0.02259415      -0.19588532
Cu       6.41699404       3.70485324      14.24251623        2       0.00000000       0.00000000       0.00000000      -0.09704921       0.03547827      -0.14569641      -0.12348714       0.10564320      -0.57388990
Cu       0.00000000       5.92776518      14.24251623        2       0.00000000       0.00000000       0.00000000      -0.01104711      -0.00976909      -0.29403129      -0.02777293      -0.04153199      -0.25379982
Cu       2.56679762       5.92776518      14.24251623        2       0.00000000       0.00000000       0.00000000      -0.00081523       0.01057973      -0.31444962      -0.03222035       0.02140831      -0.36452988
Cu       5.13359523       5.92776518      14.24251623        2       0.00000000       0.00000000       0.00000000       0.00987762      -0.04032440      -0.21918202       0.00047492      -0.08197940      -0.18471234
Cu       1.28339881       8.15067712      14.24251623        2       0.00000000       0.00000000       0.00000000       0.00098262      -0.00171533      -0.28404401       0.00400375       0.00663273      -0.34320096
Cu       3.85019642       8.15067712      14.24251623        2       0.00000000       0.00000000       0.00000000      -0.00393883       0.02323252      -0.31659574      -0.04563750      -0.03338298      -0.32888557
Cu       6.41699404       8.15067712      14.24251623        2       0.00000000       0.00000000       0.00000000       0.01517658       0.03094903      -0.29891898      -0.05276830       0.02135853      -0.37582506
Cu       7.66888218       8.87517055      16.26182207        1       0.00672493      -0.01310064       0.12683069       0.00357473      -0.00517264       0.12980999      -0.01806706       0.01904228       0.00914023
Cu       2.53023120       8.89700442      16.28315907        1       0.01361121      -0.01032925       0.13249357      -0.00283947      -0.00082853       0.13586750       0.00746522      -0.00009162      -0.01922488
Cu       5.09464846       8.89536051      16.27922956        1       0.00031413      -0.00831909       0.12913547      -0.00531873      -0.00623657       0.12771085       0.06168391       0.08143913       0.01277802
Cu       1.24493346       2.22163020      16.39409279        1       0.02423650      -0.01039219       0.11701494       0.00487888       0.00102155       0.12634010       0.26214555      -0.16180332      -0.37831815
Cu       3.78271063       2.22349491      16.27625087        1       0.01110364      -0.00418755       0.12321127      -0.00389234       0.00212423       0.13265762       0.01792850      -0.02794734      -0.09037169
Cu       6.33953843       2.23594203      16.23435770        1       0.02289643      -0.00093297       0.11806462      -0.00659331       0.01255436       0.13823323       0.04963802      -0.06819360       0.03913347
Cu      -0.07301009       4.47921992      16.27270496        1       0.02880101      -0.01283789       0.11685152      -0.00088954       0.00561881       0.13429531       0.04252938       0.00369309       0.02203370
Cu       2.53572209       4.46784018      16.26106303        1       0.01897057       0.00614201       0.12739793      -0.00422276       0.00783545       0.13114736       0.00072481       0.02218464      -0.00238591
Cu       5.06463841       4.47457462      16.32925405        1       0.00485474       0.00504358       0.15646225       0.01365412      -0.02346501       0.18657272      -0.15864894       0.09554838      -0.18584497
Cu       1.25736697       6.67724105      16.27909323        1       0.01133454       0.00564233       0.13069307      -0.00130981       0.00727979       0.13847007      -0.05370462      -0.02312780      -0.00069209
Cu       3.81649866       6.68675136      16.28380499        1       0.00544450       0.00110117       0.13405439      -0.00259613       0.00451702       0.13564729       0.02440282       0.01388035       0.00268853
Cu       6.37613320       6.69395913      16.28114757        1       0.00531209       0.00403636       0.12770381      -0.00278399       0.00813879       0.13035594       0.03161476       0.08239090      -0.04275438
O        8.10540695       2.70965535      18.38730596        0       0.04114022      -0.01845857       0.10260639       0.01087181      -0.01954379       0.02068951      -0.25982711      -0.33101445       0.10393037
C        6.91432716       3.36179575      17.85232711        0       0.13019329      -0.03613709       0.03947330      -0.02172752       0.03699359       0.01777304       0.08569530      -0.27052838       0.15854370
H        7.78482646       1.96762380      18.94506824        0       0.00671468       0.01882268       0.11424301       0.00833522      -0.01364935      -0.01101744       0.17976741       0.58862623      -0.03358386
O        6.05276913       3.76709238      18.62588829        0       0.06533791       0.00697564      -0.03886673       0.01494562      -0.02890404       0.02862615       0.16103308       0.05607370       0.36912463
40
Lattice="7.700392847121503 0.0 0.0 0.0 8.891647766302935 0.0 0.0 0.0 26.3637743517507" Properties=species:S:1:pos:R:3:tags:I:1:MACE_forces:R:3:forces:R:3:DFT_forces:R:3 method=neb MACE_energy=-161.83362434603674 energy=-162.10200129477914 stress="0.008795264645495418 0.00011656477790891593 -2.9569974072722832e-05 0.00011656477790891593 0.008634118939168078 6.0141823762087764e-05 -2.9569974072722832e-05 6.0141823762087764e-05 -0.00022290270273621232" free_energy=-162.10200129477914 DFT_energy=-163.41429615 pbc="T T T"
Cu       1.28339881       0.74097065      12.12125812        3       0.00000000       0.00000000       0.00000000       0.00220675       0.00041103       0.12990664       0.01022967      -0.00030771       0.27987042
Cu       3.85019642       0.74097065      12.12125812        3       0.00000000       0.00000000       0.00000000      -0.00146444      -0.00030530       0.12628216       0.01207635      -0.00022462       0.32481922
Cu       6.41699404       0.74097065      12.12125812        3       0.00000000       0.00000000       0.00000000      -0.00069660      -0.00314441       0.12278106      -0.01889534      -0.01068109       0.24696408
Cu       0.00000000       2.96388259      12.12125812        3       0.00000000       0.00000000       0.00000000       0.00213822       0.00284214       0.12358441       0.02778425      -0.02408373       0.26741387
Cu       2.56679762       2.96388259      12.12125812        3       0.00000000       0.00000000       0.00000000      -0.00084266       0.00010888       0.12519778       0.01809606       0.01724927       0.29140763
Cu       5.13359523       2.96388259      12.12125812        3       0.00000000       0.00000000       0.00000000      -0.00187751       0.00377398       0.12944610      -0.04219604      -0.01386181       0.25211811
Cu       1.28339881       5.18679453      12.12125812        3       0.00000000       0.00000000       0.00000000       0.00068372      -0.00121997       0.12278985       0.02946473      -0.00793606       0.27099664
Cu       3.85019642       5.18679453      12.12125812        3       0.00000000       0.00000000       0.00000000      -0.00008429      -0.00004677       0.12208298      -0.00763785      -0.04047002       0.31060552
Cu       6.41699404       5.18679453      12.12125812        3       0.00000000       0.00000000       0.00000000      -0.00060268      -0.00091558       0.12726778      -0.00519038       0.00488475       0.25384215
Cu       0.00000000       7.40970647      12.12125812        3       0.00000000       0.00000000       0.00000000       0.00013774      -0.00145973       0.12761299       0.01220879      -0.00703764       0.35883885
Cu       2.56679762       7.40970647      12.12125812        3       0.00000000       0.00000000       0.00000000       0.00097586      -0.00018748       0.12755945      -0.00965867      -0.01849602       0.32656374
Cu       5.13359523       7.40970647      12.12125812        3       0.00000000       0.00000000       0.00000000      -0.00082412       0.00025215       0.12463986       0.00667449       0.00678716       0.33836871
Cu       0.00000000       1.48194129      14.24251623        2       0.00000000       0.00000000       0.00000000      -0.02030762       0.00727762      -0.24248339       0.08081136       0.00330718      -0.30607043
Cu       2.56679762       1.48194129      14.24251623        2       0.00000000       0.00000000       0.00000000       0.00108271      -0.01273597      -0.32219477      -0.17460999       0.04783915      -0.18895940
Cu       5.13359523       1.48194129      14.24251623        2       0.00000000       0.00000000       0.00000000       0.03444356       0.00267876      -0.29030559      -0.06561871      -0.02590496      -0.35580554
Cu       1.28339881       3.70485324      14.24251623        2       0.00000000       0.00000000       0.00000000      -0.01531833      -0.04425246      -0.32345571      -0.05214605      -0.08182588      -0.23806249
Cu       3.85019642       3.70485324      14.24251623        2       0.00000000       0.00000000       0.00000000       0.08307649       0.01020870      -0.16097276       0.09508498       0.04452714      -0.14905832
Cu       6.41699404       3.70485324      14.24251623        2       0.00000000       0.00000000       0.00000000      -0.09704921       0.03547827      -0.14569641      -0.15526555       0.12846476      -0.53790883
Cu       0.00000000       5.92776518      14.24251623        2       0.00000000       0.00000000       0.00000000      -0.01104711      -0.00976909      -0.29403129      -0.02439441      -0.05868743      -0.24338408
Cu       2.56679762       5.92776518      14.24251623        2       0.00000000       0.00000000       0.00000000      -0.00081523       0.01057973      -0.31444962      -0.02854558       0.00798575      -0.35502514
Cu       5.13359523       5.92776518      14.24251623        2       0.00000000       0.00000000       0.00000000       0.00987762      -0.04032440      -0.21918202      -0.00462900      -0.12765272      -0.13695542
Cu       1.28339881       8.15067712      14.24251623        2       0.00000000       0.00000000       0.00000000       0.00098262      -0.00171533      -0.28404401       0.00784506      -0.00023914      -0.34294675
Cu       3.85019642       8.15067712      14.24251623        2       0.00000000       0.00000000       0.00000000      -0.00393883       0.02323252      -0.31659574      -0.04510979      -0.03820160      -0.32797449
Cu       6.41699404       8.15067712      14.24251623        2       0.00000000       0.00000000       0.00000000       0.01517658       0.03094903      -0.29891898      -0.04690460       0.01919615      -0.37039095
Cu       7.67418657       8.87036187      16.26463113        1       0.01080204      -0.01290272       0.13137668       0.00357473      -0.00517264       0.12980999      -0.01627242       0.01173316       0.01087943
Cu       2.53438289       8.88814188      16.28424690        1       0.01273291      -0.00994139       0.13271159      -0.00283947      -0.00082853       0.13586750       0.00271609       0.01776431      -0.01340470
Cu       5.09817922       8.88895054      16.27931328        1       0.00302263      -0.00908302       0.12955295      -0.00531873      -0.00623657       0.12771085       0.06264462       0.07447381       0.00502312
Cu       1.25328744       2.21342523      16.35506823        1       0.03361711      -0.00848374       0.09340883       0.00487888       0.00102155       0.12634010       0.20442822      -0.14138007      -0.25359104
Cu       3.78564295       2.21407923      16.27253028        1       0.01959457      -0.00842882       0.11943659      -0.00389234       0.00212423       0.13265762       0.02490641      -0.02880712      -0.07590291
Cu       6.35945953       2.21943384      16.22415324        1       0.04414323      -0.01554044       0.12841269      -0.00659331       0.01255436       0.13823323       0.04216055      -0.08199276       0.03306349
Cu      -0.05384955       4.46004152      16.27056956        1       0.04772007      -0.01715905       0.11993625      -0.00088954       0.00561881       0.13429531       0.06094481       0.00688968       0.03061162
Cu       2.53713378       4.45859214      16.26541011        1       0.02174190       0.00569075       0.12980846      -0.00422276       0.00783545       0.13114736      -0.00318157       0.02766549      -0.01779389
Cu       5.06178539       4.46970816      16.36138088        1       0.01721558      -0.00487832       0.18994468       0.01365412      -0.02346501       0.18657272      -0.14504924       0.09256012      -0.23929564
Cu       1.26070981       6.67003521      16.27884665        1       0.00991945       0.00851199       0.13128861      -0.00130981       0.00727979       0.13847007      -0.05139237      -0.02473333       0.00050382
Cu       3.82062238       6.67899733      16.28380334        1       0.00384147       0.00332934       0.13409980      -0.00259613       0.00451702       0.13564729       0.01091941       0.02895871      -0.00422828
Cu       6.38247602       6.68679331      16.27723926        1       0.00782264       0.00419107       0.12417549      -0.00278399       0.00813879       0.13035594       0.02987438       0.07521237      -0.03818047
O        7.99396472       2.73473559      18.48193505        0       0.01813612       0.00471452       0.14556204       0.01087181      -0.01954379       0.02068951      -0.36183619      -0.30273343       0.02912561
C        6.89189504       3.36209333      17.83482476        0       0.09253922      -0.01422836       0.04803134      -0.02172752       0.03699359       0.01777304       0.13123350      -0.33394668       0.13315434
H        7.62557843       2.09553932      19.13027714        0      -0.02564901       0.04510255       0.14419139       0.00833522      -0.01364935      -0.01101744       0.26432670       0.64385208       0.03582126
O        5.94629101       3.80966404      18.50203288        0       0.03048496       0.04617104      -0.07765760       0.01494562      -0.02890404       0.02862615       0.12410329       0.10985277       0.39494718
40
Lattice="7.700392847121503 0.0 0.0 0.0 8.891647766302935 0.0 0.0 0.0 26.3637743517507" Properties=species:S:1:pos:R:3:tags:I:1:MACE_forces:R:3:forces:R:3:DFT_forces:R:3 method=neb MACE_energy=-161.88851171701134 energy=-162.10200129477914 stress="0.008795264645495418 0.00011656477790891593 -2.9569974072722832e-05 0.00011656477790891593 0.008634118939168078 6.0141823762087764e-05 -2.9569974072722832e-05 6.0141823762087764e-05 -0.00022290270273621232" free_energy=-162.10200129477914 DFT_energy=-163.46838558 pbc="T T T"
Cu       1.28339881       0.74097065      12.12125812        3       0.00000000       0.00000000       0.00000000       0.00220675       0.00041103       0.12990664       0.01059179       0.00073506       0.27746073
Cu       3.85019642       0.74097065      12.12125812        3       0.00000000       0.00000000       0.00000000      -0.00146444      -0.00030530       0.12628216       0.01071632       0.00071618       0.32170918
Cu       6.41699404       0.74097065      12.12125812        3       0.00000000       0.00000000       0.00000000      -0.00069660      -0.00314441       0.12278106      -0.01872692      -0.00973525       0.24436086
Cu       0.00000000       2.96388259      12.12125812        3       0.00000000       0.00000000       0.00000000       0.00213822       0.00284214       0.12358441       0.02803205      -0.02301784       0.26800471
Cu       2.56679762       2.96388259      12.12125812        3       0.00000000       0.00000000       0.00000000      -0.00084266       0.00010888       0.12519778       0.01709977       0.01687817       0.29154130
Cu       5.13359523       2.96388259      12.12125812        3       0.00000000       0.00000000       0.00000000      -0.00187751       0.00377398       0.12944610      -0.04270023      -0.01608203       0.24861301
Cu       1.28339881       5.18679453      12.12125812        3       0.00000000       0.00000000       0.00000000       0.00068372      -0.00121997       0.12278985       0.02791457      -0.00833352       0.27300717
Cu       3.85019642       5.18679453      12.12125812        3       0.00000000       0.00000000       0.00000000      -0.00008429      -0.00004677       0.12208298      -0.00873467      -0.03913794       0.30749475
Cu       6.41699404       5.18679453      12.12125812        3       0.00000000       0.00000000       0.00000000      -0.00060268      -0.00091558       0.12726778      -0.00343936       0.00613155       0.24928544
Cu       0.00000000       7.40970647      12.12125812        3       0.00000000       0.00000000       0.00000000       0.00013774      -0.00145973       0.12761299       0.01167730      -0.00837907       0.35929878
Cu       2.56679762       7.40970647      12.12125812        3       0.00000000       0.00000000       0.00000000       0.00097586      -0.00018748       0.12755945      -0.00957758      -0.01875666       0.32682452
Cu       5.13359523       7.40970647      12.12125812        3       0.00000000       0.00000000       0.00000000      -0.00082412       0.00025215       0.12463986       0.00715861       0.00606344       0.34012291
Cu       0.00000000       1.48194129      14.24251623        2       0.00000000       0.00000000       0.00000000      -0.02030762       0.00727762      -0.24248339       0.07213018      -0.02964996      -0.37639938
Cu       2.56679762       1.48194129      14.24251623        2       0.00000000       0.00000000       0.00000000       0.00108271      -0.01273597      -0.32219477      -0.13785684       0.02063107      -0.24482014
Cu       5.13359523       1.48194129      14.24251623        2       0.00000000       0.00000000       0.00000000       0.03444356       0.00267876      -0.29030559      -0.05590970      -0.02390328      -0.35237813
Cu       1.28339881       3.70485324      14.24251623        2       0.00000000       0.00000000       0.00000000      -0.01531833      -0.04425246      -0.32345571      -0.04285236      -0.05310489      -0.29292090
Cu       3.85019642       3.70485324      14.24251623        2       0.00000000       0.00000000       0.00000000       0.08307649       0.01020870      -0.16097276       0.11107420       0.06136600      -0.12227452
Cu       6.41699404       3.70485324      14.24251623        2       0.00000000       0.00000000       0.00000000      -0.09704921       0.03547827      -0.14569641      -0.16838299       0.14071077      -0.49985594
Cu       0.00000000       5.92776518      14.24251623        2       0.00000000       0.00000000       0.00000000      -0.01104711      -0.00976909      -0.29403129      -0.02310798      -0.08221383      -0.22316508
Cu       2.56679762       5.92776518      14.24251623        2       0.00000000       0.00000000       0.00000000      -0.00081523       0.01057973      -0.31444962      -0.02735787      -0.00071375      -0.34796444
Cu       5.13359523       5.92776518      14.24251623        2       0.00000000       0.00000000       0.00000000       0.00987762      -0.04032440      -0.21918202      -0.01061514      -0.15626036      -0.11036225
Cu       1.28339881       8.15067712      14.24251623        2       0.00000000       0.00000000       0.00000000       0.00098262      -0.00171533      -0.28404401       0.00858916      -0.00577032      -0.34113418
Cu       3.85019642       8.15067712      14.24251623        2       0.00000000       0.00000000       0.00000000      -0.00393883       0.02323252      -0.31659574      -0.04164093      -0.03929246      -0.33089949
Cu       6.41699404       8.15067712      14.24251623        2       0.00000000       0.00000000       0.00000000       0.01517658       0.03094903      -0.29891898      -0.03938665       0.01806222      -0.36402527
Cu       7.67890299       8.86738987      16.26793961        1       0.01332524      -0.01140161       0.13488859       0.00357473      -0.00517264       0.12980999      -0.01621442       0.00313879       0.00334662
Cu       2.53815406       8.88134491      16.28436754        1       0.01427854      -0.01058175       0.13304623      -0.00283947      -0.00082853       0.13586750      -0.00008391       0.03021159      -0.00887296
Cu       5.10184297       8.88475143      16.27954744        1       0.00510243      -0.01013322       0.12957150      -0.00531873      -0.00623657       0.12771085       0.06373716       0.06749269      -0.00112668
Cu       1.26471123       2.20794391      16.32062448        1       0.03493430      -0.01034300       0.09192850       0.00487888       0.00102155       0.12634010       0.18032561      -0.12593260      -0.15692989
Cu       3.79211652       2.20668515      16.26872924        1       0.02051130      -0.01155230       0.11927014      -0.00389234       0.00212423       0.13265762       0.02534440      -0.02882847      -0.06239953
Cu       6.37846244       2.20718320      16.22145704        1       0.04888020      -0.01828046       0.13733641      -0.00659331       0.01255436       0.13823323       0.02131647      -0.08791188       0.01976999
Cu      -0.04037057       4.44256031      16.27587527        1       0.04919039      -0.02575185       0.13248433      -0.00088954       0.00561881       0.13429531       0.05590202       0.01986569       0.02420601
Cu       2.53615548       4.45332759      16.26885376        1       0.02538550       0.00335790       0.13073539      -0.00422276       0.00783545       0.13114736      -0.00009954       0.03024927      -0.03275893
Cu       5.05665809       4.46792662      16.38102376        1       0.02760988      -0.01194050       0.22305795       0.01365412      -0.02346501       0.18657272      -0.14523749       0.10391225      -0.28798126
Cu       1.26075152       6.66498703      16.27905151        1       0.01213323       0.00656263       0.13128195      -0.00130981       0.00727979       0.13847007      -0.04584411      -0.02910918       0.00024464
Cu       3.82143653       6.67545975      16.28342789        1       0.00624529       0.00192897       0.13369147      -0.00259613       0.00451702       0.13564729       0.00777710       0.03412827      -0.01052869
Cu       6.38629569       6.68184934      16.27394739        1       0.01209526       0.00412016       0.12286371      -0.00278399       0.00813879       0.13035594       0.03221825       0.06775144      -0.03277838
O        7.89917533       2.74460308      18.55880776        0      -0.00902195       0.03291098       0.16970504       0.01087181      -0.01954379       0.02068951      -0.44079280      -0.25801717      -0.03988342
C        6.86522102       3.35932079      17.83051529        0       0.08842328      -0.00215577       0.06170699      -0.02172752       0.03699359       0.01777304       0.20013612      -0.37436909       0.13283444
H        7.49105441       2.20028217      19.26739623        0      -0.05892849       0.06987958       0.15643997       0.00833522      -0.01364935      -0.01101744       0.31568214       0.61020944       0.16802350
O        5.87295462       3.84068251      18.42179618        0       0.01159078       0.06937707      -0.11726062       0.01494562      -0.02890404       0.02862615       0.07113826       0.18026563       0.38331090
40
Lattice="7.700392847121503 0.0 0.0 0.0 8.891647766302935 0.0 0.0 0.0 26.3637743517507" Properties=species:S:1:pos:R:3:tags:I:1:MACE_forces:R:3:forces:R:3:DFT_forces:R:3 method=neb MACE_energy=-161.94031996652424 energy=-162.10200129477914 stress="0.008795264645495418 0.00011656477790891593 -2.9569974072722832e-05 0.00011656477790891593 0.008634118939168078 6.0141823762087764e-05 -2.9569974072722832e-05 6.0141823762087764e-05 -0.00022290270273621232" free_energy=-162.10200129477914 DFT_energy=-163.50059528 pbc="T T T"
Cu       1.28339881       0.74097065      12.12125812        3       0.00000000       0.00000000       0.00000000       0.00220675       0.00041103       0.12990664       0.01099795      -0.00036362       0.27623338
Cu       3.85019642       0.74097065      12.12125812        3       0.00000000       0.00000000       0.00000000      -0.00146444      -0.00030530       0.12628216       0.01080781       0.00129832       0.31749838
Cu       6.41699404       0.74097065      12.12125812        3       0.00000000       0.00000000       0.00000000      -0.00069660      -0.00314441       0.12278106      -0.01862711      -0.01251884       0.24418895
Cu       0.00000000       2.96388259      12.12125812        3       0.00000000       0.00000000       0.00000000       0.00213822       0.00284214       0.12358441       0.02816478      -0.02184225       0.27123701
Cu       2.56679762       2.96388259      12.12125812        3       0.00000000       0.00000000       0.00000000      -0.00084266       0.00010888       0.12519778       0.01674679       0.01651129       0.29366029
Cu       5.13359523       2.96388259      12.12125812        3       0.00000000       0.00000000       0.00000000      -0.00187751       0.00377398       0.12944610      -0.04329583      -0.01817505       0.24881592
Cu       1.28339881       5.18679453      12.12125812        3       0.00000000       0.00000000       0.00000000       0.00068372      -0.00121997       0.12278985       0.02797320      -0.00833881       0.27723923
Cu       3.85019642       5.18679453      12.12125812        3       0.00000000       0.00000000       0.00000000      -0.00008429      -0.00004677       0.12208298      -0.00960492      -0.03812137       0.30632858
Cu       6.41699404       5.18679453      12.12125812        3       0.00000000       0.00000000       0.00000000      -0.00060268      -0.00091558       0.12726778      -0.00141972       0.00838457       0.24767851
Cu       0.00000000       7.40970647      12.12125812        3       0.00000000       0.00000000       0.00000000       0.00013774      -0.00145973       0.12761299       0.01000513      -0.00840274       0.35974729
Cu       2.56679762       7.40970647      12.12125812        3       0.00000000       0.00000000       0.00000000       0.00097586      -0.00018748       0.12755945      -0.00950089      -0.01887422       0.32559524
Cu       5.13359523       7.40970647      12.12125812        3       0.00000000       0.00000000       0.00000000      -0.00082412       0.00025215       0.12463986       0.01073757       0.00590447       0.33918912
Cu       0.00000000       1.48194129      14.24251623        2       0.00000000       0.00000000       0.00000000      -0.02030762       0.00727762      -0.24248339       0.06270146      -0.05094010      -0.41465890
Cu       2.56679762       1.48194129      14.24251623        2       0.00000000       0.00000000       0.00000000       0.00108271      -0.01273597      -0.32219477      -0.11047108       0.00040840      -0.28563790
Cu       5.13359523       1.48194129      14.24251623        2       0.00000000       0.00000000       0.00000000       0.03444356       0.00267876      -0.29030559      -0.03232367      -0.01746949      -0.33528076
Cu       1.28339881       3.70485324      14.24251623        2       0.00000000       0.00000000       0.00000000      -0.01531833      -0.04425246      -0.32345571      -0.04926298      -0.03005312      -0.31505950
Cu       3.85019642       3.70485324      14.24251623        2       0.00000000       0.00000000       0.00000000       0.08307649       0.01020870      -0.16097276       0.11624706       0.06967368      -0.11145640
Cu       6.41699404       3.70485324      14.24251623        2       0.00000000       0.00000000       0.00000000      -0.09704921       0.03547827      -0.14569641      -0.16778719       0.14144693      -0.45445029
Cu       0.00000000       5.92776518      14.24251623        2       0.00000000       0.00000000       0.00000000      -0.01104711      -0.00976909      -0.29403129      -0.01993320      -0.11338189      -0.19043039
Cu       2.56679762       5.92776518      14.24251623        2       0.00000000       0.00000000       0.00000000      -0.00081523       0.01057973      -0.31444962      -0.02542475      -0.00766445      -0.34131283
Cu       5.13359523       5.92776518      14.24251623        2       0.00000000       0.00000000       0.00000000       0.00987762      -0.04032440      -0.21918202      -0.01446380      -0.17159526      -0.09901406
Cu       1.28339881       8.15067712      14.24251623        2       0.00000000       0.00000000       0.00000000       0.00098262      -0.00171533      -0.28404401       0.00583935      -0.01284475      -0.33461424
Cu       3.85019642       8.15067712      14.24251623        2       0.00000000       0.00000000       0.00000000      -0.00393883       0.02323252      -0.31659574      -0.03628953      -0.03758080      -0.33297053
Cu       6.41699404       8.15067712      14.24251623        2       0.00000000       0.00000000       0.00000000       0.01517658       0.03094903      -0.29891898      -0.02837911       0.01456335      -0.35374038
Cu       7.68317270       8.86454748      16.27252907        1       0.01564293      -0.01132182       0.13318069       0.00357473      -0.00517264       0.12980999      -0.01653223      -0.00740449      -0.01342960
Cu       2.54113322       8.87507930      16.28434133        1       0.01655207      -0.01066935       0.13404404      -0.00283947      -0.00082853       0.13586750      -0.00104776       0.04198344      -0.00446168
Cu       5.10622847       8.88037193      16.27966777        1       0.00548417      -0.00969605       0.12992180      -0.00531873      -0.00623657       0.12771085       0.06306715       0.06485850      -0.00633661
Cu       1.27428001       2.20192533      16.29904695        1       0.03272594      -0.01056149       0.10123909       0.00487888       0.00102155       0.12634010       0.16127783      -0.11086464      -0.10951155
Cu       3.79891187       2.19833691      16.26476325        1       0.01843952      -0.00807150       0.12369959      -0.00389234       0.00212423       0.13265762       0.02097295      -0.02134347      -0.04501010
Cu       6.39646071       2.19716411      16.22616220        1       0.04427481      -0.00971812       0.15242996      -0.00659331       0.01255436       0.13823323      -0.01300566      -0.08525475       0.00905332
Cu      -0.03528113       4.42273896      16.28987436        1       0.06183779      -0.01091215       0.11791232      -0.00088954       0.00561881       0.13429531       0.06502477       0.05129374      -0.01741506
Cu       2.53276609       4.44792397      16.27122855        1       0.02431955       0.00315700       0.13057401      -0.00422276       0.00783545       0.13114736       0.00343628       0.03351740      -0.04473876
Cu       5.04883442       4.46673137      16.38834573        1       0.03250590      -0.01237484       0.21590001       0.01365412      -0.02346501       0.18657272      -0.13765868       0.11108106      -0.32843945
Cu       1.26068443       6.65906817      16.27928750        1       0.00869167       0.00221758       0.13174473      -0.00130981       0.00727979       0.13847007      -0.04727271      -0.03431412      -0.00066273
Cu       3.82189695       6.67324353      16.28292166        1       0.00516793       0.00097645       0.13211803      -0.00259613       0.00451702       0.13564729       0.00315234       0.03505269      -0.01683880
Cu       6.39051227       6.67586359      16.27169817        1       0.01244199       0.00619519       0.12239105      -0.00278399       0.00813879       0.13035594       0.03124358       0.06347602      -0.03047697
O        7.81836774       2.76226771      18.63547935        0      -0.01690971       0.03817841       0.15834729       0.01087181      -0.01954379       0.02068951      -0.44484989      -0.27342535      -0.10287661
C        6.83733023       3.35771914      17.84148647        0       0.08377272      -0.00748976       0.05252930      -0.02172752       0.03699359       0.01777304       0.24208028      -0.40112221       0.15517518
H        7.37824885       2.26885966      19.36256486        0      -0.08191640       0.09108511       0.14139389       0.00833522      -0.01364935      -0.01101744       0.30812903       0.59081163       0.26960626
O        5.81078592       3.85824588      18.37015483        0       0.00246618       0.08327533      -0.09289541       0.01494562      -0.02890404       0.02862615       0.02854537       0.25163031       0.34757744
40
Lattice="7.700392847121503 0.0 0.0 0.0 8.891647766302935 0.0 0.0 0.0 26.3637743517507" Properties=species:S:1:pos:R:3:tags:I:1:MACE_forces:R:3:forces:R:3:DFT_forces:R:3 method=neb MACE_energy=-161.99060618033502 energy=-162.10200129477914 stress="0.008795264645495418 0.00011656477790891593 -2.9569974072722832e-05 0.00011656477790891593 0.008634118939168078 6.0141823762087764e-05 -2.9569974072722832e-05 6.0141823762087764e-05 -0.00022290270273621232" free_energy=-162.10200129477914 DFT_energy=-163.55796664 pbc="T T T"
Cu       1.28339881       0.74097065      12.12125812        3       0.00000000       0.00000000       0.00000000       0.00220675       0.00041103       0.12990664       0.01151553      -0.00045215       0.27394608
Cu       3.85019642       0.74097065      12.12125812        3       0.00000000       0.00000000       0.00000000      -0.00146444      -0.00030530       0.12628216       0.00980674       0.00302808       0.31522091
Cu       6.41699404       0.74097065      12.12125812        3       0.00000000       0.00000000       0.00000000      -0.00069660      -0.00314441       0.12278106      -0.01845851      -0.01250728       0.24157105
Cu       0.00000000       2.96388259      12.12125812        3       0.00000000       0.00000000       0.00000000       0.00213822       0.00284214       0.12358441       0.02848804      -0.01828032       0.27222276
Cu       2.56679762       2.96388259      12.12125812        3       0.00000000       0.00000000       0.00000000      -0.00084266       0.00010888       0.12519778       0.01715399       0.01777199       0.29093037
Cu       5.13359523       2.96388259      12.12125812        3       0.00000000       0.00000000       0.00000000      -0.00187751       0.00377398       0.12944610      -0.04454770      -0.01847900       0.24494183
Cu       1.28339881       5.18679453      12.12125812        3       0.00000000       0.00000000       0.00000000       0.00068372      -0.00121997       0.12278985       0.02636667      -0.00861080       0.27928563
Cu       3.85019642       5.18679453      12.12125812        3       0.00000000       0.00000000       0.00000000      -0.00008429      -0.00004677       0.12208298      -0.01047406      -0.03660881       0.29987636
Cu       6.41699404       5.18679453      12.12125812        3       0.00000000       0.00000000       0.00000000      -0.00060268      -0.00091558       0.12726778       0.00004394       0.00975139       0.24447170
Cu       0.00000000       7.40970647      12.12125812        3       0.00000000       0.00000000       0.00000000       0.00013774      -0.00145973       0.12761299       0.00905563      -0.00810936       0.36107035
Cu       2.56679762       7.40970647      12.12125812        3       0.00000000       0.00000000       0.00000000       0.00097586      -0.00018748       0.12755945      -0.00879171      -0.01666520       0.32538996
Cu       5.13359523       7.40970647      12.12125812        3       0.00000000       0.00000000       0.00000000      -0.00082412       0.00025215       0.12463986       0.01129524       0.00659830       0.33956132
Cu       0.00000000       1.48194129      14.24251623        2       0.00000000       0.00000000       0.00000000      -0.02030762       0.00727762      -0.24248339       0.06124710      -0.06936989      -0.44033778
Cu       2.56679762       1.48194129      14.24251623        2       0.00000000       0.00000000       0.00000000       0.00108271      -0.01273597      -0.32219477      -0.08617958      -0.01925096      -0.31572160
Cu       5.13359523       1.48194129      14.24251623        2       0.00000000       0.00000000       0.00000000       0.03444356       0.00267876      -0.29030559      -0.00215781      -0.01370555      -0.31311234
Cu       1.28339881       3.70485324      14.24251623        2       0.00000000       0.00000000       0.00000000      -0.01531833      -0.04425246      -0.32345571      -0.05750108      -0.01731709      -0.31822633
Cu       3.85019642       3.70485324      14.24251623        2       0.00000000       0.00000000       0.00000000       0.08307649       0.01020870      -0.16097276       0.11698352       0.06935653      -0.11241208
Cu       6.41699404       3.70485324      14.24251623        2       0.00000000       0.00000000       0.00000000      -0.09704921       0.03547827      -0.14569641      -0.15357520       0.13635793      -0.39767159
Cu       0.00000000       5.92776518      14.24251623        2       0.00000000       0.00000000       0.00000000      -0.01104711      -0.00976909      -0.29403129      -0.01589291      -0.15311351      -0.16210920
Cu       2.56679762       5.92776518      14.24251623        2       0.00000000       0.00000000       0.00000000      -0.00081523       0.01057973      -0.31444962      -0.02305455      -0.01787246      -0.33674597
Cu       5.13359523       5.92776518      14.24251623        2       0.00000000       0.00000000       0.00000000       0.00987762      -0.04032440      -0.21918202      -0.01538189      -0.18107859      -0.10266567
Cu       1.28339881       8.15067712      14.24251623        2       0.00000000       0.00000000       0.00000000       0.00098262      -0.00171533      -0.28404401       0.00890508      -0.02411664      -0.32992420
Cu       3.85019642       8.15067712      14.24251623        2       0.00000000       0.00000000       0.00000000      -0.00393883       0.02323252      -0.31659574      -0.02854555      -0.03943511      -0.33757872
Cu       6.41699404       8.15067712      14.24251623        2       0.00000000       0.00000000       0.00000000       0.01517658       0.03094903      -0.29891898      -0.01659704       0.00804592      -0.34434043
Cu       7.69146899       8.85593909      16.27636362        1       0.01280447      -0.00959851       0.13163815       0.00357473      -0.00517264       0.12980999      -0.01962661      -0.01713401      -0.02487825
Cu       2.54817939       8.86392893      16.28432570        1       0.01174815      -0.00464490       0.13450750      -0.00283947      -0.00082853       0.13586750      -0.01246756       0.05612622       0.00049049
Cu       5.11430561       8.87167569      16.27962548        1       0.00319976      -0.00763689       0.13050709      -0.00531873      -0.00623657       0.12771085       0.05520426       0.06334985      -0.00964235
Cu       1.28654706       2.19103304      16.28693897        1       0.02275963      -0.00768447       0.12145185       0.00487888       0.00102155       0.12634010       0.15750524      -0.10072859      -0.08214745
Cu       3.80916453       2.18667546      16.26169832        1       0.01156072      -0.00560004       0.12460289      -0.00389234       0.00212423       0.13265762       0.00786685      -0.01434984      -0.02967626
Cu       6.41802914       2.18292114      16.23331573        1       0.02607513      -0.00288344       0.14790724      -0.00659331       0.01255436       0.13823323      -0.04591109      -0.07787961      -0.00658809
Cu      -0.02425990       4.39557535      16.30949069        1       0.03700665      -0.01137711       0.13418512      -0.00088954       0.00561881       0.13429531       0.04174620       0.07756110      -0.01886961
Cu       2.53349863       4.43859465      16.27360283        1       0.01973752       0.00341495       0.12825438      -0.00422276       0.00783545       0.13114736       0.00145900       0.03465728      -0.05683053
Cu       5.04679311       4.46192101      16.38690251        1       0.02611764      -0.00530505       0.17440391       0.01365412      -0.02346501       0.18657272      -0.12439835       0.11522284      -0.34948124
Cu       1.26207591       6.64703292      16.27983314        1       0.01149534       0.00577676       0.13214372      -0.00130981       0.00727979       0.13847007      -0.04444537      -0.03309548       0.00035378
Cu       3.82510188       6.66630618      16.28190035        1       0.00224193       0.00689743       0.13243382      -0.00259613       0.00451702       0.13564729      -0.00275386       0.04158530      -0.02050168
Cu       6.39786645       6.66407114      16.26940297        1       0.01088071       0.01241785       0.12461456      -0.00278399       0.00813879       0.13035594       0.02693803       0.06524612      -0.02474369
O        7.72240989       2.75015312      18.71555938        0      -0.01731917       0.02928403       0.10761957       0.01087181      -0.01954379       0.02068951      -0.44179149      -0.26918986      -0.15414750
C        6.80449629       3.33921212      17.86029423        0       0.05060254       0.03067035       0.06320107      -0.02172752       0.03699359       0.01777304       0.31716326      -0.40220088       0.13818593
H        7.24081233       2.34802223      19.47348767        0      -0.06322757       0.11036003       0.10616474       0.00833522      -0.01364935      -0.01101744       0.24316152       0.55469368       0.39307596
O        5.75277369       3.86159784      18.33084106        0       0.03063305       0.08596637      -0.05464129       0.01494562      -0.02890404       0.02862615       0.02064609       0.31019845       0.26775808
40
Lattice="7.700392847121503 0.0 0.0 0.0 8.891647766302935 0.0 0.0 0.0 26.3637743517507" Properties=species:S:1:pos:R:3:tags:I:1:MACE_forces:R:3:forces:R:3:DFT_forces:R:3 method=neb MACE_energy=-162.0200073791353 energy=-162.10200129477914 stress="0.008795264645495418 0.00011656477790891593 -2.9569974072722832e-05 0.00011656477790891593 0.008634118939168078 6.0141823762087764e-05 -2.9569974072722832e-05 6.0141823762087764e-05 -0.00022290270273621232" free_energy=-162.10200129477914 DFT_energy=-163.64142154 pbc="T T T"
Cu       1.28339881       0.74097065      12.12125812        3       0.00000000       0.00000000       0.00000000       0.00220675       0.00041103       0.12990664       0.01365561       0.00100683       0.27365986
Cu       3.85019642       0.74097065      12.12125812        3       0.00000000       0.00000000       0.00000000      -0.00146444      -0.00030530       0.12628216       0.00768024       0.00661390       0.31286673
Cu       6.41699404       0.74097065      12.12125812        3       0.00000000       0.00000000       0.00000000      -0.00069660      -0.00314441       0.12278106      -0.01800451      -0.01325615       0.23951383
Cu       0.00000000       2.96388259      12.12125812        3       0.00000000       0.00000000       0.00000000       0.00213822       0.00284214       0.12358441       0.03162950      -0.01388493       0.27383325
Cu       2.56679762       2.96388259      12.12125812        3       0.00000000       0.00000000       0.00000000      -0.00084266       0.00010888       0.12519778       0.01711624       0.01590279       0.28944093
Cu       5.13359523       2.96388259      12.12125812        3       0.00000000       0.00000000       0.00000000      -0.00187751       0.00377398       0.12944610      -0.04743709      -0.01961382       0.24090103
Cu       1.28339881       5.18679453      12.12125812        3       0.00000000       0.00000000       0.00000000       0.00068372      -0.00121997       0.12278985       0.02387508      -0.00987529       0.28190081
Cu       3.85019642       5.18679453      12.12125812        3       0.00000000       0.00000000       0.00000000      -0.00008429      -0.00004677       0.12208298      -0.01080871      -0.03447443       0.29475965
Cu       6.41699404       5.18679453      12.12125812        3       0.00000000       0.00000000       0.00000000      -0.00060268      -0.00091558       0.12726778       0.00286377       0.01211919       0.24389821
Cu       0.00000000       7.40970647      12.12125812        3       0.00000000       0.00000000       0.00000000       0.00013774      -0.00145973       0.12761299       0.00766705      -0.01170385       0.36334232
Cu       2.56679762       7.40970647      12.12125812        3       0.00000000       0.00000000       0.00000000       0.00097586      -0.00018748       0.12755945      -0.00730778      -0.01525510       0.32432742
Cu       5.13359523       7.40970647      12.12125812        3       0.00000000       0.00000000       0.00000000      -0.00082412       0.00025215       0.12463986       0.01221203       0.00498221       0.34272359
Cu       0.00000000       1.48194129      14.24251623        2       0.00000000       0.00000000       0.00000000      -0.02030762       0.00727762      -0.24248339       0.05433820      -0.07324936      -0.44433312
Cu       2.56679762       1.48194129      14.24251623        2       0.00000000       0.00000000       0.00000000       0.00108271      -0.01273597      -0.32219477      -0.08467990      -0.02962950      -0.32501958
Cu       5.13359523       1.48194129      14.24251623        2       0.00000000       0.00000000       0.00000000       0.03444356       0.00267876      -0.29030559      -0.00232131      -0.01882313      -0.31060348
Cu       1.28339881       3.70485324      14.24251623        2       0.00000000       0.00000000       0.00000000      -0.01531833      -0.04425246      -0.32345571      -0.08621625      -0.00831330      -0.28489844
Cu       3.85019642       3.70485324      14.24251623        2       0.00000000       0.00000000       0.00000000       0.08307649       0.01020870      -0.16097276       0.10837346       0.07270292      -0.11490382
Cu       6.41699404       3.70485324      14.24251623        2       0.00000000       0.00000000       0.00000000      -0.09704921       0.03547827      -0.14569641      -0.13727540       0.14526136      -0.36695421
Cu       0.00000000       5.92776518      14.24251623        2       0.00000000       0.00000000       0.00000000      -0.01104711      -0.00976909      -0.29403129      -0.02177823      -0.18726729      -0.12662210
Cu       2.56679762       5.92776518      14.24251623        2       0.00000000       0.00000000       0.00000000      -0.00081523       0.01057973      -0.31444962      -0.02535251      -0.02035098      -0.33425022
Cu       5.13359523       5.92776518      14.24251623        2       0.00000000       0.00000000       0.00000000       0.00987762      -0.04032440      -0.21918202      -0.01923922      -0.17819064      -0.10762035
Cu       1.28339881       8.15067712      14.24251623        2       0.00000000       0.00000000       0.00000000       0.00098262      -0.00171533      -0.28404401       0.00826290      -0.03477025      -0.32486111
Cu       3.85019642       8.15067712      14.24251623        2       0.00000000       0.00000000       0.00000000      -0.00393883       0.02323252      -0.31659574      -0.03082945      -0.03872655      -0.34249508
Cu       6.41699404       8.15067712      14.24251623        2       0.00000000       0.00000000       0.00000000       0.01517658       0.03094903      -0.29891898      -0.01742342       0.00477456      -0.33740049
Cu       7.69064177       8.85229966      16.27607663        1       0.01240902      -0.01324038       0.13275027       0.00357473      -0.00517264       0.12980999      -0.01583393      -0.02459427      -0.02264912
Cu       2.54607246       8.86114995      16.28412127        1       0.00975383      -0.00861796       0.13423029      -0.00283947      -0.00082853       0.13586750      -0.01350577       0.05329626       0.00400899
Cu       5.11295699       8.86786024      16.27976648        1       0.00299855      -0.01016722       0.12970496      -0.00531873      -0.00623657       0.12771085       0.04818080       0.05247417      -0.01630959
Cu       1.28337238       2.18764341      16.28539840        1       0.02167697      -0.01261541       0.12815451       0.00487888       0.00102155       0.12634010       0.17559835      -0.10263799      -0.10547969
Cu       3.80563980       2.18403014      16.26041402        1       0.01034390      -0.00975782       0.12436791      -0.00389234       0.00212423       0.13265762       0.00345527      -0.01843594      -0.02597930
Cu       6.41450902       2.17697717      16.23276808        1       0.02509081      -0.00540385       0.14597309      -0.00659331       0.01255436       0.13823323      -0.04264677      -0.07239068      -0.01238123
Cu      -0.03425268       4.36992347      16.33845303        1       0.03677911      -0.00158526       0.12099642      -0.00088954       0.00561881       0.13429531       0.07437565       0.12637643      -0.06939007
Cu       2.52395174       4.43570882      16.27486391        1       0.01887474       0.00123432       0.12746644      -0.00422276       0.00783545       0.13114736       0.00358607       0.02990931      -0.05887413
Cu       5.03924265       4.46386751      16.38105689        1       0.01985129      -0.00623649       0.17005991       0.01365412      -0.02346501       0.18657272      -0.12027310       0.11881826      -0.35080439
Cu       1.25631521       6.63890392      16.28088684        1       0.01194311       0.00487675       0.13194038      -0.00130981       0.00727979       0.13847007      -0.04162802      -0.03264548       0.00160069
Cu       3.82085923       6.66555628      16.28140517        1       0.00143361       0.00576742       0.13193161      -0.00259613       0.00451702       0.13564729      -0.00190942       0.04144370      -0.02250318
Cu       6.39847036       6.65801305      16.26904923        1       0.00783840       0.01031852       0.12450499      -0.00278399       0.00813879       0.13035594       0.02203139       0.05851833      -0.02072356
O        7.58954298       2.66218629      18.75688237        0       0.00521701       0.06885214       0.09637168       0.01087181      -0.01954379       0.02068951      -0.39323064      -0.03347647      -0.12611934
C        6.73487730       3.29972943      17.88274925        0       0.06205795       0.05128719       0.05396393      -0.02172752       0.03699359       0.01777304       0.39298962      -0.32737406       0.11773268
H        7.11604678       2.47940848      19.60040044        0      -0.04675829       0.10632862       0.06997649       0.00833522      -0.01364935      -0.01101744       0.13476691       0.32306636       0.48665304
O        5.69260657       3.86612484      18.32915252        0       0.04324953       0.09235171      -0.05025037       0.01494562      -0.02890404       0.02862615      -0.00495667       0.25167288       0.16001259
40
Lattice="7.700392847121503 0.0 0.0 0.0 8.891647766302935 0.0 0.0 0.0 26.3637743517507" Properties=species:S:1:pos:R:3:tags:I:1:MACE_forces:R:3:forces:R:3:DFT_forces:R:3 method=neb MACE_energy=-162.038444533166 energy=-162.10200129477914 stress="0.008795264645495418 0.00011656477790891593 -2.9569974072722832e-05 0.00011656477790891593 0.008634118939168078 6.0141823762087764e-05 -2.9569974072722832e-05 6.0141823762087764e-05 -0.00022290270273621232" free_energy=-162.10200129477914 DFT_energy=-163.68297062 pbc="T T T"
Cu       1.28339881       0.74097065      12.12125812        3       0.00000000       0.00000000       0.00000000       0.00220675       0.00041103       0.12990664       0.01357265       0.00074409       0.27413778
Cu       3.85019642       0.74097065      12.12125812        3       0.00000000       0.00000000       0.00000000      -0.00146444      -0.00030530       0.12628216       0.00758492       0.00547348       0.31239949
Cu       6.41699404       0.74097065      12.12125812        3       0.00000000       0.00000000       0.00000000      -0.00069660      -0.00314441       0.12278106      -0.01891173      -0.01384407       0.23948943
Cu       0.00000000       2.96388259      12.12125812        3       0.00000000       0.00000000       0.00000000       0.00213822       0.00284214       0.12358441       0.03303240      -0.01345808       0.27227130
Cu       2.56679762       2.96388259      12.12125812        3       0.00000000       0.00000000       0.00000000      -0.00084266       0.00010888       0.12519778       0.01480557       0.01658516       0.28927371
Cu       5.13359523       2.96388259      12.12125812        3       0.00000000       0.00000000       0.00000000      -0.00187751       0.00377398       0.12944610      -0.04750362      -0.02055349       0.23697836
Cu       1.28339881       5.18679453      12.12125812        3       0.00000000       0.00000000       0.00000000       0.00068372      -0.00121997       0.12278985       0.02339636      -0.01063965       0.28293134
Cu       3.85019642       5.18679453      12.12125812        3       0.00000000       0.00000000       0.00000000      -0.00008429      -0.00004677       0.12208298      -0.01142271      -0.03333763       0.29083520
Cu       6.41699404       5.18679453      12.12125812        3       0.00000000       0.00000000       0.00000000      -0.00060268      -0.00091558       0.12726778       0.00388742       0.01303515       0.24077217
Cu       0.00000000       7.40970647      12.12125812        3       0.00000000       0.00000000       0.00000000       0.00013774      -0.00145973       0.12761299       0.00779720      -0.01277027       0.36207734
Cu       2.56679762       7.40970647      12.12125812        3       0.00000000       0.00000000       0.00000000       0.00097586      -0.00018748       0.12755945      -0.00743351      -0.01573403       0.32502926
Cu       5.13359523       7.40970647      12.12125812        3       0.00000000       0.00000000       0.00000000      -0.00082412       0.00025215       0.12463986       0.01185949       0.00428083       0.34263479
Cu       0.00000000       1.48194129      14.24251623        2       0.00000000       0.00000000       0.00000000      -0.02030762       0.00727762      -0.24248339       0.04906693      -0.06484335      -0.45607646
Cu       2.56679762       1.48194129      14.24251623        2       0.00000000       0.00000000       0.00000000       0.00108271      -0.01273597      -0.32219477      -0.08921464      -0.02703001      -0.33342997
Cu       5.13359523       1.48194129      14.24251623        2       0.00000000       0.00000000       0.00000000       0.03444356       0.00267876      -0.29030559      -0.00589990      -0.01178878      -0.31586832
Cu       1.28339881       3.70485324      14.24251623        2       0.00000000       0.00000000       0.00000000      -0.01531833      -0.04425246      -0.32345571      -0.08946513      -0.01120710      -0.31236153
Cu       3.85019642       3.70485324      14.24251623        2       0.00000000       0.00000000       0.00000000       0.08307649       0.01020870      -0.16097276       0.09203371       0.07648580      -0.13248213
Cu       6.41699404       3.70485324      14.24251623        2       0.00000000       0.00000000       0.00000000      -0.09704921       0.03547827      -0.14569641      -0.14298491       0.14587468      -0.38057177
Cu       0.00000000       5.92776518      14.24251623        2       0.00000000       0.00000000       0.00000000      -0.01104711      -0.00976909      -0.29403129      -0.02204370      -0.17426491      -0.13478647
Cu       2.56679762       5.92776518      14.24251623        2       0.00000000       0.00000000       0.00000000      -0.00081523       0.01057973      -0.31444962      -0.02188703      -0.01403350      -0.33526816
Cu       5.13359523       5.92776518      14.24251623        2       0.00000000       0.00000000       0.00000000       0.00987762      -0.04032440      -0.21918202      -0.01980567      -0.15984379      -0.11507163
Cu       1.28339881       8.15067712      14.24251623        2       0.00000000       0.00000000       0.00000000       0.00098262      -0.00171533      -0.28404401       0.01402625      -0.02996247      -0.32614385
Cu       3.85019642       8.15067712      14.24251623        2       0.00000000       0.00000000       0.00000000      -0.00393883       0.02323252      -0.31659574      -0.02688747      -0.02585732      -0.34460435
Cu       6.41699404       8.15067712      14.24251623        2       0.00000000       0.00000000       0.00000000       0.01517658       0.03094903      -0.29891898      -0.01292580       0.01599313      -0.34395825
Cu       7.69545697       8.86477524      16.27489235        1       0.00730159      -0.03298514       0.14332717       0.00357473      -0.00517264       0.12980999      -0.01867585      -0.04564691      -0.01233013
Cu       2.54938297       8.86972025      16.28438194        1      -0.00412617      -0.01091499       0.13389175      -0.00283947      -0.00082853       0.13586750      -0.02938939       0.05473186       0.00522394
Cu       5.11805236       8.87728485      16.27982572        1      -0.01954203      -0.02399470       0.13006298      -0.00531873      -0.00623657       0.12771085       0.02273608       0.03715301      -0.01585165
Cu       1.27787541       2.19693948      16.28364860        1       0.03231478      -0.02624780       0.13594840       0.00487888       0.00102155       0.12634010       0.19073907      -0.11039831      -0.10212399
Cu       3.80091937       2.18945046      16.25837090        1       0.01867690      -0.00298676       0.13089750      -0.00389234       0.00212423       0.13265762       0.01048688      -0.01134414      -0.01925558
Cu       6.41237250       2.17962869      16.23228320        1       0.03118194       0.04195583       0.17278690      -0.00659331       0.01255436       0.13823323      -0.03919652      -0.01438572       0.01015873
Cu      -0.03453741       4.38172489      16.33066613        1      -0.01136527      -0.03176660       0.14752585      -0.00088954       0.00561881       0.13429531       0.03226240       0.10782809      -0.05759765
Cu       2.51026517       4.44286548      16.27429336        1       0.05216780       0.00108730       0.13114664      -0.00422276       0.00783545       0.13114736       0.03850627       0.03123213      -0.05625293
Cu       5.01981762       4.48132123      16.36710191        1       0.05855010      -0.02067994       0.17756865       0.01365412      -0.02346501       0.18657272      -0.06136303       0.09907594      -0.33971850
Cu       1.25591545       6.64741464      16.28087004        1       0.01144662       0.01468082       0.13349968      -0.00130981       0.00727979       0.13847007      -0.04359236      -0.02665269       0.00500233
Cu       3.81753981       6.67852757      16.28084330        1       0.00124510       0.00570742       0.13150609      -0.00259613       0.00451702       0.13564729      -0.00203661       0.04239723      -0.02507527
Cu       6.40190599       6.67214664      16.26775997        1      -0.00893259      -0.00598136       0.12336811      -0.00278399       0.00813879       0.13035594       0.00406525       0.03166201      -0.01985281
O        7.53678851       2.69154687      18.76558385        0       0.00562349       0.08468751       0.10393435       0.01087181      -0.01954379       0.02068951      -0.32596254       0.10547169      -0.08610453
C        6.70752109       3.32455365      17.86994452        0       0.05602613       0.05168051       0.06611323      -0.02172752       0.03699359       0.01777304       0.45394783      -0.28070562       0.11917020
H        7.09198281       2.65803743      19.64329531        0      -0.01909163       0.06464698       0.07459193       0.00833522      -0.01364935      -0.01101744       0.03350859       0.17980746       0.52858024
O        5.66651130       3.91161419      18.30033045        0       0.04980420       0.08589148      -0.05086708       0.01494562      -0.02890404       0.02862615      -0.02071314       0.16047012       0.12782032
40
Lattice="7.700392847121503 0.0 0.0 0.0 8.891647766302935 0.0 0.0 0.0 26.3637743517507" Properties=species:S:1:pos:R:3:tags:I:1:MACE_forces:R:3:forces:R:3:DFT_forces:R:3 method=neb MACE_energy=-162.0698885711714 energy=-162.10200129477914 stress="0.008795264645495418 0.00011656477790891593 -2.9569974072722832e-05 0.00011656477790891593 0.008634118939168078 6.0141823762087764e-05 -2.9569974072722832e-05 6.0141823762087764e-05 -0.00022290270273621232" free_energy=-162.10200129477914 DFT_energy=-163.71618375 pbc="T T T"
Cu       1.28339881       0.74097065      12.12125812        3       0.00000000       0.00000000       0.00000000       0.00220675       0.00041103       0.12990664       0.01302512      -0.00024016       0.27411335
Cu       3.85019642       0.74097065      12.12125812        3       0.00000000       0.00000000       0.00000000      -0.00146444      -0.00030530       0.12628216       0.00751033       0.00514644       0.31266237
Cu       6.41699404       0.74097065      12.12125812        3       0.00000000       0.00000000       0.00000000      -0.00069660      -0.00314441       0.12278106      -0.01953585      -0.01428969       0.24503266
Cu       0.00000000       2.96388259      12.12125812        3       0.00000000       0.00000000       0.00000000       0.00213822       0.00284214       0.12358441       0.03258590      -0.01493121       0.27164236
Cu       2.56679762       2.96388259      12.12125812        3       0.00000000       0.00000000       0.00000000      -0.00084266       0.00010888       0.12519778       0.01352097       0.01799148       0.28792718
Cu       5.13359523       2.96388259      12.12125812        3       0.00000000       0.00000000       0.00000000      -0.00187751       0.00377398       0.12944610      -0.04731553      -0.02274125       0.23205598
Cu       1.28339881       5.18679453      12.12125812        3       0.00000000       0.00000000       0.00000000       0.00068372      -0.00121997       0.12278985       0.02395797      -0.01002275       0.28343561
Cu       3.85019642       5.18679453      12.12125812        3       0.00000000       0.00000000       0.00000000      -0.00008429      -0.00004677       0.12208298      -0.01294338      -0.03271025       0.28512241
Cu       6.41699404       5.18679453      12.12125812        3       0.00000000       0.00000000       0.00000000      -0.00060268      -0.00091558       0.12726778       0.00367853       0.01515512       0.23654141
Cu       0.00000000       7.40970647      12.12125812        3       0.00000000       0.00000000       0.00000000       0.00013774      -0.00145973       0.12761299       0.00830119      -0.01243790       0.35995878
Cu       2.56679762       7.40970647      12.12125812        3       0.00000000       0.00000000       0.00000000       0.00097586      -0.00018748       0.12755945      -0.00871948      -0.01737700       0.32376974
Cu       5.13359523       7.40970647      12.12125812        3       0.00000000       0.00000000       0.00000000      -0.00082412       0.00025215       0.12463986       0.01148352       0.00320505       0.33971946
Cu       0.00000000       1.48194129      14.24251623        2       0.00000000       0.00000000       0.00000000      -0.02030762       0.00727762      -0.24248339       0.02617334      -0.04312831      -0.40225833
Cu       2.56679762       1.48194129      14.24251623        2       0.00000000       0.00000000       0.00000000       0.00108271      -0.01273597      -0.32219477      -0.06520284      -0.02037032      -0.33410061
Cu       5.13359523       1.48194129      14.24251623        2       0.00000000       0.00000000       0.00000000       0.03444356       0.00267876      -0.29030559       0.04742507       0.01003325      -0.26830244
Cu       1.28339881       3.70485324      14.24251623        2       0.00000000       0.00000000       0.00000000      -0.01531833      -0.04425246      -0.32345571      -0.08391881      -0.00806232      -0.30662413
Cu       3.85019642       3.70485324      14.24251623        2       0.00000000       0.00000000       0.00000000       0.08307649       0.01020870      -0.16097276       0.09002428       0.07007670      -0.16533808
Cu       6.41699404       3.70485324      14.24251623        2       0.00000000       0.00000000       0.00000000      -0.09704921       0.03547827      -0.14569641      -0.13239589       0.13527957      -0.39929606
Cu       0.00000000       5.92776518      14.24251623        2       0.00000000       0.00000000       0.00000000      -0.01104711      -0.00976909      -0.29403129      -0.01002190      -0.16825477      -0.13507552
Cu       2.56679762       5.92776518      14.24251623        2       0.00000000       0.00000000       0.00000000      -0.00081523       0.01057973      -0.31444962      -0.01294293      -0.01063904      -0.33484574
Cu       5.13359523       5.92776518      14.24251623        2       0.00000000       0.00000000       0.00000000       0.00987762      -0.04032440      -0.21918202      -0.01216206      -0.13367946      -0.15048356
Cu       1.28339881       8.15067712      14.24251623        2       0.00000000       0.00000000       0.00000000       0.00098262      -0.00171533      -0.28404401       0.01713986      -0.02206496      -0.32222891
Cu       3.85019642       8.15067712      14.24251623        2       0.00000000       0.00000000       0.00000000      -0.00393883       0.02323252      -0.31659574      -0.01751106      -0.00986716      -0.35077421
Cu       6.41699404       8.15067712      14.24251623        2       0.00000000       0.00000000       0.00000000       0.01517658       0.03094903      -0.29891898      -0.00165411       0.02745745      -0.35021116
Cu       7.70350885       8.87484967      16.27785129        1      -0.00571737      -0.01004990       0.14010274       0.00357473      -0.00517264       0.12980999      -0.02504815      -0.03073398      -0.02121574
Cu       2.55780818       8.87557712      16.28490167        1      -0.00364432      -0.00618733       0.13222698      -0.00283947      -0.00082853       0.13586750      -0.02686082       0.06245820       0.00703923
Cu       5.12763292       8.88416794      16.27987120        1      -0.00519323       0.00754475       0.12931925      -0.00531873      -0.00623657       0.12771085       0.03756784       0.07184759      -0.01204835
Cu       1.29445752       2.19883333      16.28164553        1       0.00263139      -0.00886604       0.14116157       0.00487888       0.00102155       0.12634010       0.16527651      -0.08594511      -0.09220639
Cu       3.82075095       2.19477711      16.25787283        1      -0.01276990      -0.01070929       0.12853614      -0.00389234       0.00212423       0.13265762      -0.03473761      -0.01965258      -0.01819321
Cu       6.42807740       2.20763275      16.25286805        1       0.01798583      -0.05735131       0.14946567      -0.00659331       0.01255436       0.13823323      -0.05779741      -0.13005577      -0.02385270
Cu      -0.02995384       4.38777197      16.32843197        1       0.08421194       0.02275773       0.10083274      -0.00088954       0.00561881       0.13429531       0.12767329       0.16312657      -0.10794479
Cu       2.52405844       4.44650670      16.27192636        1       0.00250343       0.00315904       0.13441641      -0.00422276       0.00783545       0.13114736      -0.01429486       0.03351003      -0.05591110
Cu       5.03007321       4.49772225      16.34424289        1      -0.00357299      -0.00937540       0.17033536       0.01365412      -0.02346501       0.18657272      -0.11650555       0.09931718      -0.34042111
Cu       1.26651175       6.65401340      16.28074772        1      -0.00296832       0.00602221       0.13168053      -0.00130981       0.00727979       0.13847007      -0.06258524      -0.03360404       0.00332545
Cu       3.82582035       6.69062993      16.27900315        1      -0.01492958       0.00036552       0.13210611      -0.00259613       0.00451702       0.13564729      -0.02462914       0.03226157      -0.02454206
Cu       6.41252576       6.68388307      16.26522438        1      -0.00441876       0.00863081       0.12264449      -0.00278399       0.00813879       0.13035594       0.00644861       0.03265535      -0.01893556
O        7.50500502       2.80424426      18.80340818        0       0.05945499       0.02799718       0.11389311       0.01087181      -0.01954379       0.02068951      -0.23324607       0.07686887      -0.03054795
C        6.69750536       3.40213013      17.87230263        0      -0.01939633       0.03677492       0.16792803      -0.02172752       0.03699359       0.01777304       0.56328303      -0.35282664       0.14625158
H        7.07600955       2.84959017      19.69008516        0      -0.03010007       0.06820584       0.00076490       0.00833522      -0.01364935      -0.01101744      -0.12459607       0.19076261       0.64233143
O        5.64786891       4.00850356      18.26897075        0       0.08821196       0.01448247      -0.00789434       0.01494562      -0.02890404       0.02862615      -0.05045059       0.14648163       0.01442870
40
Lattice="7.700392847121503 0.0 0.0 0.0 8.891647766302935 0.0 0.0 0.0 26.3637743517507" Properties=species:S:1:pos:R:3:tags:I:1:MACE_forces:R:3:forces:R:3:DFT_forces:R:3 method=neb MACE_energy=-162.0936063704059 energy=-162.10200129477914 stress="0.008795264645495418 0.00011656477790891593 -2.9569974072722832e-05 0.00011656477790891593 0.008634118939168078 6.0141823762087764e-05 -2.9569974072722832e-05 6.0141823762087764e-05 -0.00022290270273621232" free_energy=-162.10200129477914 DFT_energy=-163.74232106 pbc="T T T"
Cu       1.28339881       0.74097065      12.12125812        3       0.00000000       0.00000000       0.00000000       0.00220675       0.00041103       0.12990664       0.01347731      -0.00048779       0.27564610
Cu       3.85019642       0.74097065      12.12125812        3       0.00000000       0.00000000       0.00000000      -0.00146444      -0.00030530       0.12628216       0.00810018       0.00606727       0.31403181
Cu       6.41699404       0.74097065      12.12125812        3       0.00000000       0.00000000       0.00000000      -0.00069660      -0.00314441       0.12278106      -0.01969717      -0.01359131       0.25206725
Cu       0.00000000       2.96388259      12.12125812        3       0.00000000       0.00000000       0.00000000       0.00213822       0.00284214       0.12358441       0.03175299      -0.01451673       0.27395008
Cu       2.56679762       2.96388259      12.12125812        3       0.00000000       0.00000000       0.00000000      -0.00084266       0.00010888       0.12519778       0.01481992       0.02076013       0.28855445
Cu       5.13359523       2.96388259      12.12125812        3       0.00000000       0.00000000       0.00000000      -0.00187751       0.00377398       0.12944610      -0.04699531      -0.02210809       0.23190650
Cu       1.28339881       5.18679453      12.12125812        3       0.00000000       0.00000000       0.00000000       0.00068372      -0.00121997       0.12278985       0.02552988      -0.00839653       0.28268181
Cu       3.85019642       5.18679453      12.12125812        3       0.00000000       0.00000000       0.00000000      -0.00008429      -0.00004677       0.12208298      -0.01399266      -0.03207215       0.28208882
Cu       6.41699404       5.18679453      12.12125812        3       0.00000000       0.00000000       0.00000000      -0.00060268      -0.00091558       0.12726778       0.00325259       0.01622172       0.23592951
Cu       0.00000000       7.40970647      12.12125812        3       0.00000000       0.00000000       0.00000000       0.00013774      -0.00145973       0.12761299       0.00949847      -0.01107307       0.35930697
Cu       2.56679762       7.40970647      12.12125812        3       0.00000000       0.00000000       0.00000000       0.00097586      -0.00018748       0.12755945      -0.00963056      -0.01791024       0.32235328
Cu       5.13359523       7.40970647      12.12125812        3       0.00000000       0.00000000       0.00000000      -0.00082412       0.00025215       0.12463986       0.01172541       0.00343320       0.33632068
Cu       0.00000000       1.48194129      14.24251623        2       0.00000000       0.00000000       0.00000000      -0.02030762       0.00727762      -0.24248339       0.00495371      -0.02231310      -0.34449712
Cu       2.56679762       1.48194129      14.24251623        2       0.00000000       0.00000000       0.00000000       0.00108271      -0.01273597      -0.32219477      -0.05872277      -0.01298708      -0.32852580
Cu       5.13359523       1.48194129      14.24251623        2       0.00000000       0.00000000       0.00000000       0.03444356       0.00267876      -0.29030559       0.09243467       0.04199462      -0.21450401
Cu       1.28339881       3.70485324      14.24251623        2       0.00000000       0.00000000       0.00000000      -0.01531833      -0.04425246      -0.32345571      -0.06785740      -0.01844240      -0.31136869
Cu       3.85019642       3.70485324      14.24251623        2       0.00000000       0.00000000       0.00000000       0.08307649       0.01020870      -0.16097276       0.09417696       0.06818083      -0.17040361
Cu       6.41699404       3.70485324      14.24251623        2       0.00000000       0.00000000       0.00000000      -0.09704921       0.03547827      -0.14569641      -0.11410440       0.10545788      -0.32758800
Cu       0.00000000       5.92776518      14.24251623        2       0.00000000       0.00000000       0.00000000      -0.01104711      -0.00976909      -0.29403129      -0.00645890      -0.17037118      -0.13791049
Cu       2.56679762       5.92776518      14.24251623        2       0.00000000       0.00000000       0.00000000      -0.00081523       0.01057973      -0.31444962      -0.01243752      -0.01307149      -0.33138396
Cu       5.13359523       5.92776518      14.24251623        2       0.00000000       0.00000000       0.00000000       0.00987762      -0.04032440      -0.21918202      -0.01316211      -0.12624676      -0.16651762
Cu       1.28339881       8.15067712      14.24251623        2       0.00000000       0.00000000       0.00000000       0.00098262      -0.00171533      -0.28404401       0.01252250      -0.01551656      -0.31720575
Cu       3.85019642       8.15067712      14.24251623        2       0.00000000       0.00000000       0.00000000      -0.00393883       0.02323252      -0.31659574      -0.01211197      -0.00073251      -0.34800288
Cu       6.41699404       8.15067712      14.24251623        2       0.00000000       0.00000000       0.00000000       0.01517658       0.03094903      -0.29891898       0.00260534       0.03680827      -0.35126175
Cu       7.70471903       8.87887539      16.28281736        1       0.00146425      -0.01069400       0.12916506       0.00357473      -0.00517264       0.12980999      -0.01908442      -0.03533659      -0.03579160
Cu       2.55915803       8.87753452      16.28448432        1       0.00283421      -0.00519756       0.13464308      -0.00283947      -0.00082853       0.13586750      -0.02002406       0.06276787       0.01104910
Cu       5.13044010       8.89266266      16.27984897        1      -0.00278760      -0.00810011       0.13057700      -0.00531873      -0.00623657       0.12771085       0.04607984       0.05114596      -0.00619074
Cu       1.30101953       2.19713215      16.28682484        1       0.00637640      -0.00614069       0.12739291       0.00487888       0.00102155       0.12634010       0.16645190      -0.08199810      -0.11134142
Cu       3.82854322       2.19650129      16.25862740        1      -0.00619872      -0.00640307       0.12690956      -0.00389234       0.00212423       0.13265762      -0.02910611      -0.01501334      -0.01711948
Cu       6.44639718       2.21192689      16.28645370        1       0.00320993       0.00162850       0.13060746      -0.00659331       0.01255436       0.13823323      -0.08728611      -0.08787889      -0.09096132
Cu       0.00025271       4.38876077      16.32831467        1       0.00097698       0.00725415       0.11898348      -0.00088954       0.00561881       0.13429531       0.02500981       0.14422891      -0.09757545
Cu       2.53353567       4.44631443      16.27403437        1       0.00868710       0.00509511       0.12722880      -0.00422276       0.00783545       0.13114736      -0.00960266       0.04087789      -0.06699402
Cu       5.03600530       4.49999921      16.33654080        1       0.00595448      -0.00091534       0.14985857       0.01365412      -0.02346501       0.18657272      -0.10856994       0.09651508      -0.35216360
Cu       1.26810113       6.65697644      16.28034295        1       0.00710669       0.01047796       0.13286120      -0.00130981       0.00727979       0.13847007      -0.04691001      -0.02989919       0.00536738
Cu       3.82590102       6.69426905      16.27737428        1      -0.00386796       0.00507390       0.13262418      -0.00259613       0.00451702       0.13564729      -0.01241880       0.03716193      -0.02332112
Cu       6.41556626       6.68941760      16.26087434        1      -0.00172841       0.00810546       0.12916659      -0.00278399       0.00813879       0.13035594       0.00767702       0.02433812      -0.00713919
O        7.49565756       2.89005656      18.86717454        0       0.01903296       0.01916724       0.04478487       0.01087181      -0.01954379       0.02068951      -0.27789149       0.03960573      -0.05862622
C        6.71758614       3.45341473      17.89449959        0       0.00571556       0.00050745       0.06220448      -0.02172752       0.03699359       0.01777304       0.48924190      -0.37505776       0.18463925
H        7.02409848       2.97061449      19.73027115        0       0.03254357       0.03227002       0.02573383       0.00833522      -0.01364935      -0.01101744      -0.09090646       0.19821978       0.54556855
O        5.66713032       4.08420758      18.25223220        0       0.00731702       0.00604351       0.03498040       0.01494562      -0.02890404       0.02862615       0.01766041       0.13123567       0.01493226
40
Lattice="7.700392847121503 0.0 0.0 0.0 8.891647766302935 0.0 0.0 0.0 26.3637743517507" Properties=species:S:1:pos:R:3:tags:I:1:MACE_forces:R:3:forces:R:3:DFT_forces:R:3 method=neb MACE_energy=-162.08548878881672 energy=-162.10200129477914 stress="0.008795264645495418 0.00011656477790891593 -2.9569974072722832e-05 0.00011656477790891593 0.008634118939168078 6.0141823762087764e-05 -2.9569974072722832e-05 6.0141823762087764e-05 -0.00022290270273621232" free_energy=-162.10200129477914 DFT_energy=-163.73364167 pbc="T T T"
Cu       1.28339881       0.74097065      12.12125812        3       0.00000000       0.00000000       0.00000000       0.00220675       0.00041103       0.12990664       0.01321920      -0.00021406       0.27555187
Cu       3.85019642       0.74097065      12.12125812        3       0.00000000       0.00000000       0.00000000      -0.00146444      -0.00030530       0.12628216       0.00711602       0.00604161       0.31380759
Cu       6.41699404       0.74097065      12.12125812        3       0.00000000       0.00000000       0.00000000      -0.00069660      -0.00314441       0.12278106      -0.01921668      -0.01376427       0.25087035
Cu       0.00000000       2.96388259      12.12125812        3       0.00000000       0.00000000       0.00000000       0.00213822       0.00284214       0.12358441       0.03245671      -0.01430743       0.27390286
Cu       2.56679762       2.96388259      12.12125812        3       0.00000000       0.00000000       0.00000000      -0.00084266       0.00010888       0.12519778       0.01425054       0.01971925       0.28826969
Cu       5.13359523       2.96388259      12.12125812        3       0.00000000       0.00000000       0.00000000      -0.00187751       0.00377398       0.12944610      -0.04780147      -0.02243227       0.23149294
Cu       1.28339881       5.18679453      12.12125812        3       0.00000000       0.00000000       0.00000000       0.00068372      -0.00121997       0.12278985       0.02424902      -0.00836053       0.28309438
Cu       3.85019642       5.18679453      12.12125812        3       0.00000000       0.00000000       0.00000000      -0.00008429      -0.00004677       0.12208298      -0.01448147      -0.03175585       0.28159230
Cu       6.41699404       5.18679453      12.12125812        3       0.00000000       0.00000000       0.00000000      -0.00060268      -0.00091558       0.12726778       0.00418265       0.01625001       0.23551568
Cu       0.00000000       7.40970647      12.12125812        3       0.00000000       0.00000000       0.00000000       0.00013774      -0.00145973       0.12761299       0.00896345      -0.01278344       0.35919618
Cu       2.56679762       7.40970647      12.12125812        3       0.00000000       0.00000000       0.00000000       0.00097586      -0.00018748       0.12755945      -0.00934580      -0.01836224       0.32269333
Cu       5.13359523       7.40970647      12.12125812        3       0.00000000       0.00000000       0.00000000      -0.00082412       0.00025215       0.12463986       0.01122008       0.00270690       0.33816805
Cu       0.00000000       1.48194129      14.24251623        2       0.00000000       0.00000000       0.00000000      -0.02030762       0.00727762      -0.24248339       0.00916421      -0.02618948      -0.35145325
Cu       2.56679762       1.48194129      14.24251623        2       0.00000000       0.00000000       0.00000000       0.00108271      -0.01273597      -0.32219477      -0.05737748      -0.01442784      -0.32812764
Cu       5.13359523       1.48194129      14.24251623        2       0.00000000       0.00000000       0.00000000       0.03444356       0.00267876      -0.29030559       0.08525324       0.03525591      -0.22533613
Cu       1.28339881       3.70485324      14.24251623        2       0.00000000       0.00000000       0.00000000      -0.01531833      -0.04425246      -0.32345571      -0.07146135      -0.01574648      -0.30290042
Cu       3.85019642       3.70485324      14.24251623        2       0.00000000       0.00000000       0.00000000       0.08307649       0.01020870      -0.16097276       0.09299040       0.06661280      -0.17357760
Cu       6.41699404       3.70485324      14.24251623        2       0.00000000       0.00000000       0.00000000      -0.09704921       0.03547827      -0.14569641      -0.11303420       0.10984267      -0.33726304
Cu       0.00000000       5.92776518      14.24251623        2       0.00000000       0.00000000       0.00000000      -0.01104711      -0.00976909      -0.29403129      -0.00611914      -0.17044166      -0.13436598
Cu       2.56679762       5.92776518      14.24251623        2       0.00000000       0.00000000       0.00000000      -0.00081523       0.01057973      -0.31444962      -0.01300185      -0.01282819      -0.33196541
Cu       5.13359523       5.92776518      14.24251623        2       0.00000000       0.00000000       0.00000000       0.00987762      -0.04032440      -0.21918202      -0.01190600      -0.12363057      -0.16842977
Cu       1.28339881       8.15067712      14.24251623        2       0.00000000       0.00000000       0.00000000       0.00098262      -0.00171533      -0.28404401       0.01311541      -0.01646482      -0.31688413
Cu       3.85019642       8.15067712      14.24251623        2       0.00000000       0.00000000       0.00000000      -0.00393883       0.02323252      -0.31659574      -0.01251602      -0.00160131      -0.34925171
Cu       6.41699404       8.15067712      14.24251623        2       0.00000000       0.00000000       0.00000000       0.01517658       0.03094903      -0.29891898       0.00272855       0.03677242      -0.34997529
Cu       7.70501831       8.87854738      16.28295932        1       0.00250906      -0.01290222       0.12608046       0.00357473      -0.00517264       0.12980999      -0.01663946      -0.03747846      -0.04003456
Cu       2.55957734       8.87777407      16.28452303        1       0.00166999      -0.00553271       0.13459120      -0.00283947      -0.00082853       0.13586750      -0.02065338       0.06210231       0.01141264
Cu       5.13082376       8.89179711      16.28004193        1      -0.00548809      -0.01159984       0.12994486      -0.00531873      -0.00623657       0.12771085       0.04184585       0.04785834      -0.00802040
Cu       1.30125523       2.19780576      16.28615365        1       0.00511956      -0.00522509       0.12568951       0.00487888       0.00102155       0.12634010       0.16519406      -0.07772003      -0.11009985
Cu       3.82900943       2.19639834      16.25903618        1      -0.01176391      -0.00605478       0.12487857      -0.00389234       0.00212423       0.13265762      -0.03593025      -0.01692158      -0.01992896
Cu       6.44340953       2.20993818      16.28057345        1      -0.00690054       0.00452927       0.12362140      -0.00659331       0.01255436       0.13823323      -0.08482304      -0.07719010      -0.08580940
Cu      -0.00416310       4.38753575      16.33012254        1      -0.01328777      -0.01208893       0.14971617      -0.00088954       0.00561881       0.13429531       0.02560681       0.13352545      -0.07401302
Cu       2.53442056       4.44634730      16.27377239        1      -0.00450397       0.00569789       0.12660161      -0.00422276       0.00783545       0.13114736      -0.02656965       0.03842505      -0.06456628
Cu       5.03766545       4.50169601      16.33467814        1       0.00164936      -0.00512037       0.15827252       0.01365412      -0.02346501       0.18657272      -0.11261968       0.09439276      -0.33996235
Cu       1.26891023       6.65745584      16.28055211        1       0.00272031       0.00211013       0.13251587      -0.00130981       0.00727979       0.13847007      -0.05255288      -0.03769877       0.00621734
Cu       3.82623875       6.69416629      16.27742705        1      -0.00487361       0.00617103       0.13314637      -0.00259613       0.00451702       0.13564729      -0.01243086       0.03775713      -0.02254464
Cu       6.41624487       6.68882944      16.26136660        1      -0.00120170       0.00684491       0.12952321      -0.00278399       0.00813879       0.13035594       0.00766838       0.02617582      -0.00694482
O        7.46801878       2.84874284      18.85539568        0       0.06980442      -0.00873811       0.09739380       0.01087181      -0.01954379       0.02068951      -0.23673663      -0.01209660      -0.02068069
C        6.69219434       3.43255945      17.89497011        0       0.03658912       0.05086377       0.00761143      -0.02172752       0.03699359       0.01777304       0.48764787      -0.39838376       0.17830187
H        6.99747121       2.89498562      19.72103097        0       0.00130455       0.06040235       0.02418954       0.00833522      -0.01364935      -0.01101744      -0.07248126       0.25269014       0.48568395
O        5.65364685       4.07702775      18.25909970        0       0.01508271      -0.00983345       0.03433121       0.01494562      -0.02890404       0.02862615       0.00082611       0.17467118       0.02636433
40
Lattice="7.700392847121503 0.0 0.0 0.0 8.891647766302935 0.0 0.0 0.0 26.3637743517507" Properties=species:S:1:pos:R:3:tags:I:1:MACE_forces:R:3:forces:R:3:DFT_forces:R:3 method=neb MACE_energy=-162.07384037119317 energy=-162.10200129477914 stress="0.008795264645495418 0.00011656477790891593 -2.9569974072722832e-05 0.00011656477790891593 0.008634118939168078 6.0141823762087764e-05 -2.9569974072722832e-05 6.0141823762087764e-05 -0.00022290270273621232" free_energy=-162.10200129477914 DFT_energy=-163.7202881 pbc="T T T"
Cu       1.28339881       0.74097065      12.12125812        3       0.00000000       0.00000000       0.00000000       0.00220675       0.00041103       0.12990664       0.01316124      -0.00004067       0.27496636
Cu       3.85019642       0.74097065      12.12125812        3       0.00000000       0.00000000       0.00000000      -0.00146444      -0.00030530       0.12628216       0.00657333       0.00620154       0.31260887
Cu       6.41699404       0.74097065      12.12125812        3       0.00000000       0.00000000       0.00000000      -0.00069660      -0.00314441       0.12278106      -0.01868552      -0.01422536       0.24926392
Cu       0.00000000       2.96388259      12.12125812        3       0.00000000       0.00000000       0.00000000       0.00213822       0.00284214       0.12358441       0.03294665      -0.01444616       0.27414187
Cu       2.56679762       2.96388259      12.12125812        3       0.00000000       0.00000000       0.00000000      -0.00084266       0.00010888       0.12519778       0.01435827       0.01843378       0.28732310
Cu       5.13359523       2.96388259      12.12125812        3       0.00000000       0.00000000       0.00000000      -0.00187751       0.00377398       0.12944610      -0.04840747      -0.02286277       0.23118266
Cu       1.28339881       5.18679453      12.12125812        3       0.00000000       0.00000000       0.00000000       0.00068372      -0.00121997       0.12278985       0.02360293      -0.00847620       0.28366734
Cu       3.85019642       5.18679453      12.12125812        3       0.00000000       0.00000000       0.00000000      -0.00008429      -0.00004677       0.12208298      -0.01458179      -0.03179650       0.28176801
Cu       6.41699404       5.18679453      12.12125812        3       0.00000000       0.00000000       0.00000000      -0.00060268      -0.00091558       0.12726778       0.00500371       0.01625502       0.23556711
Cu       0.00000000       7.40970647      12.12125812        3       0.00000000       0.00000000       0.00000000       0.00013774      -0.00145973       0.12761299       0.00843153      -0.01354263       0.35867807
Cu       2.56679762       7.40970647      12.12125812        3       0.00000000       0.00000000       0.00000000       0.00097586      -0.00018748       0.12755945      -0.00869414      -0.01817805       0.32303532
Cu       5.13359523       7.40970647      12.12125812        3       0.00000000       0.00000000       0.00000000      -0.00082412       0.00025215       0.12463986       0.01103561       0.00268510       0.33955778
Cu       0.00000000       1.48194129      14.24251623        2       0.00000000       0.00000000       0.00000000      -0.02030762       0.00727762      -0.24248339       0.01533299      -0.03046497      -0.36204489
Cu       2.56679762       1.48194129      14.24251623        2       0.00000000       0.00000000       0.00000000       0.00108271      -0.01273597      -0.32219477      -0.05776261      -0.01627601      -0.32998531
Cu       5.13359523       1.48194129      14.24251623        2       0.00000000       0.00000000       0.00000000       0.03444356       0.00267876      -0.29030559       0.07225190       0.02554041      -0.24180158
Cu       1.28339881       3.70485324      14.24251623        2       0.00000000       0.00000000       0.00000000      -0.01531833      -0.04425246      -0.32345571      -0.08136924      -0.00930097      -0.29051794
Cu       3.85019642       3.70485324      14.24251623        2       0.00000000       0.00000000       0.00000000       0.08307649       0.01020870      -0.16097276       0.09040416       0.06647270      -0.17458554
Cu       6.41699404       3.70485324      14.24251623        2       0.00000000       0.00000000       0.00000000      -0.09704921       0.03547827      -0.14569641      -0.11017313       0.12006757      -0.34825045
Cu       0.00000000       5.92776518      14.24251623        2       0.00000000       0.00000000       0.00000000      -0.01104711      -0.00976909      -0.29403129      -0.00629160      -0.17856360      -0.12420328
Cu       2.56679762       5.92776518      14.24251623        2       0.00000000       0.00000000       0.00000000      -0.00081523       0.01057973      -0.31444962      -0.01310875      -0.01263964      -0.33256892
Cu       5.13359523       5.92776518      14.24251623        2       0.00000000       0.00000000       0.00000000       0.00987762      -0.04032440      -0.21918202      -0.01064448      -0.12230259      -0.16721517
Cu       1.28339881       8.15067712      14.24251623        2       0.00000000       0.00000000       0.00000000       0.00098262      -0.00171533      -0.28404401       0.01455838      -0.01915372      -0.31669950
Cu       3.85019642       8.15067712      14.24251623        2       0.00000000       0.00000000       0.00000000      -0.00393883       0.02323252      -0.31659574      -0.01350794      -0.00290650      -0.35173673
Cu       6.41699404       8.15067712      14.24251623        2       0.00000000       0.00000000       0.00000000       0.01517658       0.03094903      -0.29891898       0.00259657       0.03517050      -0.34881758
Cu       7.70544106       8.87756883      16.28216800        1       0.00011293      -0.01182309       0.12603223       0.00357473      -0.00517264       0.12980999      -0.01784136      -0.03636921      -0.04064505
Cu       2.55970093       8.87785041      16.28455873        1      -0.00143494      -0.00730470       0.13406054      -0.00283947      -0.00082853       0.13586750      -0.02313224       0.05964396       0.01100857
Cu       5.13064410       8.88977077      16.28015373        1      -0.00662164      -0.01077578       0.12960186      -0.00531873      -0.00623657       0.12771085       0.03800415       0.04940582      -0.01050448
Cu       1.30065539       2.19876661      16.28495333        1      -0.00019582      -0.00835861       0.12830179       0.00487888       0.00102155       0.12634010       0.15955011      -0.07986163      -0.10386342
Cu       3.82780975       2.19629487      16.25901257        1      -0.01632988      -0.00658802       0.12455131      -0.00389234       0.00212423       0.13265762      -0.03903300      -0.01851841      -0.01967188
Cu       6.43698343       2.20846478      16.27129131        1      -0.00164688      -0.00413484       0.13077846      -0.00659331       0.01255436       0.13823323      -0.07233447      -0.08376702      -0.06413678
Cu      -0.01269463       4.38215461      16.33797124        1       0.00765413      -0.00375333       0.14536843      -0.00088954       0.00561881       0.13429531       0.05035360       0.14440026      -0.07791843
Cu       2.53245092       4.44657888      16.27334955        1      -0.00899703       0.00544029       0.12755649      -0.00422276       0.00783545       0.13114736      -0.03250281       0.03491328      -0.06030974
Cu       5.03826652       4.50293834      16.33420582        1      -0.00580161      -0.01047899       0.17390411       0.01365412      -0.02346501       0.18657272      -0.11806344       0.09077594      -0.32366450
Cu       1.26883176       6.65611744      16.28077046        1      -0.00192308      -0.00254919       0.13210689      -0.00130981       0.00727979       0.13847007      -0.05893522      -0.04105415       0.00563673
Cu       3.82623591       6.69414083      16.27763680        1      -0.00622182       0.00196505       0.13335521      -0.00259613       0.00451702       0.13564729      -0.01261735       0.03363359      -0.02214272
Cu       6.41701771       6.68738227      16.26214235        1      -0.00353553       0.00313575       0.13000822      -0.00278399       0.00813879       0.13035594       0.00482315       0.02737356      -0.00739293
O        7.43945515       2.79730229      18.84734437        0       0.04580174       0.02539995       0.07163166       0.01087181      -0.01954379       0.02068951      -0.27101698      -0.00651260      -0.05855670
C        6.67187541       3.41264689      17.89571227        0       0.06723060       0.03602226       0.05825785      -0.02172752       0.03699359       0.01777304       0.48993988      -0.41400774       0.14649949
H        6.95274643       2.79809714      19.70509730        0      -0.00263438       0.07603748       0.02140992       0.00833522      -0.01364935      -0.01101744      -0.03272875       0.25958907       0.52495547
O        5.63966461       4.06070089      18.26823322        0       0.03674225      -0.01588978       0.00737798       0.01494562      -0.02890404       0.02862615       0.00850412       0.20470502       0.03737285
40
Lattice="7.700392847121503 0.0 0.0 0.0 8.891647766302935 0.0 0.0 0.0 26.3637743517507" Properties=species:S:1:pos:R:3:tags:I:1:MACE_forces:R:3:forces:R:3:DFT_forces:R:3 method=neb MACE_energy=-162.06452424202556 energy=-162.10200129477914 stress="0.008795264645495418 0.00011656477790891593 -2.9569974072722832e-05 0.00011656477790891593 0.008634118939168078 6.0141823762087764e-05 -2.9569974072722832e-05 6.0141823762087764e-05 -0.00022290270273621232" free_energy=-162.10200129477914 DFT_energy=-163.70542766 pbc="T T T"
Cu       1.28339881       0.74097065      12.12125812        3       0.00000000       0.00000000       0.00000000       0.00220675       0.00041103       0.12990664       0.01277799      -0.00033405       0.27467780
Cu       3.85019642       0.74097065      12.12125812        3       0.00000000       0.00000000       0.00000000      -0.00146444      -0.00030530       0.12628216       0.00684169       0.00642151       0.31143820
Cu       6.41699404       0.74097065      12.12125812        3       0.00000000       0.00000000       0.00000000      -0.00069660      -0.00314441       0.12278106      -0.01902491      -0.01475018       0.24848607
Cu       0.00000000       2.96388259      12.12125812        3       0.00000000       0.00000000       0.00000000       0.00213822       0.00284214       0.12358441       0.03197904      -0.01480604       0.27541905
Cu       2.56679762       2.96388259      12.12125812        3       0.00000000       0.00000000       0.00000000      -0.00084266       0.00010888       0.12519778       0.01511232       0.01765989       0.28694644
Cu       5.13359523       2.96388259      12.12125812        3       0.00000000       0.00000000       0.00000000      -0.00187751       0.00377398       0.12944610      -0.04851962      -0.02292650       0.23237312
Cu       1.28339881       5.18679453      12.12125812        3       0.00000000       0.00000000       0.00000000       0.00068372      -0.00121997       0.12278985       0.02376179      -0.00902915       0.28464531
Cu       3.85019642       5.18679453      12.12125812        3       0.00000000       0.00000000       0.00000000      -0.00008429      -0.00004677       0.12208298      -0.01436943      -0.03264901       0.28416261
Cu       6.41699404       5.18679453      12.12125812        3       0.00000000       0.00000000       0.00000000      -0.00060268      -0.00091558       0.12726778       0.00449938       0.01558128       0.23782123
Cu       0.00000000       7.40970647      12.12125812        3       0.00000000       0.00000000       0.00000000       0.00013774      -0.00145973       0.12761299       0.00767455      -0.01209304       0.35900934
Cu       2.56679762       7.40970647      12.12125812        3       0.00000000       0.00000000       0.00000000       0.00097586      -0.00018748       0.12755945      -0.00856352      -0.01703266       0.32359578
Cu       5.13359523       7.40970647      12.12125812        3       0.00000000       0.00000000       0.00000000      -0.00082412       0.00025215       0.12463986       0.01121433       0.00401202       0.33984599
Cu       0.00000000       1.48194129      14.24251623        2       0.00000000       0.00000000       0.00000000      -0.02030762       0.00727762      -0.24248339       0.02102823      -0.03406034      -0.37822181
Cu       2.56679762       1.48194129      14.24251623        2       0.00000000       0.00000000       0.00000000       0.00108271      -0.01273597      -0.32219477      -0.06396859      -0.01821826      -0.33427209
Cu       5.13359523       1.48194129      14.24251623        2       0.00000000       0.00000000       0.00000000       0.03444356       0.00267876      -0.29030559       0.05546905       0.01833320      -0.25481843
Cu       1.28339881       3.70485324      14.24251623        2       0.00000000       0.00000000       0.00000000      -0.01531833      -0.04425246      -0.32345571      -0.09602188      -0.00198016      -0.27955475
Cu       3.85019642       3.70485324      14.24251623        2       0.00000000       0.00000000       0.00000000       0.08307649       0.01020870      -0.16097276       0.09055594       0.07267230      -0.16196900
Cu       6.41699404       3.70485324      14.24251623        2       0.00000000       0.00000000       0.00000000      -0.09704921       0.03547827      -0.14569641      -0.10765318       0.13500773      -0.33897082
Cu       0.00000000       5.92776518      14.24251623        2       0.00000000       0.00000000       0.00000000      -0.01104711      -0.00976909      -0.29403129      -0.00956070      -0.19622641      -0.10974220
Cu       2.56679762       5.92776518      14.24251623        2       0.00000000       0.00000000       0.00000000      -0.00081523       0.01057973      -0.31444962      -0.01373470      -0.01283499      -0.33248230
Cu       5.13359523       5.92776518      14.24251623        2       0.00000000       0.00000000       0.00000000       0.00987762      -0.04032440      -0.21918202      -0.01217530      -0.13309508      -0.15111811
Cu       1.28339881       8.15067712      14.24251623        2       0.00000000       0.00000000       0.00000000       0.00098262      -0.00171533      -0.28404401       0.01481826      -0.02434066      -0.31588953
Cu       3.85019642       8.15067712      14.24251623        2       0.00000000       0.00000000       0.00000000      -0.00393883       0.02323252      -0.31659574      -0.01573191      -0.00603292      -0.35155403
Cu       6.41699404       8.15067712      14.24251623        2       0.00000000       0.00000000       0.00000000       0.01517658       0.03094903      -0.29891898       0.00052082       0.02826825      -0.34607808
Cu       7.70443902       8.87582079      16.28011124        1      -0.00224321      -0.01669823       0.13289564       0.00357473      -0.00517264       0.12980999      -0.02076529      -0.04189630      -0.03255349
Cu       2.55822364       8.87647611      16.28436515        1      -0.00410324      -0.01170668       0.13338069      -0.00283947      -0.00082853       0.13586750      -0.02578353       0.05493431       0.01060774
Cu       5.12935109       8.88684679      16.28001007        1      -0.00919065      -0.00858171       0.12980472      -0.00531873      -0.00623657       0.12771085       0.03267353       0.05206197      -0.01117208
Cu       1.29671512       2.19835995      16.28395943        1       0.00204545      -0.01373530       0.13354168       0.00487888       0.00102155       0.12634010       0.16122245      -0.08822442      -0.09596435
Cu       3.82205242       2.19567970      16.25810138        1      -0.01054704      -0.00999930       0.12672015      -0.00389234       0.00212423       0.13265762      -0.02622831      -0.01880653      -0.01430313
Cu       6.43016705       2.20560305      16.26246440        1       0.01961689      -0.01528258       0.14494168      -0.00659331       0.01255436       0.13823323      -0.06051744      -0.10615000      -0.04838762
Cu      -0.01998904       4.37314885      16.35284307        1       0.05152861       0.02805415       0.09832801      -0.00088954       0.00561881       0.13429531       0.07891336       0.16533503      -0.12091391
Cu       2.52596340       4.44683068      16.27331541        1       0.00822098      -0.00009330       0.12965691      -0.00422276       0.00783545       0.13114736      -0.01281119       0.02783919      -0.05684024
Cu       5.03482314       4.50026379      16.34322033        1      -0.01070993      -0.00851953       0.15263764       0.01365412      -0.02346501       0.18657272      -0.12355773       0.09361212      -0.35478259
Cu       1.26581350       6.65120343      16.28087716        1      -0.00041295       0.00891011       0.13176141      -0.00130981       0.00727979       0.13847007      -0.05873327      -0.02869053       0.00529232
Cu       3.82518832       6.69215945      16.27817362        1      -0.00712735      -0.00171018       0.13200723      -0.00259613       0.00451702       0.13564729      -0.01514815       0.03246892      -0.02381097
Cu       6.41626339       6.68278838      16.26336096        1      -0.00843856       0.00294639       0.12783810      -0.00278399       0.00813879       0.13035594      -0.00106720       0.03155246      -0.01093805
O        7.42289969       2.75323463      18.85074598        0      -0.00938927       0.08022407       0.04050470       0.01087181      -0.01954379       0.02068951      -0.34939399       0.01464294      -0.10205498
C        6.67814264       3.39997348      17.89817062        0       0.03513589      -0.03704927       0.09546062      -0.02172752       0.03699359       0.01777304       0.46064102      -0.39761589       0.13734969
H        6.89002410       2.70443652      19.68006237        0       0.05267209       0.05952554       0.03218878       0.00833522      -0.01364935      -0.01101744       0.00484123       0.25754016       0.56231227
O        5.63515516       4.03091932      18.27063037        0       0.02607885       0.03516745      -0.00123143       0.01494562      -0.02890404       0.02862615       0.06878487       0.20384983       0.05240959
40
Lattice="7.700392847121503 0.0 0.0 0.0 8.891647766302935 0.0 0.0 0.0 26.3637743517507" Properties=species:S:1:pos:R:3:tags:I:1:MACE_forces:R:3:forces:R:3:DFT_forces:R:3 method=neb MACE_energy=-162.04962296713205 energy=-162.10200129477914 stress="0.008795264645495418 0.00011656477790891593 -2.9569974072722832e-05 0.00011656477790891593 0.008634118939168078 6.0141823762087764e-05 -2.9569974072722832e-05 6.0141823762087764e-05 -0.00022290270273621232" free_energy=-162.10200129477914 DFT_energy=-163.66296335 pbc="T T T"
Cu       1.28339881       0.74097065      12.12125812        3       0.00000000       0.00000000       0.00000000       0.00220675       0.00041103       0.12990664       0.01310777      -0.00091593       0.27518969
Cu       3.85019642       0.74097065      12.12125812        3       0.00000000       0.00000000       0.00000000      -0.00146444      -0.00030530       0.12628216       0.00819914       0.00537588       0.31148050
Cu       6.41699404       0.74097065      12.12125812        3       0.00000000       0.00000000       0.00000000      -0.00069660      -0.00314441       0.12278106      -0.01880995      -0.01505660       0.24793667
Cu       0.00000000       2.96388259      12.12125812        3       0.00000000       0.00000000       0.00000000       0.00213822       0.00284214       0.12358441       0.03132721      -0.01470407       0.27629982
Cu       2.56679762       2.96388259      12.12125812        3       0.00000000       0.00000000       0.00000000      -0.00084266       0.00010888       0.12519778       0.01694826       0.01796082       0.28737014
Cu       5.13359523       2.96388259      12.12125812        3       0.00000000       0.00000000       0.00000000      -0.00187751       0.00377398       0.12944610      -0.04800068      -0.02208910       0.23356646
Cu       1.28339881       5.18679453      12.12125812        3       0.00000000       0.00000000       0.00000000       0.00068372      -0.00121997       0.12278985       0.02422659      -0.00959977       0.28477262
Cu       3.85019642       5.18679453      12.12125812        3       0.00000000       0.00000000       0.00000000      -0.00008429      -0.00004677       0.12208298      -0.01405135      -0.03363254       0.28428479
Cu       6.41699404       5.18679453      12.12125812        3       0.00000000       0.00000000       0.00000000      -0.00060268      -0.00091558       0.12726778       0.00477568       0.01368409       0.23868948
Cu       0.00000000       7.40970647      12.12125812        3       0.00000000       0.00000000       0.00000000       0.00013774      -0.00145973       0.12761299       0.00856613      -0.01057489       0.35920063
Cu       2.56679762       7.40970647      12.12125812        3       0.00000000       0.00000000       0.00000000       0.00097586      -0.00018748       0.12755945      -0.00809320      -0.01640101       0.32441097
Cu       5.13359523       7.40970647      12.12125812        3       0.00000000       0.00000000       0.00000000      -0.00082412       0.00025215       0.12463986       0.01132174       0.00596226       0.33932849
Cu       0.00000000       1.48194129      14.24251623        2       0.00000000       0.00000000       0.00000000      -0.02030762       0.00727762      -0.24248339       0.03071478      -0.04910328      -0.39234433
Cu       2.56679762       1.48194129      14.24251623        2       0.00000000       0.00000000       0.00000000       0.00108271      -0.01273597      -0.32219477      -0.07158230      -0.02347823      -0.33740977
Cu       5.13359523       1.48194129      14.24251623        2       0.00000000       0.00000000       0.00000000       0.03444356       0.00267876      -0.29030559       0.05347654       0.01729150      -0.25116097
Cu       1.28339881       3.70485324      14.24251623        2       0.00000000       0.00000000       0.00000000      -0.01531833      -0.04425246      -0.32345571      -0.09276196      -0.01185935      -0.28268816
Cu       3.85019642       3.70485324      14.24251623        2       0.00000000       0.00000000       0.00000000       0.08307649       0.01020870      -0.16097276       0.08770266       0.06841290      -0.16272924
Cu       6.41699404       3.70485324      14.24251623        2       0.00000000       0.00000000       0.00000000      -0.09704921       0.03547827      -0.14569641      -0.10089881       0.13274027      -0.31048218
Cu       0.00000000       5.92776518      14.24251623        2       0.00000000       0.00000000       0.00000000      -0.01104711      -0.00976909      -0.29403129      -0.01350632      -0.20335967      -0.11110265
Cu       2.56679762       5.92776518      14.24251623        2       0.00000000       0.00000000       0.00000000      -0.00081523       0.01057973      -0.31444962      -0.02014111      -0.01929040      -0.33002206
Cu       5.13359523       5.92776518      14.24251623        2       0.00000000       0.00000000       0.00000000       0.00987762      -0.04032440      -0.21918202      -0.02063850      -0.14554784      -0.15289736
Cu       1.28339881       8.15067712      14.24251623        2       0.00000000       0.00000000       0.00000000       0.00098262      -0.00171533      -0.28404401       0.00861295      -0.02774254      -0.32035726
Cu       3.85019642       8.15067712      14.24251623        2       0.00000000       0.00000000       0.00000000      -0.00393883       0.02323252      -0.31659574      -0.01994380      -0.01246286      -0.35165175
Cu       6.41699404       8.15067712      14.24251623        2       0.00000000       0.00000000       0.00000000       0.01517658       0.03094903      -0.29891898      -0.00444480       0.01905987      -0.34003866
Cu       7.69880061       8.86479310      16.28204868        1       0.00430276      -0.00788303       0.12933437       0.00357473      -0.00517264       0.12980999      -0.01992313      -0.03358821      -0.04121765
Cu       2.55233524       8.86825622      16.28400754        1       0.00563020      -0.00232379       0.13674215      -0.00283947      -0.00082853       0.13586750      -0.01763457       0.06473505       0.01206552
Cu       5.12332118       8.88156910      16.27989600        1      -0.00002304      -0.01091502       0.13071609      -0.00531873      -0.00623657       0.12771085       0.04428230       0.04883423      -0.01086848
Cu       1.29310790       2.18948036      16.28638098        1       0.01673231      -0.00662771       0.12600024       0.00487888       0.00102155       0.12634010       0.17369682      -0.08208639      -0.09772188
Cu       3.81598496       2.18839148      16.25739261        1       0.00847241      -0.00854476       0.12898137      -0.00389234       0.00212423       0.13265762       0.00208479      -0.01397469      -0.00883606
Cu       6.43755816       2.19362921      16.26131617        1      -0.00150739      -0.00025738       0.13465856      -0.00659331       0.01255436       0.13823323      -0.08941824      -0.08757937      -0.05614866
Cu      -0.00627833       4.36823714      16.35557758        1      -0.00096973       0.00247493       0.11108228      -0.00088954       0.00561881       0.13429531       0.00183347       0.13381327      -0.09100714
Cu       2.52511292       4.44148864      16.27489186        1       0.01218114       0.00067945       0.12482711      -0.00422276       0.00783545       0.13114736      -0.00877717       0.03043461      -0.06331447
Cu       5.02798390       4.48989943      16.34515015        1       0.02520643       0.00256605       0.12706068       0.01365412      -0.02346501       0.18657272      -0.08352373       0.09944779      -0.38020084
Cu       1.26010544       6.64720640      16.28088797        1       0.01150149       0.00278904       0.13327366      -0.00130981       0.00727979       0.13847007      -0.04133122      -0.03824587       0.00655313
Cu       3.82045374       6.68483860      16.27813863        1      -0.00106810       0.00521748       0.13304008      -0.00259613       0.00451702       0.13564729      -0.00659917       0.04301458      -0.02536201
Cu       6.40867530       6.67165180      16.26292799        1       0.00573219       0.01717899       0.12724337      -0.00278399       0.00813879       0.13035594       0.01034519       0.05287765      -0.01071528
O        7.41719215       2.74034592      18.86913591        0       0.02243044       0.03335521       0.00631040       0.01087181      -0.01954379       0.02068951      -0.36077867      -0.17249771      -0.15062650
C        6.69448774       3.38219352      17.89774752        0      -0.00401670       0.01415909       0.05580218      -0.02172752       0.03699359       0.01777304       0.37918601      -0.43974785       0.17394373
H        6.81775242       2.57495999      19.63564833        0       0.06530043       0.07485542       0.06780229       0.00833522      -0.01364935      -0.01101744       0.02767468       0.43382158       0.51023559
O        5.64300709       4.01251030      18.24956237        0      -0.00940826       0.04911882       0.04768888       0.01494562      -0.02890404       0.02862615       0.12277596       0.29607184       0.11357513
40
Lattice="7.700392847121503 0.0 0.0 0.0 8.891647766302935 0.0 0.0 0.0 26.3637743517507" Properties=species:S:1:pos:R:3:tags:I:1:MACE_forces:R:3:forces:R:3:DFT_forces:R:3 method=neb MACE_energy=-161.9963168132486 energy=-162.10200129477914 stress="0.008795264645495418 0.00011656477790891593 -2.9569974072722832e-05 0.00011656477790891593 0.008634118939168078 6.0141823762087764e-05 -2.9569974072722832e-05 6.0141823762087764e-05 -0.00022290270273621232" free_energy=-162.10200129477914 DFT_energy=-163.46910651 pbc="T T T"
Cu       1.28339881       0.74097065      12.12125812        3       0.00000000       0.00000000       0.00000000       0.00220675       0.00041103       0.12990664       0.01118970      -0.00328900       0.27508445
Cu       3.85019642       0.74097065      12.12125812        3       0.00000000       0.00000000       0.00000000      -0.00146444      -0.00030530       0.12628216       0.00988175       0.00120424       0.31231594
Cu       6.41699404       0.74097065      12.12125812        3       0.00000000       0.00000000       0.00000000      -0.00069660      -0.00314441       0.12278106      -0.01791185      -0.01582842       0.25245554
Cu       0.00000000       2.96388259      12.12125812        3       0.00000000       0.00000000       0.00000000       0.00213822       0.00284214       0.12358441       0.03083397      -0.01769849       0.27718936
Cu       2.56679762       2.96388259      12.12125812        3       0.00000000       0.00000000       0.00000000      -0.00084266       0.00010888       0.12519778       0.01725569       0.01965103       0.28719930
Cu       5.13359523       2.96388259      12.12125812        3       0.00000000       0.00000000       0.00000000      -0.00187751       0.00377398       0.12944610      -0.04680042      -0.02159922       0.23566886
Cu       1.28339881       5.18679453      12.12125812        3       0.00000000       0.00000000       0.00000000       0.00068372      -0.00121997       0.12278985       0.02559995      -0.00786329       0.28501342
Cu       3.85019642       5.18679453      12.12125812        3       0.00000000       0.00000000       0.00000000      -0.00008429      -0.00004677       0.12208298      -0.01463630      -0.03489026       0.28470207
Cu       6.41699404       5.18679453      12.12125812        3       0.00000000       0.00000000       0.00000000      -0.00060268      -0.00091558       0.12726778       0.00537472       0.01210942       0.23977310
Cu       0.00000000       7.40970647      12.12125812        3       0.00000000       0.00000000       0.00000000       0.00013774      -0.00145973       0.12761299       0.01174829      -0.00772777       0.35364292
Cu       2.56679762       7.40970647      12.12125812        3       0.00000000       0.00000000       0.00000000       0.00097586      -0.00018748       0.12755945      -0.00862525      -0.01754650       0.32617768
Cu       5.13359523       7.40970647      12.12125812        3       0.00000000       0.00000000       0.00000000      -0.00082412       0.00025215       0.12463986       0.00890503       0.00859114       0.33819664
Cu       0.00000000       1.48194129      14.24251623        2       0.00000000       0.00000000       0.00000000      -0.02030762       0.00727762      -0.24248339       0.02603036      -0.04142863      -0.38598706
Cu       2.56679762       1.48194129      14.24251623        2       0.00000000       0.00000000       0.00000000       0.00108271      -0.01273597      -0.32219477      -0.05481997      -0.02009568      -0.34164731
Cu       5.13359523       1.48194129      14.24251623        2       0.00000000       0.00000000       0.00000000       0.03444356       0.00267876      -0.29030559       0.05282542       0.01454498      -0.26331657
Cu       1.28339881       3.70485324      14.24251623        2       0.00000000       0.00000000       0.00000000      -0.01531833      -0.04425246      -0.32345571      -0.08153264      -0.00888271      -0.30326307
Cu       3.85019642       3.70485324      14.24251623        2       0.00000000       0.00000000       0.00000000       0.08307649       0.01020870      -0.16097276       0.08519349       0.05911942      -0.17879141
Cu       6.41699404       3.70485324      14.24251623        2       0.00000000       0.00000000       0.00000000      -0.09704921       0.03547827      -0.14569641      -0.09491120       0.12739868      -0.33392968
Cu       0.00000000       5.92776518      14.24251623        2       0.00000000       0.00000000       0.00000000      -0.01104711      -0.00976909      -0.29403129      -0.00659443      -0.19144762      -0.12704014
Cu       2.56679762       5.92776518      14.24251623        2       0.00000000       0.00000000       0.00000000      -0.00081523       0.01057973      -0.31444962      -0.01668599      -0.02013490      -0.32870331
Cu       5.13359523       5.92776518      14.24251623        2       0.00000000       0.00000000       0.00000000       0.00987762      -0.04032440      -0.21918202      -0.01231051      -0.12665914      -0.16994291
Cu       1.28339881       8.15067712      14.24251623        2       0.00000000       0.00000000       0.00000000       0.00098262      -0.00171533      -0.28404401       0.01140178      -0.02305329      -0.31599865
Cu       3.85019642       8.15067712      14.24251623        2       0.00000000       0.00000000       0.00000000      -0.00393883       0.02323252      -0.31659574      -0.01551052      -0.00736947      -0.35199610
Cu       6.41699404       8.15067712      14.24251623        2       0.00000000       0.00000000       0.00000000       0.01517658       0.03094903      -0.29891898      -0.00017999       0.02385017      -0.34809370
Cu       7.70245209       8.87079581      16.28280209        1       0.00402537      -0.00983651       0.12778297       0.00357473      -0.00517264       0.12980999      -0.02212278      -0.03584749      -0.04647048
Cu       2.55675362       8.87110357      16.28475180        1       0.00281253      -0.00321434       0.13429083      -0.00283947      -0.00082853       0.13586750      -0.01758700       0.06216862       0.00590811
Cu       5.12807928       8.88384780      16.28081101        1      -0.00438884      -0.00778817       0.12930316      -0.00531873      -0.00623657       0.12771085       0.04553738       0.06326267      -0.00627415
Cu       1.30084143       2.19050628      16.27986008        1       0.00889041      -0.00213949       0.12774103       0.00487888       0.00102155       0.12634010       0.13423973      -0.06206548      -0.03680910
Cu       3.82478262       2.19076750      16.25964062        1      -0.00554104      -0.00442945       0.12593540      -0.00389234       0.00212423       0.13265762      -0.01428649      -0.01671994      -0.01321829
Cu       6.43528486       2.20142209      16.26328677        1       0.00306012       0.00102009       0.13047364      -0.00659331       0.01255436       0.13823323      -0.07526006      -0.07848505      -0.04693299
Cu       0.00067632       4.37580220      16.34401985        1       0.00323567       0.01108640       0.12763213      -0.00088954       0.00561881       0.13429531      -0.02392712       0.11060392      -0.02324906
Cu       2.53290159       4.44159109      16.27395536        1       0.00469619       0.00636350       0.12688987      -0.00422276       0.00783545       0.13114736      -0.02397498       0.03766592      -0.05919597
Cu       5.03575917       4.49755484      16.33291952        1       0.00477440      -0.00261110       0.15106016       0.01365412      -0.02346501       0.18657272      -0.09738389       0.07482605      -0.33506997
Cu       1.26649854       6.64976111      16.28065281        1       0.00599348       0.00892367       0.13237758      -0.00130981       0.00727979       0.13847007      -0.04924160      -0.02533528       0.00445941
Cu       3.82415715       6.68879859      16.27764133        1      -0.00202985       0.00510686       0.13291886      -0.00259613       0.00451702       0.13564729      -0.00727495       0.03973362      -0.02650267
Cu       6.41550489       6.67890051      16.26249129        1      -0.00107362       0.00990822       0.12965896      -0.00278399       0.00813879       0.13035594       0.00071702       0.05510305      -0.01282004
O        7.44173820       2.77427203      18.86301300        0       0.04103287       0.02098154       0.03295282       0.01087181      -0.01954379       0.02068951      -0.34802367      -0.49800576      -0.20138895
C        6.70316789       3.41669808      17.89108815        0       0.01072466       0.01166457       0.05554655      -0.02172752       0.03699359       0.01777304       0.32230482      -0.56616886       0.17904265
H        6.81713089       2.23444078      19.40300923        0       0.02531737       0.08711259       0.09656311       0.00833522      -0.01364935      -0.01101744       0.11993088       0.71774425       0.29036998
O        5.65760122       4.05110397      18.24280798        0       0.00715328      -0.00774827       0.04014164       0.01494562      -0.02890404       0.02862615       0.13063165       0.42056509       0.30944216
40
Lattice="7.700392847121503 0.0 0.0 0.0 8.891647766302935 0.0 0.0 0.0 26.3637743517507" Properties=species:S:1:pos:R:3:tags:I:1:MACE_forces:R:3:forces:R:3:DFT_forces:R:3 method=neb MACE_energy=-161.9802605436631 energy=-162.10200129477914 stress="0.008795264645495418 0.00011656477790891593 -2.9569974072722832e-05 0.00011656477790891593 0.008634118939168078 6.0141823762087764e-05 -2.9569974072722832e-05 6.0141823762087764e-05 -0.00022290270273621232" free_energy=-162.10200129477914 DFT_energy=-163.27171348 pbc="T T T"
Cu       1.28339881       0.74097065      12.12125812        3       0.00000000       0.00000000       0.00000000       0.00220675       0.00041103       0.12990664       0.01469406      -0.00356564       0.27901946
Cu       3.85019642       0.74097065      12.12125812        3       0.00000000       0.00000000       0.00000000      -0.00146444      -0.00030530       0.12628216       0.00937345      -0.00262679       0.31708918
Cu       6.41699404       0.74097065      12.12125812        3       0.00000000       0.00000000       0.00000000      -0.00069660      -0.00314441       0.12278106      -0.02045287      -0.01679105       0.25612378
Cu       0.00000000       2.96388259      12.12125812        3       0.00000000       0.00000000       0.00000000       0.00213822       0.00284214       0.12358441       0.03418894      -0.01313020       0.28187463
Cu       2.56679762       2.96388259      12.12125812        3       0.00000000       0.00000000       0.00000000      -0.00084266       0.00010888       0.12519778       0.01497911       0.02315607       0.29072289
Cu       5.13359523       2.96388259      12.12125812        3       0.00000000       0.00000000       0.00000000      -0.00187751       0.00377398       0.12944610      -0.04770802      -0.02063591       0.23758844
Cu       1.28339881       5.18679453      12.12125812        3       0.00000000       0.00000000       0.00000000       0.00068372      -0.00121997       0.12278985       0.02622177      -0.00950505       0.28959880
Cu       3.85019642       5.18679453      12.12125812        3       0.00000000       0.00000000       0.00000000      -0.00008429      -0.00004677       0.12208298      -0.01593910      -0.03227924       0.27830043
Cu       6.41699404       5.18679453      12.12125812        3       0.00000000       0.00000000       0.00000000      -0.00060268      -0.00091558       0.12726778       0.00600598       0.01165735       0.24653121
Cu       0.00000000       7.40970647      12.12125812        3       0.00000000       0.00000000       0.00000000       0.00013774      -0.00145973       0.12761299       0.01525126      -0.01060377       0.35166458
Cu       2.56679762       7.40970647      12.12125812        3       0.00000000       0.00000000       0.00000000       0.00097586      -0.00018748       0.12755945      -0.00920930      -0.01969234       0.32348503
Cu       5.13359523       7.40970647      12.12125812        3       0.00000000       0.00000000       0.00000000      -0.00082412       0.00025215       0.12463986       0.00689989       0.00727188       0.33795261
Cu       0.00000000       1.48194129      14.24251623        2       0.00000000       0.00000000       0.00000000      -0.02030762       0.00727762      -0.24248339       0.00028320      -0.03471422      -0.36036041
Cu       2.56679762       1.48194129      14.24251623        2       0.00000000       0.00000000       0.00000000       0.00108271      -0.01273597      -0.32219477      -0.04513084      -0.02194085      -0.34113013
Cu       5.13359523       1.48194129      14.24251623        2       0.00000000       0.00000000       0.00000000       0.03444356       0.00267876      -0.29030559       0.07440745       0.02226465      -0.24361767
Cu       1.28339881       3.70485324      14.24251623        2       0.00000000       0.00000000       0.00000000      -0.01531833      -0.04425246      -0.32345571      -0.08324920      -0.01414097      -0.30271346
Cu       3.85019642       3.70485324      14.24251623        2       0.00000000       0.00000000       0.00000000       0.08307649       0.01020870      -0.16097276       0.08275916       0.05489714      -0.18623917
Cu       6.41699404       3.70485324      14.24251623        2       0.00000000       0.00000000       0.00000000      -0.09704921       0.03547827      -0.14569641      -0.08782427       0.10275763      -0.31081054
Cu       0.00000000       5.92776518      14.24251623        2       0.00000000       0.00000000       0.00000000      -0.01104711      -0.00976909      -0.29403129      -0.00653867      -0.18398446      -0.13262670
Cu       2.56679762       5.92776518      14.24251623        2       0.00000000       0.00000000       0.00000000      -0.00081523       0.01057973      -0.31444962      -0.01694052      -0.01923620      -0.32670896
Cu       5.13359523       5.92776518      14.24251623        2       0.00000000       0.00000000       0.00000000       0.00987762      -0.04032440      -0.21918202      -0.01111328      -0.11025196      -0.19129223
Cu       1.28339881       8.15067712      14.24251623        2       0.00000000       0.00000000       0.00000000       0.00098262      -0.00171533      -0.28404401       0.00912708      -0.02551734      -0.30813937
Cu       3.85019642       8.15067712      14.24251623        2       0.00000000       0.00000000       0.00000000      -0.00393883       0.02323252      -0.31659574      -0.01440695      -0.00266187      -0.35309658
Cu       6.41699404       8.15067712      14.24251623        2       0.00000000       0.00000000       0.00000000       0.01517658       0.03094903      -0.29891898       0.00413097       0.02395569      -0.34619299
Cu       7.70408270       8.87166466      16.28648763        1       0.00271390      -0.00791968       0.12814570       0.00357473      -0.00517264       0.12980999      -0.02819909      -0.03439276      -0.05525578
Cu       2.55808221       8.87090221      16.28475077        1       0.00141642      -0.00166945       0.13412130      -0.00283947      -0.00082853       0.13586750      -0.02280402       0.06528386       0.00480286
Cu       5.12901800       8.88286917      16.28062340        1      -0.00571048      -0.00636120       0.12895265      -0.00531873      -0.00623657       0.12771085       0.05596585       0.07285751       0.00436907
Cu       1.30207217       2.18764090      16.27815094        1       0.00683128      -0.00245461       0.12542283       0.00487888       0.00102155       0.12634010       0.11810086      -0.04534011      -0.01495761
Cu       3.82817997       2.19166779      16.26109710        1      -0.00669762      -0.00326016       0.12633935      -0.00389234       0.00212423       0.13265762      -0.02350045      -0.02680865      -0.02081168
Cu       6.43642649       2.19876982      16.28267649        1       0.00266474       0.00267241       0.14536497      -0.00659331       0.01255436       0.13823323      -0.06244484       0.00972994      -0.00654425
Cu       0.00299927       4.36829485      16.34435952        1      -0.00109771       0.00924690       0.13041711      -0.00088954       0.00561881       0.13429531      -0.02974179       0.13124151      -0.04002772
Cu       2.53361278       4.44019114      16.27430360        1      -0.00009639       0.00655677       0.12676595      -0.00422276       0.00783545       0.13114736      -0.03454808       0.03595059      -0.05855735
Cu       5.03517949       4.50104069      16.32241602        1      -0.00021569       0.00192013       0.14317787       0.01365412      -0.02346501       0.18657272      -0.07862976       0.07522577      -0.33210271
Cu       1.26663402       6.64813071      16.28108021        1       0.00419457       0.00902093       0.13233717      -0.00130981       0.00727979       0.13847007      -0.05143663      -0.02679335       0.00521122
Cu       3.82371224       6.69022723      16.27658572        1      -0.00551365       0.00845124       0.13237331      -0.00259613       0.00451702       0.13564729      -0.00866538       0.04092689      -0.02950744
Cu       6.41852793       6.67982322      16.26207158        1      -0.00166668       0.01200792       0.12917922      -0.00278399       0.00813879       0.13035594       0.00292470       0.05023986      -0.01329278
O        7.41253605       2.83580501      18.93953647        0       0.02444169       0.06267967       0.06394970       0.01087181      -0.01954379       0.02068951      -0.25424990      -0.29459620       0.09962634
C        6.68258683       3.41617791      17.91639864        0       0.00094106       0.03429447       0.07289780      -0.02172752       0.03699359       0.01777304       0.53818181      -0.39773663       0.29686092
H        6.99830627       1.96372553      19.13772484        0       0.07410252      -0.01014977      -0.00165033       0.00833522      -0.01364935      -0.01101744      -0.25063514       0.37062565      -0.04785530
O        5.66193279       4.10554384      18.22595247        0       0.00453951       0.01014429       0.02914628       0.01494562      -0.02890404       0.02862615       0.18987256       0.26890354       0.12101939
40
Lattice="7.700392847121503 0.0 0.0 0.0 8.891647766302935 0.0 0.0 0.0 26.3637743517507" Properties=species:S:1:pos:R:3:tags:I:1:MACE_forces:R:3:forces:R:3:DFT_forces:R:3 method=neb MACE_energy=-161.981731786884 energy=-162.10200129477914 stress="0.008795264645495418 0.00011656477790891593 -2.9569974072722832e-05 0.00011656477790891593 0.008634118939168078 6.0141823762087764e-05 -2.9569974072722832e-05 6.0141823762087764e-05 -0.00022290270273621232" free_energy=-162.10200129477914 DFT_energy=-163.27243556 pbc="T T T"
Cu       1.28339881       0.74097065      12.12125812        3       0.00000000       0.00000000       0.00000000       0.00220675       0.00041103       0.12990664       0.01445626      -0.00375335       0.27899288
Cu       3.85019642       0.74097065      12.12125812        3       0.00000000       0.00000000       0.00000000      -0.00146444      -0.00030530       0.12628216       0.00972185      -0.00276909       0.31701367
Cu       6.41699404       0.74097065      12.12125812        3       0.00000000       0.00000000       0.00000000      -0.00069660      -0.00314441       0.12278106      -0.02074693      -0.01679540       0.25639922
Cu       0.00000000       2.96388259      12.12125812        3       0.00000000       0.00000000       0.00000000       0.00213822       0.00284214       0.12358441       0.03376761      -0.01353762       0.28171858
Cu       2.56679762       2.96388259      12.12125812        3       0.00000000       0.00000000       0.00000000      -0.00084266       0.00010888       0.12519778       0.01489408       0.02340398       0.29075181
Cu       5.13359523       2.96388259      12.12125812        3       0.00000000       0.00000000       0.00000000      -0.00187751       0.00377398       0.12944610      -0.04741036      -0.02058859       0.23784863
Cu       1.28339881       5.18679453      12.12125812        3       0.00000000       0.00000000       0.00000000       0.00068372      -0.00121997       0.12278985       0.02654967      -0.00944825       0.28947228
Cu       3.85019642       5.18679453      12.12125812        3       0.00000000       0.00000000       0.00000000      -0.00008429      -0.00004677       0.12208298      -0.01578009      -0.03236875       0.27902460
Cu       6.41699404       5.18679453      12.12125812        3       0.00000000       0.00000000       0.00000000      -0.00060268      -0.00091558       0.12726778       0.00546468       0.01170796       0.24665501
Cu       0.00000000       7.40970647      12.12125812        3       0.00000000       0.00000000       0.00000000       0.00013774      -0.00145973       0.12761299       0.01524205      -0.00985904       0.35153886
Cu       2.56679762       7.40970647      12.12125812        3       0.00000000       0.00000000       0.00000000       0.00097586      -0.00018748       0.12755945      -0.00938386      -0.01955241       0.32352374
Cu       5.13359523       7.40970647      12.12125812        3       0.00000000       0.00000000       0.00000000      -0.00082412       0.00025215       0.12463986       0.00689283       0.00751336       0.33751597
Cu       0.00000000       1.48194129      14.24251623        2       0.00000000       0.00000000       0.00000000      -0.02030762       0.00727762      -0.24248339       0.00094508      -0.03385044      -0.36154888
Cu       2.56679762       1.48194129      14.24251623        2       0.00000000       0.00000000       0.00000000       0.00108271      -0.01273597      -0.32219477      -0.04488920      -0.02050081      -0.34185430
Cu       5.13359523       1.48194129      14.24251623        2       0.00000000       0.00000000       0.00000000       0.03444356       0.00267876      -0.29030559       0.07500191       0.02456701      -0.24316469
Cu       1.28339881       3.70485324      14.24251623        2       0.00000000       0.00000000       0.00000000      -0.01531833      -0.04425246      -0.32345571      -0.08156386      -0.01295875      -0.30630437
Cu       3.85019642       3.70485324      14.24251623        2       0.00000000       0.00000000       0.00000000       0.08307649       0.01020870      -0.16097276       0.08329759       0.05592753      -0.18521975
Cu       6.41699404       3.70485324      14.24251623        2       0.00000000       0.00000000       0.00000000      -0.09704921       0.03547827      -0.14569641      -0.08891974       0.10436741      -0.31251490
Cu       0.00000000       5.92776518      14.24251623        2       0.00000000       0.00000000       0.00000000      -0.01104711      -0.00976909      -0.29403129      -0.00645243      -0.18092690      -0.13418488
Cu       2.56679762       5.92776518      14.24251623        2       0.00000000       0.00000000       0.00000000      -0.00081523       0.01057973      -0.31444962      -0.01691460      -0.01819447      -0.32665455
Cu       5.13359523       5.92776518      14.24251623        2       0.00000000       0.00000000       0.00000000       0.00987762      -0.04032440      -0.21918202      -0.01128997      -0.11081265      -0.18948957
Cu       1.28339881       8.15067712      14.24251623        2       0.00000000       0.00000000       0.00000000       0.00098262      -0.00171533      -0.28404401       0.00881985      -0.02336412      -0.30900219
Cu       3.85019642       8.15067712      14.24251623        2       0.00000000       0.00000000       0.00000000      -0.00393883       0.02323252      -0.31659574      -0.01407502      -0.00174477      -0.35207113
Cu       6.41699404       8.15067712      14.24251623        2       0.00000000       0.00000000       0.00000000       0.01517658       0.03094903      -0.29891898       0.00400360       0.02487112      -0.34679146
Cu       7.70391206       8.87311005      16.28645440        1       0.00314410      -0.00828053       0.12807454       0.00357473      -0.00517264       0.12980999      -0.02827572      -0.03392778      -0.05394364
Cu       2.55814783       8.87214415      16.28472142        1       0.00196584      -0.00221475       0.13411770      -0.00283947      -0.00082853       0.13586750      -0.02226949       0.06512671       0.00503758
Cu       5.12913186       8.88458813      16.28057359        1      -0.00540981      -0.00735590       0.12894825      -0.00531873      -0.00623657       0.12771085       0.05665285       0.07137497       0.00535061
Cu       1.30242939       2.18914027      16.27769305        1       0.00724177      -0.00299753       0.12608136       0.00487888       0.00102155       0.12634010       0.11745853      -0.04659016      -0.01188842
Cu       3.82840352       2.19270844      16.26099433        1      -0.00597348      -0.00332792       0.12669600      -0.00389234       0.00212423       0.13265762      -0.02309704      -0.02584007      -0.02062616
Cu       6.43779468       2.20106973      16.28252190        1       0.00097437       0.00155743       0.14393439      -0.00659331       0.01255436       0.13823323      -0.06792551       0.00271264      -0.01091063
Cu       0.00389665       4.37227573      16.34264667        1      -0.00074769       0.00667818       0.12945060      -0.00088954       0.00561881       0.13429531      -0.03170240       0.12502877      -0.03761140
Cu       2.53393497       4.44148220      16.27429040        1       0.00099607       0.00629905       0.12680074      -0.00422276       0.00783545       0.13114736      -0.03221841       0.03747778      -0.05949243
Cu       5.03505765       4.50135487      16.32345281        1       0.00119418       0.00247950       0.14266799       0.01365412      -0.02346501       0.18657272      -0.07816039       0.07577488      -0.33233050
Cu       1.26684051       6.65024743      16.28095032        1       0.00467785       0.00791060       0.13243753      -0.00130981       0.00727979       0.13847007      -0.05147725      -0.02810715       0.00579412
Cu       3.82390353       6.69116448      16.27666625        1      -0.00514682       0.00824909       0.13231813      -0.00259613       0.00451702       0.13564729      -0.00902894       0.04126407      -0.02916967
Cu       6.41796568       6.68123374      16.26214878        1      -0.00077972       0.01166310       0.12904014      -0.00278399       0.00813879       0.13035594       0.00438853       0.04909141      -0.01330511
O        7.42492351       2.84402341      18.93536982        0       0.00564367       0.04815948       0.06433991       0.01087181      -0.01954379       0.02068951      -0.26772155      -0.31559273       0.09578202
C        6.69058559       3.42325885      17.91424942        0      -0.00916652       0.02607191       0.07744887      -0.02172752       0.03699359       0.01777304       0.54162367      -0.40039380       0.29467161
H        7.01316558       1.96965274      19.13099802        0       0.08585419       0.00513112       0.00126857       0.00833522      -0.01364935      -0.01101744      -0.24839958       0.37727124      -0.04543743
O        5.66511932       4.10466016      18.22618886        0       0.01312233       0.01206545       0.02780369       0.01494562      -0.02890404       0.02862615       0.19852170       0.28399625       0.12642488
40
Lattice="7.700392847121503 0.0 0.0 0.0 8.891647766302935 0.0 0.0 0.0 26.3637743517507" Properties=species:S:1:pos:R:3:tags:I:1:MACE_forces:R:3:forces:R:3:DFT_forces:R:3 method=neb MACE_energy=-162.021431302325 energy=-162.10200129477914 stress="0.008795264645495418 0.00011656477790891593 -2.9569974072722832e-05 0.00011656477790891593 0.008634118939168078 6.0141823762087764e-05 -2.9569974072722832e-05 6.0141823762087764e-05 -0.00022290270273621232" free_energy=-162.10200129477914 DFT_energy=-163.33372564 pbc="T T T"
Cu       1.28339881       0.74097065      12.12125812        3       0.00000000       0.00000000       0.00000000       0.00220675       0.00041103       0.12990664       0.01827579      -0.00098607       0.28325521
Cu       3.85019642       0.74097065      12.12125812        3       0.00000000       0.00000000       0.00000000      -0.00146444      -0.00030530       0.12628216       0.00666003      -0.00142390       0.32101387
Cu       6.41699404       0.74097065      12.12125812        3       0.00000000       0.00000000       0.00000000      -0.00069660      -0.00314441       0.12278106      -0.02120227      -0.01416310       0.25715679
Cu       0.00000000       2.96388259      12.12125812        3       0.00000000       0.00000000       0.00000000       0.00213822       0.00284214       0.12358441       0.03774934      -0.00746778       0.27926689
Cu       2.56679762       2.96388259      12.12125812        3       0.00000000       0.00000000       0.00000000      -0.00084266       0.00010888       0.12519778       0.01358153       0.02468027       0.28873920
Cu       5.13359523       2.96388259      12.12125812        3       0.00000000       0.00000000       0.00000000      -0.00187751       0.00377398       0.12944610      -0.04884769      -0.01931543       0.23071588
Cu       1.28339881       5.18679453      12.12125812        3       0.00000000       0.00000000       0.00000000       0.00068372      -0.00121997       0.12278985       0.02492865      -0.01150982       0.28810531
Cu       3.85019642       5.18679453      12.12125812        3       0.00000000       0.00000000       0.00000000      -0.00008429      -0.00004677       0.12208298      -0.01733687      -0.02909273       0.26865647
Cu       6.41699404       5.18679453      12.12125812        3       0.00000000       0.00000000       0.00000000      -0.00060268      -0.00091558       0.12726778       0.00666786       0.01188346       0.24712979
Cu       0.00000000       7.40970647      12.12125812        3       0.00000000       0.00000000       0.00000000       0.00013774      -0.00145973       0.12761299       0.01625950      -0.01634053       0.35343870
Cu       2.56679762       7.40970647      12.12125812        3       0.00000000       0.00000000       0.00000000       0.00097586      -0.00018748       0.12755945      -0.00834247      -0.02043418       0.32043850
Cu       5.13359523       7.40970647      12.12125812        3       0.00000000       0.00000000       0.00000000      -0.00082412       0.00025215       0.12463986       0.00479646       0.00272144       0.33871074
Cu       0.00000000       1.48194129      14.24251623        2       0.00000000       0.00000000       0.00000000      -0.02030762       0.00727762      -0.24248339      -0.02336266      -0.02515884      -0.33318691
Cu       2.56679762       1.48194129      14.24251623        2       0.00000000       0.00000000       0.00000000       0.00108271      -0.01273597      -0.32219477      -0.04539541      -0.02241530      -0.33916557
Cu       5.13359523       1.48194129      14.24251623        2       0.00000000       0.00000000       0.00000000       0.03444356       0.00267876      -0.29030559       0.08812306       0.03207380      -0.22048620
Cu       1.28339881       3.70485324      14.24251623        2       0.00000000       0.00000000       0.00000000      -0.01531833      -0.04425246      -0.32345571      -0.08813812      -0.02059488      -0.29748853
Cu       3.85019642       3.70485324      14.24251623        2       0.00000000       0.00000000       0.00000000       0.08307649       0.01020870      -0.16097276       0.07507484       0.05592164      -0.19063797
Cu       6.41699404       3.70485324      14.24251623        2       0.00000000       0.00000000       0.00000000      -0.09704921       0.03547827      -0.14569641      -0.08597053       0.08734317      -0.29523311
Cu       0.00000000       5.92776518      14.24251623        2       0.00000000       0.00000000       0.00000000      -0.01104711      -0.00976909      -0.29403129      -0.01183490      -0.17702726      -0.13046409
Cu       2.56679762       5.92776518      14.24251623        2       0.00000000       0.00000000       0.00000000      -0.00081523       0.01057973      -0.31444962      -0.01824896      -0.01523250      -0.32386846
Cu       5.13359523       5.92776518      14.24251623        2       0.00000000       0.00000000       0.00000000       0.00987762      -0.04032440      -0.21918202      -0.01476447      -0.08902917      -0.21439006
Cu       1.28339881       8.15067712      14.24251623        2       0.00000000       0.00000000       0.00000000       0.00098262      -0.00171533      -0.28404401       0.00677819      -0.02269225      -0.30522360
Cu       3.85019642       8.15067712      14.24251623        2       0.00000000       0.00000000       0.00000000      -0.00393883       0.02323252      -0.31659574      -0.01831491       0.00489019      -0.35373207
Cu       6.41699404       8.15067712      14.24251623        2       0.00000000       0.00000000       0.00000000       0.01517658       0.03094903      -0.29891898       0.00189824       0.02956641      -0.34541580
Cu       7.70129563       8.87689606      16.28941685        1       0.00331234      -0.00754367       0.13032242       0.00357473      -0.00517264       0.12980999      -0.02520427      -0.03778676      -0.05688241
Cu       2.55502192       8.87497291      16.28482790        1       0.00178215      -0.00150696       0.13385348      -0.00283947      -0.00082853       0.13586750      -0.02555008       0.06598947       0.00892199
Cu       5.12653615       8.88641417      16.28053362        1      -0.00565002      -0.00684952       0.12874687      -0.00531873      -0.00623657       0.12771085       0.05741515       0.06689676       0.00964846
Cu       1.29719237       2.19021898      16.28070671        1       0.00664510      -0.00314283       0.12884233       0.00487888       0.00102155       0.12634010       0.13522996      -0.04769711      -0.05567328
Cu       3.82639694       2.19560500      16.26219114        1      -0.00553548      -0.00198850       0.12740453      -0.00389234       0.00212423       0.13265762      -0.03366627      -0.03176557      -0.02510780
Cu       6.43225303       2.20339975      16.29754844        1      -0.00031033       0.00288150       0.15116975      -0.00659331       0.01255436       0.13823323      -0.05025415       0.05738737       0.01644638
Cu       0.00066011       4.36713557      16.34458205        1       0.00014983       0.00130874       0.13467760      -0.00088954       0.00561881       0.13429531      -0.00325838       0.15292597      -0.07899447
Cu       2.52889372       4.44231146      16.27476090        1       0.00113493       0.00617480       0.12728174      -0.00422276       0.00783545       0.13114736      -0.03659423       0.03264290      -0.05626931
Cu       5.02884731       4.50870573      16.31217156        1       0.00162122       0.00373608       0.13856606       0.01365412      -0.02346501       0.18657272      -0.05965541       0.06892293      -0.33391429
Cu       1.26308686       6.65081660      16.28134921        1       0.00385410       0.00714392       0.13255011      -0.00130981       0.00727979       0.13847007      -0.04829717      -0.02794533       0.00844464
Cu       3.81874699       6.69599163      16.27578426        1      -0.00574738       0.00892686       0.13160039      -0.00259613       0.00451702       0.13564729      -0.00544992       0.03987329      -0.02989456
Cu       6.41724788       6.68503144      16.26118180        1      -0.00010753       0.01167850       0.12847459      -0.00278399       0.00813879       0.13035594       0.00480607       0.04136829      -0.01082665
O        7.33100344       2.86124507      18.99567547        0      -0.04838803       0.04422777       0.09616851       0.01087181      -0.01954379       0.02068951      -0.42378461      -0.06081840       0.35277331
C        6.64458562       3.41706448      17.93762465        0      -0.03612458       0.01917034       0.08370202      -0.02172752       0.03699359       0.01777304       0.72612313      -0.20094517       0.36434634
H        7.14859959       1.89310631      19.00200601        0       0.20034021      -0.04507709      -0.09188350       0.00833522      -0.01364935      -0.01101744      -0.48674653      -0.13425930      -0.08006815
O        5.65891062       4.16819042      18.21218094        0       0.01951469       0.04778232       0.02318906       0.01494562      -0.02890404       0.02862615       0.37585246       0.25901400      -0.16028517
40
Lattice="7.700392847121503 0.0 0.0 0.0 8.891647766302935 0.0 0.0 0.0 26.3637743517507" Properties=species:S:1:pos:R:3:tags:I:1:MACE_forces:R:3:forces:R:3:DFT_forces:R:3 method=neb MACE_energy=-162.1669047334235 energy=-162.10200129477914 stress="0.008795264645495418 0.00011656477790891593 -2.9569974072722832e-05 0.00011656477790891593 0.008634118939168078 6.0141823762087764e-05 -2.9569974072722832e-05 6.0141823762087764e-05 -0.00022290270273621232" free_energy=-162.10200129477914 DFT_energy=-163.63982611 pbc="T T T"
Cu       1.28339881       0.74097065      12.12125812        3       0.00000000       0.00000000       0.00000000       0.00220675       0.00041103       0.12990664       0.01782825       0.00114695       0.28626274
Cu       3.85019642       0.74097065      12.12125812        3       0.00000000       0.00000000       0.00000000      -0.00146444      -0.00030530       0.12628216       0.00399938       0.00214561       0.31765162
Cu       6.41699404       0.74097065      12.12125812        3       0.00000000       0.00000000       0.00000000      -0.00069660      -0.00314441       0.12278106      -0.02043433      -0.01515029       0.25541247
Cu       0.00000000       2.96388259      12.12125812        3       0.00000000       0.00000000       0.00000000       0.00213822       0.00284214       0.12358441       0.03945054      -0.00359231       0.27776204
Cu       2.56679762       2.96388259      12.12125812        3       0.00000000       0.00000000       0.00000000      -0.00084266       0.00010888       0.12519778       0.01170936       0.02295651       0.28995635
Cu       5.13359523       2.96388259      12.12125812        3       0.00000000       0.00000000       0.00000000      -0.00187751       0.00377398       0.12944610      -0.04972760      -0.01769526       0.22689871
Cu       1.28339881       5.18679453      12.12125812        3       0.00000000       0.00000000       0.00000000       0.00068372      -0.00121997       0.12278985       0.02201300      -0.01031421       0.28657617
Cu       3.85019642       5.18679453      12.12125812        3       0.00000000       0.00000000       0.00000000      -0.00008429      -0.00004677       0.12208298      -0.01774735      -0.02464837       0.26498470
Cu       6.41699404       5.18679453      12.12125812        3       0.00000000       0.00000000       0.00000000      -0.00060268      -0.00091558       0.12726778       0.00739148       0.01688087       0.24118633
Cu       0.00000000       7.40970647      12.12125812        3       0.00000000       0.00000000       0.00000000       0.00013774      -0.00145973       0.12761299       0.00868634      -0.02186381       0.35404991
Cu       2.56679762       7.40970647      12.12125812        3       0.00000000       0.00000000       0.00000000       0.00097586      -0.00018748       0.12755945      -0.00697212      -0.02159083       0.31879566
Cu       5.13359523       7.40970647      12.12125812        3       0.00000000       0.00000000       0.00000000      -0.00082412       0.00025215       0.12463986       0.00905301      -0.00327112       0.33686500
Cu       0.00000000       1.48194129      14.24251623        2       0.00000000       0.00000000       0.00000000      -0.02030762       0.00727762      -0.24248339      -0.03792326      -0.02193930      -0.31060116
Cu       2.56679762       1.48194129      14.24251623        2       0.00000000       0.00000000       0.00000000       0.00108271      -0.01273597      -0.32219477      -0.04946352      -0.02121329      -0.33195309
Cu       5.13359523       1.48194129      14.24251623        2       0.00000000       0.00000000       0.00000000       0.03444356       0.00267876      -0.29030559       0.09232400       0.03397338      -0.20637857
Cu       1.28339881       3.70485324      14.24251623        2       0.00000000       0.00000000       0.00000000      -0.01531833      -0.04425246      -0.32345571      -0.09429529      -0.02667664      -0.27815712
Cu       3.85019642       3.70485324      14.24251623        2       0.00000000       0.00000000       0.00000000       0.08307649       0.01020870      -0.16097276       0.07126709       0.05785718      -0.18969943
Cu       6.41699404       3.70485324      14.24251623        2       0.00000000       0.00000000       0.00000000      -0.09704921       0.03547827      -0.14569641      -0.08303650       0.08567565      -0.28094545
Cu       0.00000000       5.92776518      14.24251623        2       0.00000000       0.00000000       0.00000000      -0.01104711      -0.00976909      -0.29403129      -0.01594893      -0.17511489      -0.11839180
Cu       2.56679762       5.92776518      14.24251623        2       0.00000000       0.00000000       0.00000000      -0.00081523       0.01057973      -0.31444962      -0.01968359      -0.00999373      -0.32354055
Cu       5.13359523       5.92776518      14.24251623        2       0.00000000       0.00000000       0.00000000       0.00987762      -0.04032440      -0.21918202      -0.01657756      -0.07815127      -0.22480708
Cu       1.28339881       8.15067712      14.24251623        2       0.00000000       0.00000000       0.00000000       0.00098262      -0.00171533      -0.28404401       0.00043953      -0.02718586      -0.30201732
Cu       3.85019642       8.15067712      14.24251623        2       0.00000000       0.00000000       0.00000000      -0.00393883       0.02323252      -0.31659574      -0.02237783       0.00856231      -0.35388304
Cu       6.41699404       8.15067712      14.24251623        2       0.00000000       0.00000000       0.00000000       0.01517658       0.03094903      -0.29891898       0.00644413       0.03651231      -0.33091233
Cu       7.69944610       8.88034351      16.29377174        1       0.00214967      -0.00605970       0.13166487       0.00357473      -0.00517264       0.12980999      -0.01182513      -0.04101244      -0.06505773
Cu       2.55269730       8.87707364      16.28466075        1       0.00145081      -0.00185087       0.13338336      -0.00283947      -0.00082853       0.13586750      -0.03262127       0.07587246       0.02394872
Cu       5.12448272       8.88695338      16.28049598        1      -0.00636867      -0.00713313       0.12879115      -0.00531873      -0.00623657       0.12771085       0.04833163       0.05318314      -0.00137635
Cu       1.29102673       2.19135647      16.28823874        1       0.00459079      -0.00285532       0.13138239       0.00487888       0.00102155       0.12634010       0.15618309      -0.05140306      -0.12815779
Cu       3.82383962       2.19856875      16.26350227        1      -0.00689318      -0.00184318       0.12772107      -0.00389234       0.00212423       0.13265762      -0.05335728      -0.03749105      -0.03159041
Cu       6.42399349       2.20632634      16.30117554        1      -0.00448781       0.00511045       0.14289416      -0.00659331       0.01255436       0.13823323      -0.01617127       0.07494303       0.02462988
Cu      -0.00221084       4.36348706      16.34689936        1      -0.00231569      -0.00126727       0.13660109      -0.00088954       0.00561881       0.13429531       0.02891636       0.17255778      -0.11215182
Cu       2.52560961       4.44292313      16.27536542        1       0.00135798       0.00603721       0.12766400      -0.00422276       0.00783545       0.13114736      -0.04461022       0.02265926      -0.04941009
Cu       5.02707078       4.51534264      16.30696894        1       0.00435744       0.00365291       0.13946841       0.01365412      -0.02346501       0.18657272      -0.03022824       0.05323023      -0.29541801
Cu       1.26003768       6.65046998      16.28185296        1       0.00361512       0.00646410       0.13260783      -0.00130981       0.00727979       0.13847007      -0.04115712      -0.02121134       0.00692257
Cu       3.81508606       6.69893506      16.27528585        1      -0.00597953       0.00823011       0.13184571      -0.00259613       0.00451702       0.13564729      -0.00367653       0.03479263      -0.02641281
Cu       6.41723022       6.68647624      16.26089330        1       0.00019534       0.01228904       0.12816610      -0.00278399       0.00813879       0.13035594       0.00209625       0.03856587      -0.00683078
O        7.15265181       2.79066698      19.04469606        0      -0.09378628      -0.01915010       0.07947034       0.01087181      -0.01954379       0.02068951      -0.31780506      -0.05424809       0.36292333
C        6.57027280       3.37575892      17.96552446        0       0.00783239      -0.03446379       0.05176561      -0.02172752       0.03699359       0.01777304       0.59581460      -0.06282268       0.34251815
H        7.47065622       1.88562876      18.81718275        0       0.27994355       0.01371718      -0.12405119       0.00833522      -0.01364935      -0.01101744      -0.35858417      -0.51862794       0.02179000
O        5.64790155       4.20691614      18.21553783        0      -0.01666136       0.08679309       0.04888292       0.01494562      -0.02890404       0.02862615       0.22227615       0.47370260      -0.27144163
40
Lattice="7.700392847121503 0.0 0.0 0.0 8.891647766302935 0.0 0.0 0.0 26.3637743517507" Properties=species:S:1:pos:R:3:tags:I:1:MACE_forces:R:3:forces:R:3:DFT_forces:R:3 method=neb MACE_energy=-162.11242277529584 energy=-162.10200129477914 stress="0.008795264645495418 0.00011656477790891593 -2.9569974072722832e-05 0.00011656477790891593 0.008634118939168078 6.0141823762087764e-05 -2.9569974072722832e-05 6.0141823762087764e-05 -0.00022290270273621232" free_energy=-162.10200129477914 DFT_energy=-163.86052361 pbc="T T T"
Cu       1.28339881       0.74097065      12.12125812        3       0.00000000       0.00000000       0.00000000       0.00220675       0.00041103       0.12990664       0.02091020       0.01911230       0.29121598
Cu       3.85019642       0.74097065      12.12125812        3       0.00000000       0.00000000       0.00000000      -0.00146444      -0.00030530       0.12628216      -0.01063944       0.01304143       0.29183662
Cu       6.41699404       0.74097065      12.12125812        3       0.00000000       0.00000000       0.00000000      -0.00069660      -0.00314441       0.12278106      -0.00775763      -0.00866042       0.24521845
Cu       0.00000000       2.96388259      12.12125812        3       0.00000000       0.00000000       0.00000000       0.00213822       0.00284214       0.12358441       0.05060546      -0.00036529       0.25146402
Cu       2.56679762       2.96388259      12.12125812        3       0.00000000       0.00000000       0.00000000      -0.00084266       0.00010888       0.12519778       0.00289553      -0.00148628       0.27224468
Cu       5.13359523       2.96388259      12.12125812        3       0.00000000       0.00000000       0.00000000      -0.00187751       0.00377398       0.12944610      -0.04526516      -0.01711570       0.22351722
Cu       1.28339881       5.18679453      12.12125812        3       0.00000000       0.00000000       0.00000000       0.00068372      -0.00121997       0.12278985       0.00508043      -0.01034752       0.28811486
Cu       3.85019642       5.18679453      12.12125812        3       0.00000000       0.00000000       0.00000000      -0.00008429      -0.00004677       0.12208298      -0.01654014      -0.01254857       0.26016454
Cu       6.41699404       5.18679453      12.12125812        3       0.00000000       0.00000000       0.00000000      -0.00060268      -0.00091558       0.12726778       0.01675424       0.02921511       0.23174560
Cu       0.00000000       7.40970647      12.12125812        3       0.00000000       0.00000000       0.00000000       0.00013774      -0.00145973       0.12761299      -0.00162436      -0.04279216       0.35248752
Cu       2.56679762       7.40970647      12.12125812        3       0.00000000       0.00000000       0.00000000       0.00097586      -0.00018748       0.12755945      -0.00042786      -0.01817221       0.32545304
Cu       5.13359523       7.40970647      12.12125812        3       0.00000000       0.00000000       0.00000000      -0.00082412       0.00025215       0.12463986       0.00860101      -0.02264184       0.35000580
Cu       0.00000000       1.48194129      14.24251623        2       0.00000000       0.00000000       0.00000000      -0.02030762       0.00727762      -0.24248339      -0.07680575      -0.00772904      -0.25930770
Cu       2.56679762       1.48194129      14.24251623        2       0.00000000       0.00000000       0.00000000       0.00108271      -0.01273597      -0.32219477      -0.02168751      -0.02527475      -0.28247452
Cu       5.13359523       1.48194129      14.24251623        2       0.00000000       0.00000000       0.00000000       0.03444356       0.00267876      -0.29030559       0.08676632       0.01142891      -0.25419536
Cu       1.28339881       3.70485324      14.24251623        2       0.00000000       0.00000000       0.00000000      -0.01531833      -0.04425246      -0.32345571      -0.05066811      -0.04207379      -0.29428264
Cu       3.85019642       3.70485324      14.24251623        2       0.00000000       0.00000000       0.00000000       0.08307649       0.01020870      -0.16097276       0.08522909       0.05403084      -0.16483449
Cu       6.41699404       3.70485324      14.24251623        2       0.00000000       0.00000000       0.00000000      -0.09704921       0.03547827      -0.14569641      -0.09306567       0.04735757      -0.25526010
Cu       0.00000000       5.92776518      14.24251623        2       0.00000000       0.00000000       0.00000000      -0.01104711      -0.00976909      -0.29403129      -0.00965634      -0.06904871      -0.20790443
Cu       2.56679762       5.92776518      14.24251623        2       0.00000000       0.00000000       0.00000000      -0.00081523       0.01057973      -0.31444962      -0.01230088       0.01004546      -0.30968661
Cu       5.13359523       5.92776518      14.24251623        2       0.00000000       0.00000000       0.00000000       0.00987762      -0.04032440      -0.21918202      -0.00486760      -0.09916222      -0.17523785
Cu       1.28339881       8.15067712      14.24251623        2       0.00000000       0.00000000       0.00000000       0.00098262      -0.00171533      -0.28404401       0.00241434      -0.01880037      -0.30113274
Cu       3.85019642       8.15067712      14.24251623        2       0.00000000       0.00000000       0.00000000      -0.00393883       0.02323252      -0.31659574      -0.01696161       0.01639647      -0.33343965
Cu       6.41699404       8.15067712      14.24251623        2       0.00000000       0.00000000       0.00000000       0.01517658       0.03094903      -0.29891898       0.01044557       0.06107327      -0.29473234
Cu       7.70502126       8.88765170      16.29842198        1       0.00385023      -0.01021234       0.12783332       0.00357473      -0.00517264       0.12980999       0.01325787      -0.06891985      -0.11039156
Cu       2.55828402       8.88801686      16.28635130        1      -0.00074305      -0.00423542       0.13283951      -0.00283947      -0.00082853       0.13586750      -0.02019148       0.06295124       0.02679046
Cu       5.12985740       8.88610852      16.28379026        1      -0.00795102      -0.01089651       0.12540044      -0.00531873      -0.00623657       0.12771085       0.00581486      -0.00814341      -0.03672543
Cu       1.28641293       2.21171087      16.29060237        1       0.00566557      -0.00132968       0.12635587       0.00487888       0.00102155       0.12634010       0.11789995      -0.00019254      -0.09090893
Cu       3.83561976       2.20216941      16.26783623        1      -0.00890902      -0.00051155       0.12706868      -0.00389234       0.00212423       0.13265762      -0.12553489      -0.04343044      -0.07907412
Cu       6.42484161       2.20989902      16.29501024        1      -0.00454341       0.00699797       0.13351126      -0.00659331       0.01255436       0.13823323       0.01462256       0.11834880       0.11054656
Cu       0.00853275       4.42414559      16.28994198        1      -0.01107479      -0.00404968       0.14243660      -0.00088954       0.00561881       0.13429531       0.08068461       0.16599698      -0.13902933
Cu       2.53984587       4.44794430      16.27312641        1      -0.00493107       0.00659771       0.12840907      -0.00422276       0.00783545       0.13114736      -0.05883916       0.02001834      -0.03890871
Cu       5.06619255       4.52340310      16.32110298        1       0.01958326      -0.02829794       0.18947325       0.01365412      -0.02346501       0.18657272      -0.00267186       0.07681586      -0.18878789
Cu       1.27382555       6.66801122      16.28423743        1       0.00168533       0.00254708       0.13394218      -0.00130981       0.00727979       0.13847007      -0.03981767      -0.01287043       0.02461209
Cu       3.82549128       6.69755641      16.27831870        1      -0.00517972       0.00505929       0.13264078      -0.00259613       0.00451702       0.13564729      -0.01008103       0.03849129      -0.01636530
Cu       6.42330086       6.68826244      16.26849609        1      -0.00072594       0.00618740       0.12897468      -0.00278399       0.00813879       0.13035594       0.01721687       0.04973964       0.01304473
O        6.64249912       2.34918551      19.14014533        0       0.04398366      -0.03206429       0.02355529       0.01087181      -0.01954379       0.02068951       0.16496304      -0.17248749       0.39006681
C        6.18915218       3.02905391      18.07242691        0       0.00412926       0.03974042       0.01464443      -0.02172752       0.03699359       0.01777304       0.21702520      -0.07925813       0.24137143
H        7.14334874       1.54445827      18.85015623        0       0.05070354       0.00788818      -0.00600529       0.00833522      -0.01364935      -0.01101744      -0.02749306      -0.54289432      -0.25422283
O        5.48032610       4.03916327      18.29474886        0       0.00738390      -0.01030321       0.02483703       0.01494562      -0.02890404       0.02862615      -0.26828993       0.53035195      -0.10299789
40
Lattice="7.700392847121503 0.0 0.0 0.0 8.891647766302935 0.0 0.0 0.0 26.3637743517507" Properties=species:S:1:pos:R:3:tags:I:1:MACE_forces:R:3:forces:R:3:DFT_forces:R:3 method=neb MACE_energy=-162.09596276242843 energy=-162.10200129477914 stress="0.008795264645495418 0.00011656477790891593 -2.9569974072722832e-05 0.00011656477790891593 0.008634118939168078 6.0141823762087764e-05 -2.9569974072722832e-05 6.0141823762087764e-05 -0.00022290270273621232" free_energy=-162.10200129477914 DFT_energy=-163.87366223 pbc="T T T"
Cu       1.28339881       0.74097065      12.12125812        3       0.00000000       0.00000000       0.00000000       0.00220675       0.00041103       0.12990664       0.02128393       0.02461367       0.29135439
Cu       3.85019642       0.74097065      12.12125812        3       0.00000000       0.00000000       0.00000000      -0.00146444      -0.00030530       0.12628216      -0.01441398       0.01511984       0.28536838
Cu       6.41699404       0.74097065      12.12125812        3       0.00000000       0.00000000       0.00000000      -0.00069660      -0.00314441       0.12278106      -0.00609926      -0.00626258       0.24423847
Cu       0.00000000       2.96388259      12.12125812        3       0.00000000       0.00000000       0.00000000       0.00213822       0.00284214       0.12358441       0.05290058       0.00052440       0.24492186
Cu       2.56679762       2.96388259      12.12125812        3       0.00000000       0.00000000       0.00000000      -0.00084266       0.00010888       0.12519778      -0.00156711      -0.00609343       0.26711001
Cu       5.13359523       2.96388259      12.12125812        3       0.00000000       0.00000000       0.00000000      -0.00187751       0.00377398       0.12944610      -0.04405588      -0.01695142       0.22245716
Cu       1.28339881       5.18679453      12.12125812        3       0.00000000       0.00000000       0.00000000       0.00068372      -0.00121997       0.12278985       0.00168672      -0.01162330       0.29060259
Cu       3.85019642       5.18679453      12.12125812        3       0.00000000       0.00000000       0.00000000      -0.00008429      -0.00004677       0.12208298      -0.01804094      -0.00988549       0.25712167
Cu       6.41699404       5.18679453      12.12125812        3       0.00000000       0.00000000       0.00000000      -0.00060268      -0.00091558       0.12726778       0.01836753       0.03149524       0.23287560
Cu       0.00000000       7.40970647      12.12125812        3       0.00000000       0.00000000       0.00000000       0.00013774      -0.00145973       0.12761299      -0.00311532      -0.04520673       0.35030493
Cu       2.56679762       7.40970647      12.12125812        3       0.00000000       0.00000000       0.00000000       0.00097586      -0.00018748       0.12755945      -0.00039154      -0.01636482       0.32672340
Cu       5.13359523       7.40970647      12.12125812        3       0.00000000       0.00000000       0.00000000      -0.00082412       0.00025215       0.12463986       0.00695221      -0.02541786       0.35060881
Cu       0.00000000       1.48194129      14.24251623        2       0.00000000       0.00000000       0.00000000      -0.02030762       0.00727762      -0.24248339      -0.08219634      -0.00278284      -0.24362508
Cu       2.56679762       1.48194129      14.24251623        2       0.00000000       0.00000000       0.00000000       0.00108271      -0.01273597      -0.32219477       0.00040955      -0.02798130      -0.27335646
Cu       5.13359523       1.48194129      14.24251623        2       0.00000000       0.00000000       0.00000000       0.03444356       0.00267876      -0.29030559       0.08722661       0.00490347      -0.26899341
Cu       1.28339881       3.70485324      14.24251623        2       0.00000000       0.00000000       0.00000000      -0.01531833      -0.04425246      -0.32345571      -0.03857217      -0.04520156      -0.30686541
Cu       3.85019642       3.70485324      14.24251623        2       0.00000000       0.00000000       0.00000000       0.08307649       0.01020870      -0.16097276       0.08955085       0.04086392      -0.16715947
Cu       6.41699404       3.70485324      14.24251623        2       0.00000000       0.00000000       0.00000000      -0.09704921       0.03547827      -0.14569641      -0.08900444       0.02721587      -0.23880748
Cu       0.00000000       5.92776518      14.24251623        2       0.00000000       0.00000000       0.00000000      -0.01104711      -0.00976909      -0.29403129      -0.00619047      -0.04992182      -0.23226389
Cu       2.56679762       5.92776518      14.24251623        2       0.00000000       0.00000000       0.00000000      -0.00081523       0.01057973      -0.31444962      -0.00741163       0.01159335      -0.30931381
Cu       5.13359523       5.92776518      14.24251623        2       0.00000000       0.00000000       0.00000000       0.00987762      -0.04032440      -0.21918202       0.00004039      -0.10162593      -0.18073881
Cu       1.28339881       8.15067712      14.24251623        2       0.00000000       0.00000000       0.00000000       0.00098262      -0.00171533      -0.28404401       0.00816658      -0.01739957      -0.30575406
Cu       3.85019642       8.15067712      14.24251623        2       0.00000000       0.00000000       0.00000000      -0.00393883       0.02323252      -0.31659574      -0.00983541       0.01916822      -0.32893576
Cu       6.41699404       8.15067712      14.24251623        2       0.00000000       0.00000000       0.00000000       0.01517658       0.03094903      -0.29891898       0.01082129       0.06322349      -0.28976040
Cu       7.71093778       8.88412417      16.29751710        1       0.00364664      -0.00489782       0.13142184       0.00357473      -0.00517264       0.12980999       0.01434638      -0.06208287      -0.10593340
Cu       2.56429473       8.88610117      16.28652921        1      -0.00416389      -0.00066976       0.13499691      -0.00283947      -0.00082853       0.13586750      -0.01693231       0.06380839       0.02546772
Cu       5.13544898       8.88255333      16.28606806        1      -0.00731479      -0.00793222       0.12529374      -0.00531873      -0.00623657       0.12771085      -0.00172588      -0.02418433      -0.04962413
Cu       1.29532086       2.21141750      16.28684065        1       0.00030841      -0.00007249       0.12866022       0.00487888       0.00102155       0.12634010       0.09437632       0.01125966      -0.06783586
Cu       3.84752159       2.19727059      16.27144393        1      -0.01290630       0.00115383       0.12397784      -0.00389234       0.00212423       0.13265762      -0.14681499      -0.03693190      -0.09853180
Cu       6.43315009       2.20210595      16.29778014        1      -0.00831317       0.00510656       0.17730755      -0.00659331       0.01255436       0.13823323      -0.01653959       0.10433213       0.15884782
Cu       0.01723642       4.43133637      16.28024234        1      -0.00447115       0.00157833       0.13420807      -0.00088954       0.00561881       0.13429531       0.07109858       0.14323616      -0.12197257
Cu       2.54759453       4.44561235      16.27123582        1      -0.01410662       0.00762555       0.12925675      -0.00422276       0.00783545       0.13114736      -0.06700318       0.02367661      -0.03496901
Cu       5.07782313       4.52426719      16.31811854        1       0.01180016      -0.02277407       0.15678237       0.01365412      -0.02346501       0.18657272       0.00046414       0.08338496      -0.20251039
Cu       1.28079529       6.66811661      16.28377383        1      -0.00105324       0.00483037       0.13703746      -0.00130981       0.00727979       0.13847007      -0.03940471      -0.00986081       0.03022030
Cu       3.83160670       6.69409792      16.27836630        1      -0.01267826       0.01722259       0.13250969      -0.00259613       0.00451702       0.13564729      -0.02312859       0.05547474      -0.01598972
Cu       6.42768082       6.68649868      16.27015693        1       0.00327315       0.01265768       0.12754550      -0.00278399       0.00813879       0.13035594       0.02698693       0.05972377       0.01307769
O        6.52953436       2.30968258      19.17327003        0      -0.01240699      -0.05162637       0.01052580       0.01087181      -0.01954379       0.02068951       0.04781134      -0.20965506       0.37613543
C        6.10040968       2.96655473      18.08085171        0      -0.03232525       0.05505809       0.08317434      -0.02172752       0.03699359       0.01777304       0.21287674      -0.13714639       0.24142306
H        6.97193875       1.46042804      18.92364326        0       0.06046362       0.01018287      -0.05832735       0.00833522      -0.01364935      -0.01101744       0.06227787      -0.45868198      -0.19527310
O        5.43428140       4.01248942      18.27862946        0       0.05557083      -0.04053058       0.05126443       0.01494562      -0.02890404       0.02862615      -0.19520080       0.53764410      -0.17064527
40
Lattice="7.700392847121503 0.0 0.0 0.0 8.891647766302935 0.0 0.0 0.0 26.3637743517507" Properties=species:S:1:pos:R:3:tags:I:1:MACE_forces:R:3:forces:R:3:DFT_forces:R:3 method=neb MACE_energy=-162.09849097705748 energy=-162.10200129477914 stress="0.008795264645495418 0.00011656477790891593 -2.9569974072722832e-05 0.00011656477790891593 0.008634118939168078 6.0141823762087764e-05 -2.9569974072722832e-05 6.0141823762087764e-05 -0.00022290270273621232" free_energy=-162.10200129477914 DFT_energy=-163.87843841 pbc="T T T"
Cu       1.28339881       0.74097065      12.12125812        3       0.00000000       0.00000000       0.00000000       0.00220675       0.00041103       0.12990664       0.02124406       0.02635220       0.29109444
Cu       3.85019642       0.74097065      12.12125812        3       0.00000000       0.00000000       0.00000000      -0.00146444      -0.00030530       0.12628216      -0.01552521       0.01524883       0.28222756
Cu       6.41699404       0.74097065      12.12125812        3       0.00000000       0.00000000       0.00000000      -0.00069660      -0.00314441       0.12278106      -0.00474618      -0.00594438       0.24345655
Cu       0.00000000       2.96388259      12.12125812        3       0.00000000       0.00000000       0.00000000       0.00213822       0.00284214       0.12358441       0.05409186      -0.00022270       0.24317035
Cu       2.56679762       2.96388259      12.12125812        3       0.00000000       0.00000000       0.00000000      -0.00084266       0.00010888       0.12519778      -0.00344070      -0.00876531       0.26590400
Cu       5.13359523       2.96388259      12.12125812        3       0.00000000       0.00000000       0.00000000      -0.00187751       0.00377398       0.12944610      -0.04268567      -0.01642636       0.22445622
Cu       1.28339881       5.18679453      12.12125812        3       0.00000000       0.00000000       0.00000000       0.00068372      -0.00121997       0.12278985       0.00102768      -0.01208842       0.29110002
Cu       3.85019642       5.18679453      12.12125812        3       0.00000000       0.00000000       0.00000000      -0.00008429      -0.00004677       0.12208298      -0.01761282      -0.00903611       0.25827459
Cu       6.41699404       5.18679453      12.12125812        3       0.00000000       0.00000000       0.00000000      -0.00060268      -0.00091558       0.12726778       0.01840283       0.03150908       0.23437808
Cu       0.00000000       7.40970647      12.12125812        3       0.00000000       0.00000000       0.00000000       0.00013774      -0.00145973       0.12761299      -0.00337155      -0.04591785       0.34942475
Cu       2.56679762       7.40970647      12.12125812        3       0.00000000       0.00000000       0.00000000       0.00097586      -0.00018748       0.12755945       0.00005144      -0.01693592       0.32711604
Cu       5.13359523       7.40970647      12.12125812        3       0.00000000       0.00000000       0.00000000      -0.00082412       0.00025215       0.12463986       0.00629669      -0.02771184       0.35128730
Cu       0.00000000       1.48194129      14.24251623        2       0.00000000       0.00000000       0.00000000      -0.02030762       0.00727762      -0.24248339      -0.08019621      -0.00439751      -0.24609384
Cu       2.56679762       1.48194129      14.24251623        2       0.00000000       0.00000000       0.00000000       0.00108271      -0.01273597      -0.32219477       0.00879644      -0.02735982      -0.26779884
Cu       5.13359523       1.48194129      14.24251623        2       0.00000000       0.00000000       0.00000000       0.03444356       0.00267876      -0.29030559       0.07850656      -0.00091565      -0.28551928
Cu       1.28339881       3.70485324      14.24251623        2       0.00000000       0.00000000       0.00000000      -0.01531833      -0.04425246      -0.32345571      -0.03346260      -0.04436516      -0.31026649
Cu       3.85019642       3.70485324      14.24251623        2       0.00000000       0.00000000       0.00000000       0.08307649       0.01020870      -0.16097276       0.09746031       0.04050306      -0.15380182
Cu       6.41699404       3.70485324      14.24251623        2       0.00000000       0.00000000       0.00000000      -0.09704921       0.03547827      -0.14569641      -0.09188366       0.03041353      -0.23810909
Cu       0.00000000       5.92776518      14.24251623        2       0.00000000       0.00000000       0.00000000      -0.01104711      -0.00976909      -0.29403129      -0.00610624      -0.04241810      -0.24139714
Cu       2.56679762       5.92776518      14.24251623        2       0.00000000       0.00000000       0.00000000      -0.00081523       0.01057973      -0.31444962      -0.00587180       0.01194575      -0.30971961
Cu       5.13359523       5.92776518      14.24251623        2       0.00000000       0.00000000       0.00000000       0.00987762      -0.04032440      -0.21918202       0.00147788      -0.11541785      -0.16169066
Cu       1.28339881       8.15067712      14.24251623        2       0.00000000       0.00000000       0.00000000       0.00098262      -0.00171533      -0.28404401       0.00796278      -0.01761915      -0.30712307
Cu       3.85019642       8.15067712      14.24251623        2       0.00000000       0.00000000       0.00000000      -0.00393883       0.02323252      -0.31659574      -0.00821986       0.01865850      -0.32515150
Cu       6.41699404       8.15067712      14.24251623        2       0.00000000       0.00000000       0.00000000       0.01517658       0.03094903      -0.29891898       0.01110803       0.06338524      -0.28602392
Cu       7.71141995       8.88408657      16.29780952        1       0.00456257      -0.00660847       0.13114862       0.00357473      -0.00517264       0.12980999       0.01847296      -0.06415103      -0.10870021
Cu       2.56513323       8.88628532      16.28617864        1      -0.00273172      -0.00149989       0.13594002      -0.00283947      -0.00082853       0.13586750      -0.01482996       0.06098890       0.02689488
Cu       5.13612870       8.88184786      16.28664529        1      -0.00693718      -0.00905284       0.12618964      -0.00531873      -0.00623657       0.12771085      -0.00507052      -0.03447543      -0.05644982
Cu       1.29632063       2.21184423      16.28586611        1       0.00305989       0.00144058       0.12855465       0.00487888       0.00102155       0.12634010       0.09011271       0.01370896      -0.06054292
Cu       3.85085878       2.19719397      16.27392804        1      -0.01135960       0.00060338       0.12494405      -0.00389234       0.00212423       0.13265762      -0.15501470      -0.03930957      -0.10789654
Cu       6.43299832       2.20158614      16.29272270        1      -0.00732948       0.01112195       0.16450973      -0.00659331       0.01255436       0.13823323      -0.02240008       0.09729330       0.15306517
Cu       0.01859640       4.43469706      16.27703760        1      -0.00103276       0.00224883       0.13375656      -0.00088954       0.00561881       0.13429531       0.07290651       0.13347625      -0.11154166
Cu       2.55007943       4.44543359      16.27071142        1      -0.00864025       0.00715652       0.13069976      -0.00422276       0.00783545       0.13114736      -0.06264412       0.02361223      -0.03267839
Cu       5.08516487       4.52002251      16.32771372        1      -0.00103828       0.00009225       0.13867707       0.01365412      -0.02346501       0.18657272      -0.01466126       0.11005365      -0.21429728
Cu       1.28235619       6.66844851      16.28332173        1      -0.00137110       0.00633054       0.13833971      -0.00130981       0.00727979       0.13847007      -0.03815734      -0.00677350       0.03291738
Cu       3.83309947       6.69232782      16.27836371        1      -0.00640324       0.00964171       0.13407016      -0.00259613       0.00451702       0.13564729      -0.01643151       0.04860599      -0.01198890
Cu       6.42801702       6.68559314      16.27081535        1       0.00070502       0.00939667       0.12965044      -0.00278399       0.00813879       0.13035594       0.02731282       0.05950397       0.01626941
O        6.47536197       2.24849138      19.16199496        0       0.04133151      -0.10691573       0.02902316       0.01087181      -0.01954379       0.02068951       0.09848296      -0.25674523       0.38850937
C        6.06168301       2.93120297      18.07989592        0      -0.00025593      -0.00954865       0.13129492      -0.02172752       0.03699359       0.01777304       0.08789981      -0.03723439       0.17941057
H        6.93075513       1.40963109      18.89822440        0       0.03016090       0.00889308      -0.04445790       0.00833522      -0.01364935      -0.01101744       0.18308288      -0.48581074      -0.17046608
O        5.42427639       3.98807605      18.29602153        0      -0.02232846       0.06850206      -0.01970580       0.01494562      -0.02890404       0.02862615      -0.24236521       0.53478262      -0.15169961
40
Lattice="7.700392847121503 0.0 0.0 0.0 8.891647766302935 0.0 0.0 0.0 26.3637743517507" Properties=species:S:1:pos:R:3:tags:I:1:MACE_forces:R:3:forces:R:3:DFT_forces:R:3 method=neb MACE_energy=-162.10200129477914 energy=-162.10200129477914 stress="0.008795264645495418 0.00011656477790891593 -2.9569974072722832e-05 0.00011656477790891593 0.008634118939168078 6.0141823762087764e-05 -2.9569974072722832e-05 6.0141823762087764e-05 -0.00022290270273621232" free_energy=-162.10200129477914 DFT_energy=-163.88311465 pbc="T T T"
Cu       1.28339881       0.74097065      12.12125812        3       0.00000000       0.00000000       0.00000000       0.00220675       0.00041103       0.12990664       0.02094177       0.02824762       0.29060933
Cu       3.85019642       0.74097065      12.12125812        3       0.00000000       0.00000000       0.00000000      -0.00146444      -0.00030530       0.12628216      -0.01686595       0.01553468       0.27920214
Cu       6.41699404       0.74097065      12.12125812        3       0.00000000       0.00000000       0.00000000      -0.00069660      -0.00314441       0.12278106      -0.00386617      -0.00568057       0.24377467
Cu       0.00000000       2.96388259      12.12125812        3       0.00000000       0.00000000       0.00000000       0.00213822       0.00284214       0.12358441       0.05465312      -0.00061146       0.24198935
Cu       2.56679762       2.96388259      12.12125812        3       0.00000000       0.00000000       0.00000000      -0.00084266       0.00010888       0.12519778      -0.00523845      -0.01094210       0.26433670
Cu       5.13359523       2.96388259      12.12125812        3       0.00000000       0.00000000       0.00000000      -0.00187751       0.00377398       0.12944610      -0.04190620      -0.01550445       0.22597008
Cu       1.28339881       5.18679453      12.12125812        3       0.00000000       0.00000000       0.00000000       0.00068372      -0.00121997       0.12278985       0.00030273      -0.01233211       0.29184889
Cu       3.85019642       5.18679453      12.12125812        3       0.00000000       0.00000000       0.00000000      -0.00008429      -0.00004677       0.12208298      -0.01736628      -0.00768228       0.25886677
Cu       6.41699404       5.18679453      12.12125812        3       0.00000000       0.00000000       0.00000000      -0.00060268      -0.00091558       0.12726778       0.01792096       0.03211848       0.23572860
Cu       0.00000000       7.40970647      12.12125812        3       0.00000000       0.00000000       0.00000000       0.00013774      -0.00145973       0.12761299      -0.00422163      -0.04623689       0.34864548
Cu       2.56679762       7.40970647      12.12125812        3       0.00000000       0.00000000       0.00000000       0.00097586      -0.00018748       0.12755945       0.00044037      -0.01724107       0.32754360
Cu       5.13359523       7.40970647      12.12125812        3       0.00000000       0.00000000       0.00000000      -0.00082412       0.00025215       0.12463986       0.00552330      -0.02972222       0.35099101
Cu       0.00000000       1.48194129      14.24251623        2       0.00000000       0.00000000       0.00000000      -0.02030762       0.00727762      -0.24248339      -0.08504516      -0.00186266      -0.23708131
Cu       2.56679762       1.48194129      14.24251623        2       0.00000000       0.00000000       0.00000000       0.00108271      -0.01273597      -0.32219477       0.01277715      -0.02711697      -0.26434125
Cu       5.13359523       1.48194129      14.24251623        2       0.00000000       0.00000000       0.00000000       0.03444356       0.00267876      -0.29030559       0.07731022      -0.00194067      -0.29060680
Cu       1.28339881       3.70485324      14.24251623        2       0.00000000       0.00000000       0.00000000      -0.01531833      -0.04425246      -0.32345571      -0.02984445      -0.04469787      -0.31471045
Cu       3.85019642       3.70485324      14.24251623        2       0.00000000       0.00000000       0.00000000       0.08307649       0.01020870      -0.16097276       0.09741863       0.03740037      -0.15281224
Cu       6.41699404       3.70485324      14.24251623        2       0.00000000       0.00000000       0.00000000      -0.09704921       0.03547827      -0.14569641      -0.09100585       0.02337548      -0.23204386
Cu       0.00000000       5.92776518      14.24251623        2       0.00000000       0.00000000       0.00000000      -0.01104711      -0.00976909      -0.29403129      -0.00581179      -0.03650498      -0.24930811
Cu       2.56679762       5.92776518      14.24251623        2       0.00000000       0.00000000       0.00000000      -0.00081523       0.01057973      -0.31444962      -0.00542780       0.01289076      -0.30953891
Cu       5.13359523       5.92776518      14.24251623        2       0.00000000       0.00000000       0.00000000       0.00987762      -0.04032440      -0.21918202       0.00241691      -0.11563372      -0.16003591
Cu       1.28339881       8.15067712      14.24251623        2       0.00000000       0.00000000       0.00000000       0.00098262      -0.00171533      -0.28404401       0.00678632      -0.01714533      -0.30740426
Cu       3.85019642       8.15067712      14.24251623        2       0.00000000       0.00000000       0.00000000      -0.00393883       0.02323252      -0.31659574      -0.00719590       0.02069439      -0.32374320
Cu       6.41699404       8.15067712      14.24251623        2       0.00000000       0.00000000       0.00000000       0.01517658       0.03094903      -0.29891898       0.01162576       0.06531406      -0.28381395
Cu       7.71186136       8.88416609      16.29851925        1       0.00357473      -0.00517264       0.12980999       0.00357473      -0.00517264       0.12980999       0.01917683      -0.06126845      -0.11206591
Cu       2.56557566       8.88660954      16.28610357        1      -0.00283947      -0.00082853       0.13586750      -0.00283947      -0.00082853       0.13586750      -0.01515335       0.06027612       0.02655150
Cu       5.13645311       8.88113173      16.28696868        1      -0.00531873      -0.00623657       0.12771085      -0.00531873      -0.00623657       0.12771085      -0.00613322      -0.03728433      -0.06083609
Cu       1.29644449       2.21246599      16.28557493        1       0.00487888       0.00102155       0.12634010       0.00487888       0.00102155       0.12634010       0.08234149       0.01470468      -0.05608858
Cu       3.85252771       2.19710251      16.27507136        1      -0.00389234       0.00212423       0.13265762      -0.00389234       0.00212423       0.13265762      -0.15438215      -0.03740244      -0.10930229
Cu       6.43190471       2.20180769      16.29558107        1      -0.00659331       0.01255436       0.13823323      -0.00659331       0.01255436       0.13823323      -0.03076392       0.08718305       0.12694928
Cu       0.01970343       4.43713663      16.27424344        1      -0.00088954       0.00561881       0.13429531      -0.00088954       0.00561881       0.13429531       0.06729910       0.12570370      -0.10072853
Cu       2.55097909       4.44530420      16.27034086        1      -0.00422276       0.00783545       0.13114736      -0.00422276       0.00783545       0.13114736      -0.05707884       0.02498592      -0.03100075
Cu       5.08865509       4.51979784      16.32788371        1       0.01365412      -0.02346501       0.18657272       0.01365412      -0.02346501       0.18657272      -0.00427052       0.09583360      -0.17509196
Cu       1.28333249       6.66883769      16.28324767        1      -0.00130981       0.00727979       0.13847007      -0.00130981       0.00727979       0.13847007      -0.03701545      -0.00354808       0.03376374
Cu       3.83346358       6.69220022      16.27826382        1      -0.00259613       0.00451702       0.13564729      -0.00259613       0.00451702       0.13564729      -0.01218755       0.04327808      -0.00814624
Cu       6.42881635       6.68538541      16.27122620        1      -0.00278399       0.00813879       0.13035594      -0.00278399       0.00813879       0.13035594       0.02519497       0.06001312       0.01885398
O        6.43329602       2.19042360      19.15696485        0       0.01087181      -0.01954379       0.02068951       0.01087181      -0.01954379       0.02068951       0.08577554      -0.19957123       0.37691796
C        6.02885216       2.89963800      18.08847719        0      -0.02172752       0.03699359       0.01777304      -0.02172752       0.03699359       0.01777304       0.08492126      -0.14857949       0.23343265
H        6.90181854       1.36634534      18.86753421        0       0.00833522      -0.01364935      -0.01101744       0.00833522      -0.01364935      -0.01101744       0.25037398      -0.39494005      -0.29286193
O        5.41727527       3.97109154      18.30656432        0       0.01494562      -0.02890404       0.02862615       0.01494562      -0.02890404       0.02862615      -0.29241978       0.52589530      -0.10441324
