42
Lattice="6.2873444314750255 0.0 0.0 0.0 10.26719046282867 0.0 0.0 0.0 28.249757996450562" Properties=species:S:1:pos:R:3:initial_magmoms:R:1:MACE_forces:R:3:forces:R:3:DFT_forces:R:3 adsorbate_info="_JSON {\"top layer atom index\": 0, \"sites\": {}}" MACE_energy=-172.3466558469687 energy=-172.68390777786715 stress="0.007113738132670693 1.792224612788411e-05 -0.0002868335116124752 1.792224612788411e-05 0.008088443376786384 5.6695896194413424e-05 -0.0002868335116124752 5.6695896194413424e-05 0.0015478057087840054" free_energy=-172.68390777786715 DFT_energy=-174.48197881 pbc="T T T"
Cu       4.13545721       1.27461027      18.11928401       0.00000000      -0.00732503       0.01112060       0.15293283      -0.00824550       0.00143202       0.13805761       0.05367725      -0.10823493      -0.12794400
Cu       4.11064317       3.88102606      18.12872057       0.00000000      -0.00834857      -0.00510534       0.14781864      -0.00549469      -0.00866168       0.14278076       0.06301129       0.10620360      -0.19461440
Cu       4.11555669       6.36195983      18.11178435       0.00000000      -0.00951674       0.00661643       0.13691907      -0.00648078       0.00262689       0.13715718       0.06315820       0.09783675       0.02607384
Cu       4.13147466       9.04840584      18.09967661       0.00000000      -0.00231252      -0.00959005       0.17648395      -0.00028127       0.00555582       0.16027484       0.08737041      -0.01761790       0.04841210
Cu       2.05827417      10.26897787      17.39564598       0.00000000       0.00306968       0.00741306       0.11730859       0.00638148       0.00375340       0.12663823      -0.03686635       0.02384389      -0.09422508
Cu       2.02722208       2.56463806      17.37177013       0.00000000       0.00414966       0.00223902       0.11898362       0.00626380      -0.00357783       0.12541429      -0.01099474       0.00106094      -0.02903260
Cu       2.04227748       5.12615004      17.39555437       0.00000000      -0.00301208      -0.00350975       0.10840881       0.00484510      -0.00102018       0.11980361      -0.01816451       0.02100353      -0.08504822
Cu       2.05509979       7.69933376      17.39364864       0.00000000      -0.00612090       0.00545366       0.11049495       0.00481382       0.00139180       0.11785705      -0.09954044      -0.00917954      -0.09331596
Cu       6.27418138       1.27085081      16.69898468       0.00000000      -0.00174239      -0.00043748       0.09720737       0.00027657      -0.00082288       0.09896256       0.07738171       0.01420951      -0.08127818
Cu       6.26663099       3.85788909      16.70126484       0.00000000      -0.00228698       0.00119980       0.09801637       0.00230185      -0.00184984       0.09219005       0.05109902      -0.01339926      -0.08910453
Cu       6.27319417       6.42065996      16.71521791       0.00000000       0.00024848      -0.00321529       0.08841629       0.00301628      -0.00049501       0.08956144       0.02938228      -0.00375696      -0.04139853
Cu       6.27427596       8.98195807      16.71702713       0.00000000       0.00030010       0.00630085       0.09069348       0.00209651       0.00335821       0.09219009       0.06188342       0.00313812      -0.09863631
Cu       4.19156295       0.00000000      15.99982400       0.00000000       0.00000000       0.00000000       0.00000000       0.06192391      -0.07112350      -0.44141036       0.07045061       0.03974129      -0.17783987
Cu       4.19156295       2.56679762      15.99982400       0.00000000       0.00000000       0.00000000       0.00000000       0.05297905       0.11419804      -0.35384648       0.09128848       0.01268931      -0.41161863
Cu       4.19156295       5.13359523      15.99982400       0.00000000       0.00000000       0.00000000       0.00000000       0.05900986      -0.13311331      -0.33770242       0.04259015      -0.03376042      -0.23837265
Cu       4.19156295       7.70039285      15.99982400       0.00000000       0.00000000       0.00000000       0.00000000       0.05801479       0.10742465      -0.38893962       0.10104735       0.01907047      -0.36139284
Cu       2.09578148       1.28339881      15.24984600       0.00000000       0.00000000       0.00000000       0.00000000       0.00048632      -0.00343857      -0.28218406       0.05243613      -0.00693781      -0.32615297
Cu       2.09578148       3.85019642      15.24984600       0.00000000       0.00000000       0.00000000       0.00000000      -0.00061921       0.00804541      -0.30329918       0.04839365       0.01233314      -0.29798557
Cu       2.09578148       6.41699404      15.24984600       0.00000000       0.00000000       0.00000000       0.00000000      -0.00074309      -0.00037610      -0.27205576       0.05265634       0.02074604      -0.26514107
Cu       2.09578148       8.98379165      15.24984600       0.00000000       0.00000000       0.00000000       0.00000000      -0.01600991       0.00012319      -0.30421989       0.02235476      -0.03748670      -0.25763304
Cu       0.00000000       0.00000000      14.49986800       0.00000000       0.00000000       0.00000000       0.00000000      -0.07594327       0.00144020      -0.19559528      -0.10118845      -0.02602135      -0.30047583
Cu       0.00000000       2.56679762      14.49986800       0.00000000       0.00000000       0.00000000       0.00000000      -0.07373253      -0.00637915      -0.20418353      -0.13628577       0.00462828      -0.25188132
Cu       0.00000000       5.13359523      14.49986800       0.00000000       0.00000000       0.00000000       0.00000000      -0.07379209       0.00687789      -0.21152136      -0.09868522       0.02536067      -0.28599131
Cu       0.00000000       7.70039285      14.49986800       0.00000000       0.00000000       0.00000000       0.00000000      -0.07529689      -0.00121401      -0.20111048      -0.13227164      -0.00563499      -0.24630865
Cu       4.19156295       1.28339881      13.74989000       0.00000000       0.00000000       0.00000000       0.00000000      -0.04484377      -0.00191267      -0.12686417      -0.07842914       0.00459035      -0.01033679
Cu       4.19156295       3.85019642      13.74989000       0.00000000       0.00000000       0.00000000       0.00000000      -0.04401882       0.00090609      -0.12265299      -0.07618180      -0.02452242      -0.04519292
Cu       4.19156295       6.41699404      13.74989000       0.00000000       0.00000000       0.00000000       0.00000000      -0.04595061       0.00160258      -0.12485833      -0.07196722       0.02277605      -0.02560226
Cu       4.19156295       8.98379165      13.74989000       0.00000000       0.00000000       0.00000000       0.00000000      -0.04511383      -0.00058981      -0.11901290      -0.08549429      -0.00423433      -0.05463587
Cu       2.09578148       0.00000000      12.99991200       0.00000000       0.00000000       0.00000000       0.00000000      -0.07891370       0.00131338       0.17298813      -0.10375229       0.00874578       0.27104053
Cu       2.09578148       2.56679762      12.99991200       0.00000000       0.00000000       0.00000000       0.00000000      -0.07904428      -0.00088023       0.17157620      -0.07133636      -0.00853822       0.25517162
Cu       2.09578148       5.13359523      12.99991200       0.00000000       0.00000000       0.00000000       0.00000000      -0.07936235       0.00117273       0.17317221      -0.12329559      -0.00153252       0.27689193
Cu       2.09578148       7.70039285      12.99991200       0.00000000       0.00000000       0.00000000       0.00000000      -0.07882221      -0.00155063       0.17481711      -0.07622891       0.00153755       0.24609253
Cu      -0.00000000       1.28339881      12.24993400       0.00000000       0.00000000       0.00000000       0.00000000       0.11685821       0.00032239       0.43772558       0.10977313       0.01178504       0.70226577
Cu      -0.00000000       3.85019642      12.24993400       0.00000000       0.00000000       0.00000000       0.00000000       0.11684657       0.00031594       0.43809396       0.12522207      -0.00966049       0.69556482
Cu      -0.00000000       6.41699404      12.24993400       0.00000000       0.00000000       0.00000000       0.00000000       0.11637070      -0.00031061       0.43861545       0.11874539       0.00645421       0.68712556
Cu      -0.00000000       8.98379165      12.24993400       0.00000000       0.00000000       0.00000000       0.00000000       0.11673402      -0.00031254       0.43721357       0.13356832      -0.00836519       0.68677867
O        4.39361433       6.42768446      20.99778490       0.00000000       0.01738429      -0.03391695       0.01618177       0.02069763       0.00756210       0.01450907       0.05685027      -0.17728993       0.28499634
C        4.30838534       7.15564168      19.86588482       0.00000000       0.00399154       0.03723070       0.06362763       0.01633350      -0.00604967       0.01891232       0.02882241       0.08439132       0.40200250
H        4.35599970       5.46506126      20.77260403       0.00000000       0.01239260      -0.01601282      -0.01555818       0.01719925      -0.00814079       0.02172860      -0.13319471       0.01645255       0.26589377
O        4.37259615       8.40027555      19.98124763       0.00000000       0.00610517      -0.03780648       0.04871863       0.01531341      -0.00417773      -0.01208765      -0.10435071      -0.60825542      -0.48432972
O        4.55571318       2.58636620      19.48469755       0.50000000      -0.03409037       0.00524822       0.07744475       0.01649050      -0.00924390       0.04317735       0.02315287       0.59299366      -0.08509491
H        3.82979879       2.54638774      20.13192292       0.50000000      -0.04436204       0.00385314       0.04076303       0.01745568      -0.00418209       0.01812716      -0.00608736      -0.04716365       0.21227408
42
Lattice="6.2873444314750255 0.0 0.0 0.0 10.26719046282867 0.0 0.0 0.0 28.249757996450562" Properties=species:S:1:pos:R:3:initial_magmoms:R:1:MACE_forces:R:3:forces:R:3:DFT_forces:R:3 adsorbate_info="_JSON {\"top layer atom index\": 0, \"sites\": {}}" MACE_energy=-172.35248654578427 energy=-172.68390777786715 stress="0.007113738132670693 1.792224612788411e-05 -0.0002868335116124752 1.792224612788411e-05 0.008088443376786384 5.6695896194413424e-05 -0.0002868335116124752 5.6695896194413424e-05 0.0015478057087840054" free_energy=-172.68390777786715 DFT_energy=-174.48316133 pbc="T T T"
Cu       4.13950719       1.30028801      18.14330160       0.00000000      -0.01082231      -0.01786809       0.14062357      -0.00824550       0.00143202       0.13805761       0.05599773      -0.12444111      -0.11410872
Cu       4.10638406       3.88925159      18.12614135       0.00000000      -0.00902377      -0.00053545       0.14567415      -0.00549469      -0.00866168       0.14278076       0.06770200       0.11326072      -0.19565066
Cu       4.11277899       6.36810601      18.10195555       0.00000000      -0.00954316       0.02531450       0.16156375      -0.00648078       0.00262689       0.13715718       0.06034122       0.11834211       0.05643607
Cu       4.13097837       9.05612922      18.10692181       0.00000000       0.00096287       0.01074906       0.16718647      -0.00028127       0.00555582       0.16027484       0.09045168      -0.00103266       0.04256581
Cu       2.06112056      10.27271897      17.39571379       0.00000000       0.01427854       0.01335069       0.12410285       0.00638148       0.00375340       0.12663823      -0.02199659       0.03427117      -0.08035998
Cu       2.02787077       2.56560339      17.37191179       0.00000000       0.00258807       0.00050249       0.12026194       0.00626380      -0.00357783       0.12541429      -0.01188878      -0.00160636      -0.02575684
Cu       2.04030686       5.12688122      17.39331959       0.00000000      -0.00891026       0.00152445       0.11440569       0.00484510      -0.00102018       0.11980361      -0.02647728       0.02787049      -0.08214619
Cu       2.05223146       7.70162354      17.39199644       0.00000000       0.00410025       0.01386395       0.11760805       0.00481382       0.00139180       0.11785705      -0.08621722      -0.00298365      -0.08571639
Cu       6.27151787       1.27199758      16.70239746       0.00000000      -0.00121605      -0.00473749       0.09878811       0.00027657      -0.00082288       0.09896256       0.07692381       0.00859083      -0.07903516
Cu       6.26547338       3.85711237      16.70279970       0.00000000      -0.00340429      -0.00171109       0.09494670       0.00230185      -0.00184984       0.09219005       0.05209933      -0.01565154      -0.09368513
Cu       6.27268291       6.41995411      16.71461312       0.00000000       0.00191149       0.00147286       0.08717856       0.00301628      -0.00049501       0.08956144       0.02915092       0.00125989      -0.04386497
Cu       6.27282573       8.98304271      16.71675244       0.00000000       0.00418470       0.00861882       0.09495281       0.00209651       0.00335821       0.09219009       0.06676743       0.00710836      -0.09446860
Cu       4.19156295       0.00000000      15.99982400       0.00000000       0.00000000       0.00000000       0.00000000       0.06192391      -0.07112350      -0.44141036       0.07068824       0.07962235      -0.09617387
Cu       4.19156295       2.56679762      15.99982400       0.00000000       0.00000000       0.00000000       0.00000000       0.05297905       0.11419804      -0.35384648       0.08761616      -0.00128847      -0.38101967
Cu       4.19156295       5.13359523      15.99982400       0.00000000       0.00000000       0.00000000       0.00000000       0.05900986      -0.13311331      -0.33770242       0.04067602      -0.03964501      -0.27365172
Cu       4.19156295       7.70039285      15.99982400       0.00000000       0.00000000       0.00000000       0.00000000       0.05801479       0.10742465      -0.38893962       0.09798828       0.04730285      -0.36410590
Cu       2.09578148       1.28339881      15.24984600       0.00000000       0.00000000       0.00000000       0.00000000       0.00048632      -0.00343857      -0.28218406       0.04466004      -0.00533942      -0.32655670
Cu       2.09578148       3.85019642      15.24984600       0.00000000       0.00000000       0.00000000       0.00000000      -0.00061921       0.00804541      -0.30329918       0.04618454       0.01078704      -0.29970828
Cu       2.09578148       6.41699404      15.24984600       0.00000000       0.00000000       0.00000000       0.00000000      -0.00074309      -0.00037610      -0.27205576       0.05363361       0.02271980      -0.27012408
Cu       2.09578148       8.98379165      15.24984600       0.00000000       0.00000000       0.00000000       0.00000000      -0.01600991       0.00012319      -0.30421989       0.02219042      -0.03123835      -0.25604146
Cu       0.00000000       0.00000000      14.49986800       0.00000000       0.00000000       0.00000000       0.00000000      -0.07594327       0.00144020      -0.19559528      -0.10115845      -0.02214129      -0.29555493
Cu       0.00000000       2.56679762      14.49986800       0.00000000       0.00000000       0.00000000       0.00000000      -0.07373253      -0.00637915      -0.20418353      -0.13600862       0.00276699      -0.24809558
Cu       0.00000000       5.13359523      14.49986800       0.00000000       0.00000000       0.00000000       0.00000000      -0.07379209       0.00687789      -0.21152136      -0.09828757       0.02369529      -0.28424803
Cu       0.00000000       7.70039285      14.49986800       0.00000000       0.00000000       0.00000000       0.00000000      -0.07529689      -0.00121401      -0.20111048      -0.13186478      -0.00604248      -0.24535977
Cu       4.19156295       1.28339881      13.74989000       0.00000000       0.00000000       0.00000000       0.00000000      -0.04484377      -0.00191267      -0.12686417      -0.07871424       0.00397852      -0.01128080
Cu       4.19156295       3.85019642      13.74989000       0.00000000       0.00000000       0.00000000       0.00000000      -0.04401882       0.00090609      -0.12265299      -0.07593393      -0.02646322      -0.04677029
Cu       4.19156295       6.41699404      13.74989000       0.00000000       0.00000000       0.00000000       0.00000000      -0.04595061       0.00160258      -0.12485833      -0.07156318       0.02201980      -0.02536839
Cu       4.19156295       8.98379165      13.74989000       0.00000000       0.00000000       0.00000000       0.00000000      -0.04511383      -0.00058981      -0.11901290      -0.08586011      -0.00185263      -0.05298506
Cu       2.09578148       0.00000000      12.99991200       0.00000000       0.00000000       0.00000000       0.00000000      -0.07891370       0.00131338       0.17298813      -0.10253278       0.00822048       0.27077867
Cu       2.09578148       2.56679762      12.99991200       0.00000000       0.00000000       0.00000000       0.00000000      -0.07904428      -0.00088023       0.17157620      -0.07139497      -0.00867648       0.25544720
Cu       2.09578148       5.13359523      12.99991200       0.00000000       0.00000000       0.00000000       0.00000000      -0.07936235       0.00117273       0.17317221      -0.12404454      -0.00127575       0.27733364
Cu       2.09578148       7.70039285      12.99991200       0.00000000       0.00000000       0.00000000       0.00000000      -0.07882221      -0.00155063       0.17481711      -0.07683420       0.00186291       0.24585737
Cu      -0.00000000       1.28339881      12.24993400       0.00000000       0.00000000       0.00000000       0.00000000       0.11685821       0.00032239       0.43772558       0.10893139       0.01155108       0.70238772
Cu      -0.00000000       3.85019642      12.24993400       0.00000000       0.00000000       0.00000000       0.00000000       0.11684657       0.00031594       0.43809396       0.12515483      -0.00938920       0.69571761
Cu      -0.00000000       6.41699404      12.24993400       0.00000000       0.00000000       0.00000000       0.00000000       0.11637070      -0.00031061       0.43861545       0.11892749       0.00624383       0.68756517
Cu      -0.00000000       8.98379165      12.24993400       0.00000000       0.00000000       0.00000000       0.00000000       0.11673402      -0.00031254       0.43721357       0.13268889      -0.00879518       0.68711260
O        4.40141657       6.39726774      20.97933439       0.00000000       0.02394212       0.00380882      -0.00831125       0.02069763       0.00756210       0.01450907       0.07369261      -0.14708635       0.25624863
C        4.31176168       7.14814072      19.86154655       0.00000000       0.00190417      -0.02276655       0.03186401       0.01633350      -0.00604967       0.01891232       0.02480351       0.08087555       0.41890874
H        4.37529298       5.43785098      20.73340061       0.00000000       0.01109863       0.01971827      -0.00405949       0.01719925      -0.00814079       0.02172860      -0.14877981      -0.07492717       0.19294970
O        4.37450426       8.39052142      19.99047694       0.00000000       0.00354187      -0.05573462       0.07438878       0.01531341      -0.00417773      -0.01208765      -0.10439571      -0.67507271      -0.52383149
O        4.55198672       2.63705846      19.51532688       0.50000000      -0.04396561      -0.05476380       0.04090249       0.01649050      -0.00924390       0.04317735       0.01120873       0.64092969      -0.06634944
H        3.82701247       2.60858954      20.16475545       0.50000000      -0.03632742      -0.01696074      -0.00704320       0.01745568      -0.00418209       0.01812716      -0.00452611      -0.06833068       0.17270919
42
Lattice="6.2873444314750255 0.0 0.0 0.0 10.26719046282867 0.0 0.0 0.0 28.249757996450562" Properties=species:S:1:pos:R:3:initial_magmoms:R:1:MACE_forces:R:3:forces:R:3:DFT_forces:R:3 adsorbate_info="_JSON {\"top layer atom index\": 0, \"sites\": {}}" MACE_energy=-172.35190088533918 energy=-172.68390777786715 stress="0.007113738132670693 1.792224612788411e-05 -0.0002868335116124752 1.792224612788411e-05 0.008088443376786384 5.6695896194413424e-05 -0.0002868335116124752 5.6695896194413424e-05 0.0015478057087840054" free_energy=-172.68390777786715 DFT_energy=-174.4798275 pbc="T T T"
Cu       4.14351844       1.31872279      18.16403633       0.00000000      -0.01969156      -0.02091641       0.11942724      -0.00824550       0.00143202       0.13805761       0.04812718      -0.12107198      -0.14011164
Cu       4.10175578       3.90067596      18.12236704       0.00000000       0.00078108      -0.02389125       0.15044193      -0.00549469      -0.00866168       0.14278076       0.08212974       0.08765685      -0.19286574
Cu       4.10863616       6.37642226      18.08951373       0.00000000      -0.01243262       0.01546244       0.14791384      -0.00648078       0.00262689       0.13715718       0.05981850       0.10455603       0.06302854
Cu       4.13382486       9.07117030      18.11655817       0.00000000       0.00655602      -0.01932176       0.16860806      -0.00028127       0.00555582       0.16027484       0.09560319      -0.04338848       0.04690504
Cu       2.06789599      10.28002933      17.39726739       0.00000000       0.00074391       0.00406991       0.12285735       0.00638148       0.00375340       0.12663823      -0.03648907       0.02664403      -0.07597218
Cu       2.02818994       2.56686115      17.37191315       0.00000000       0.00285543       0.00491936       0.12161732       0.00626380      -0.00357783       0.12541429      -0.01120575       0.00390406      -0.02228324
Cu       2.03566018       5.12952831      17.39202953       0.00000000      -0.00788741       0.00281549       0.11541509       0.00484510      -0.00102018       0.11980361      -0.02649464       0.03058303      -0.08421368
Cu       2.05206804       7.70805721      17.39173571       0.00000000       0.00607508       0.01324603       0.11922226       0.00481382       0.00139180       0.11785705      -0.08461103      -0.00428316      -0.08344945
Cu       6.26919516       1.27144659      16.70648719       0.00000000       0.00337535      -0.00244495       0.09533364       0.00027657      -0.00082288       0.09896256       0.08064862       0.01035623      -0.07801050
Cu       6.26366460       3.85559086      16.70352756       0.00000000       0.00050793       0.00037460       0.09269582       0.00230185      -0.00184984       0.09219005       0.05643049      -0.01252483      -0.09538448
Cu       6.27247987       6.42103702      16.71346380       0.00000000       0.00428718       0.00425395       0.08879293       0.00301628      -0.00049501       0.08956144       0.03109526       0.00535855      -0.04474055
Cu       6.27320831       8.98545339      16.71795916       0.00000000       0.00513460       0.00819324       0.09523124       0.00209651       0.00335821       0.09219009       0.06803562       0.00758247      -0.09334006
Cu       4.19156295       0.00000000      15.99982400       0.00000000       0.00000000       0.00000000       0.00000000       0.06192391      -0.07112350      -0.44141036       0.07622790       0.10568212      -0.04514392
Cu       4.19156295       2.56679762      15.99982400       0.00000000       0.00000000       0.00000000       0.00000000       0.05297905       0.11419804      -0.35384648       0.08370993      -0.01438402      -0.35184289
Cu       4.19156295       5.13359523      15.99982400       0.00000000       0.00000000       0.00000000       0.00000000       0.05900986      -0.13311331      -0.33770242       0.03658442      -0.04068699      -0.31795305
Cu       4.19156295       7.70039285      15.99982400       0.00000000       0.00000000       0.00000000       0.00000000       0.05801479       0.10742465      -0.38893962       0.10008552       0.08786167      -0.36873073
Cu       2.09578148       1.28339881      15.24984600       0.00000000       0.00000000       0.00000000       0.00000000       0.00048632      -0.00343857      -0.28218406       0.03630588      -0.00278310      -0.32832954
Cu       2.09578148       3.85019642      15.24984600       0.00000000       0.00000000       0.00000000       0.00000000      -0.00061921       0.00804541      -0.30329918       0.04460839       0.01185319      -0.29719051
Cu       2.09578148       6.41699404      15.24984600       0.00000000       0.00000000       0.00000000       0.00000000      -0.00074309      -0.00037610      -0.27205576       0.05561510       0.02956429      -0.26804696
Cu       2.09578148       8.98379165      15.24984600       0.00000000       0.00000000       0.00000000       0.00000000      -0.01600991       0.00012319      -0.30421989       0.02156338      -0.02105558      -0.25204752
Cu       0.00000000       0.00000000      14.49986800       0.00000000       0.00000000       0.00000000       0.00000000      -0.07594327       0.00144020      -0.19559528      -0.10176781      -0.01869405      -0.29046228
Cu       0.00000000       2.56679762      14.49986800       0.00000000       0.00000000       0.00000000       0.00000000      -0.07373253      -0.00637915      -0.20418353      -0.13596385      -0.00114705      -0.24288460
Cu       0.00000000       5.13359523      14.49986800       0.00000000       0.00000000       0.00000000       0.00000000      -0.07379209       0.00687789      -0.21152136      -0.09755498       0.02278164      -0.28199706
Cu       0.00000000       7.70039285      14.49986800       0.00000000       0.00000000       0.00000000       0.00000000      -0.07529689      -0.00121401      -0.20111048      -0.13162973      -0.00272734      -0.24349287
Cu       4.19156295       1.28339881      13.74989000       0.00000000       0.00000000       0.00000000       0.00000000      -0.04484377      -0.00191267      -0.12686417      -0.07916251       0.00344521      -0.01090571
Cu       4.19156295       3.85019642      13.74989000       0.00000000       0.00000000       0.00000000       0.00000000      -0.04401882       0.00090609      -0.12265299      -0.07569691      -0.02799957      -0.04807018
Cu       4.19156295       6.41699404      13.74989000       0.00000000       0.00000000       0.00000000       0.00000000      -0.04595061       0.00160258      -0.12485833      -0.07132601       0.02233576      -0.02576626
Cu       4.19156295       8.98379165      13.74989000       0.00000000       0.00000000       0.00000000       0.00000000      -0.04511383      -0.00058981      -0.11901290      -0.08633413       0.00088370      -0.05118330
Cu       2.09578148       0.00000000      12.99991200       0.00000000       0.00000000       0.00000000       0.00000000      -0.07891370       0.00131338       0.17298813      -0.10144359       0.00827345       0.27031348
Cu       2.09578148       2.56679762      12.99991200       0.00000000       0.00000000       0.00000000       0.00000000      -0.07904428      -0.00088023       0.17157620      -0.07154684      -0.00820881       0.25568225
Cu       2.09578148       5.13359523      12.99991200       0.00000000       0.00000000       0.00000000       0.00000000      -0.07936235       0.00117273       0.17317221      -0.12535035      -0.00056725       0.27795073
Cu       2.09578148       7.70039285      12.99991200       0.00000000       0.00000000       0.00000000       0.00000000      -0.07882221      -0.00155063       0.17481711      -0.07765611       0.00220109       0.24552048
Cu      -0.00000000       1.28339881      12.24993400       0.00000000       0.00000000       0.00000000       0.00000000       0.11685821       0.00032239       0.43772558       0.10816613       0.01199393       0.70244402
Cu      -0.00000000       3.85019642      12.24993400       0.00000000       0.00000000       0.00000000       0.00000000       0.11684657       0.00031594       0.43809396       0.12549459      -0.00863376       0.69596853
Cu      -0.00000000       6.41699404      12.24993400       0.00000000       0.00000000       0.00000000       0.00000000       0.11637070      -0.00031061       0.43861545       0.11961060       0.00647805       0.68784356
Cu      -0.00000000       8.98379165      12.24993400       0.00000000       0.00000000       0.00000000       0.00000000       0.11673402      -0.00031254       0.43721357       0.13205296      -0.00888576       0.68704376
O        4.41504004       6.36671372      20.95613902       0.00000000       0.02864558       0.02466478       0.02405806       0.02069763       0.00756210       0.01450907       0.08749514      -0.11532234       0.28617586
C        4.31556621       7.13485840      19.85149678       0.00000000       0.00354810       0.00079712       0.05866066       0.01633350      -0.00604967       0.01891232       0.02464194       0.16043312       0.36498229
H        4.39680825       5.41254329      20.69434837       0.00000000       0.01234352      -0.05231287       0.00160716       0.01719925      -0.00814079       0.02172860      -0.13574995      -0.08389180       0.13219796
O        4.37446612       8.37395457      19.99970051       0.00000000       0.00190477       0.00081895       0.02883453       0.01531341      -0.00417773      -0.01208765      -0.10052349      -0.68040251      -0.48495286
O        4.54860021       2.67535170      19.53391975       0.50000000      -0.02720583      -0.04574539       0.00321897       0.01649050      -0.00924390       0.04317735       0.00435965       0.57477387      -0.06655023
H        3.82508667       2.67180040      20.18499295       0.50000000      -0.05477617      -0.05633394      -0.01362299       0.01745568      -0.00418209       0.01812716      -0.02790338      -0.10854397       0.16986548
42
Lattice="6.2873444314750255 0.0 0.0 0.0 10.26719046282867 0.0 0.0 0.0 28.249757996450562" Properties=species:S:1:pos:R:3:initial_magmoms:R:1:MACE_forces:R:3:forces:R:3:DFT_forces:R:3 adsorbate_info="_JSON {\"top layer atom index\": 0, \"sites\": {}}" MACE_energy=-172.34689574315252 energy=-172.68390777786715 stress="0.007113738132670693 1.792224612788411e-05 -0.0002868335116124752 1.792224612788411e-05 0.008088443376786384 5.6695896194413424e-05 -0.0002868335116124752 5.6695896194413424e-05 0.0015478057087840054" free_energy=-172.68390777786715 DFT_energy=-174.4657722 pbc="T T T"
Cu       4.13316001       1.31787753      18.15167860       0.00000000       0.00294996      -0.01846853       0.15059846      -0.00824550       0.00143202       0.13805761       0.07545785      -0.10675380      -0.09261677
Cu       4.09584608       3.91010493      18.10538857       0.00000000      -0.01322460      -0.01915346       0.14716832      -0.00549469      -0.00866168       0.14278076       0.06901625       0.09470073      -0.20816001
Cu       4.08694280       6.38231216      18.06328745       0.00000000      -0.00106800      -0.00956974       0.14363271      -0.00648078       0.00262689       0.13715718       0.09658909       0.06810178       0.07718227
Cu       4.14723046       9.06963439      18.12818719       0.00000000      -0.02666471      -0.02533095       0.16439234      -0.00028127       0.00555582       0.16027484       0.05479943      -0.05060756       0.04769634
Cu       2.07155758      10.28572169      17.39898739       0.00000000      -0.00198451      -0.00841240       0.12202587       0.00638148       0.00375340       0.12663823      -0.04377425       0.01010237      -0.07482298
Cu       2.02250369       2.57649140      17.36914515       0.00000000       0.00048241      -0.01696402       0.12297470       0.00626380      -0.00357783       0.12541429      -0.01591315      -0.01633730      -0.02489226
Cu       2.02010477       5.13973379      17.38943486       0.00000000       0.00584687      -0.01451260       0.11755017       0.00484510      -0.00102018       0.11980361      -0.01305581       0.00694887      -0.08638854
Cu       2.05018727       7.72507616      17.39173027       0.00000000      -0.00582416      -0.01815351       0.11819564       0.00481382       0.00139180       0.11785705      -0.09486942      -0.03559120      -0.08581061
Cu       6.26989362       1.27427872      16.70743849       0.00000000      -0.00425398      -0.00209225       0.09552139       0.00027657      -0.00082288       0.09896256       0.07533004       0.01198551      -0.07733508
Cu       6.26081878       3.85899682      16.70037604       0.00000000      -0.00094284       0.00039560       0.09545506       0.00230185      -0.00184984       0.09219005       0.05270307      -0.01446775      -0.09523413
Cu       6.26953382       6.43175175      16.71364683       0.00000000      -0.00081574      -0.00882302       0.09162783       0.00301628      -0.00049501       0.08956144       0.02854603      -0.00942536      -0.04697210
Cu       6.27471226       8.99387103      16.71871330       0.00000000      -0.00393898       0.00059111       0.08925245       0.00209651       0.00335821       0.09219009       0.05450964       0.00055520      -0.10076370
Cu       4.19156295       0.00000000      15.99982400       0.00000000       0.00000000       0.00000000       0.00000000       0.06192391      -0.07112350      -0.44141036       0.08039163       0.08354305      -0.03265869
Cu       4.19156295       2.56679762      15.99982400       0.00000000       0.00000000       0.00000000       0.00000000       0.05297905       0.11419804      -0.35384648       0.08095640      -0.01452211      -0.39402372
Cu       4.19156295       5.13359523      15.99982400       0.00000000       0.00000000       0.00000000       0.00000000       0.05900986      -0.13311331      -0.33770242       0.02339170      -0.04370319      -0.42888297
Cu       4.19156295       7.70039285      15.99982400       0.00000000       0.00000000       0.00000000       0.00000000       0.05801479       0.10742465      -0.38893962       0.09694094       0.14837395      -0.41988943
Cu       2.09578148       1.28339881      15.24984600       0.00000000       0.00000000       0.00000000       0.00000000       0.00048632      -0.00343857      -0.28218406       0.03692465      -0.00113694      -0.32693989
Cu       2.09578148       3.85019642      15.24984600       0.00000000       0.00000000       0.00000000       0.00000000      -0.00061921       0.00804541      -0.30329918       0.04861746       0.02344515      -0.30462435
Cu       2.09578148       6.41699404      15.24984600       0.00000000       0.00000000       0.00000000       0.00000000      -0.00074309      -0.00037610      -0.27205576       0.05690270       0.04569123      -0.26026433
Cu       2.09578148       8.98379165      15.24984600       0.00000000       0.00000000       0.00000000       0.00000000      -0.01600991       0.00012319      -0.30421989       0.02146018      -0.00701615      -0.26581575
Cu       0.00000000       0.00000000      14.49986800       0.00000000       0.00000000       0.00000000       0.00000000      -0.07594327       0.00144020      -0.19559528      -0.10232639      -0.01244073      -0.29382647
Cu       0.00000000       2.56679762      14.49986800       0.00000000       0.00000000       0.00000000       0.00000000      -0.07373253      -0.00637915      -0.20418353      -0.13399537      -0.00303548      -0.24710911
Cu       0.00000000       5.13359523      14.49986800       0.00000000       0.00000000       0.00000000       0.00000000      -0.07379209       0.00687789      -0.21152136      -0.09631946       0.03118941      -0.28155715
Cu       0.00000000       7.70039285      14.49986800       0.00000000       0.00000000       0.00000000       0.00000000      -0.07529689      -0.00121401      -0.20111048      -0.13177491       0.00439375      -0.24392027
Cu       4.19156295       1.28339881      13.74989000       0.00000000       0.00000000       0.00000000       0.00000000      -0.04484377      -0.00191267      -0.12686417      -0.07919752       0.00009895      -0.00898014
Cu       4.19156295       3.85019642      13.74989000       0.00000000       0.00000000       0.00000000       0.00000000      -0.04401882       0.00090609      -0.12265299      -0.07513444      -0.02910941      -0.05052414
Cu       4.19156295       6.41699404      13.74989000       0.00000000       0.00000000       0.00000000       0.00000000      -0.04595061       0.00160258      -0.12485833      -0.07064184       0.02306502      -0.02609003
Cu       4.19156295       8.98379165      13.74989000       0.00000000       0.00000000       0.00000000       0.00000000      -0.04511383      -0.00058981      -0.11901290      -0.08776560       0.00227315      -0.05164109
Cu       2.09578148       0.00000000      12.99991200       0.00000000       0.00000000       0.00000000       0.00000000      -0.07891370       0.00131338       0.17298813      -0.09985936       0.00696644       0.26975375
Cu       2.09578148       2.56679762      12.99991200       0.00000000       0.00000000       0.00000000       0.00000000      -0.07904428      -0.00088023       0.17157620      -0.07371390      -0.00899679       0.25773256
Cu       2.09578148       5.13359523      12.99991200       0.00000000       0.00000000       0.00000000       0.00000000      -0.07936235       0.00117273       0.17317221      -0.12732907      -0.00049388       0.27917711
Cu       2.09578148       7.70039285      12.99991200       0.00000000       0.00000000       0.00000000       0.00000000      -0.07882221      -0.00155063       0.17481711      -0.07784574       0.00213149       0.24420288
Cu      -0.00000000       1.28339881      12.24993400       0.00000000       0.00000000       0.00000000       0.00000000       0.11685821       0.00032239       0.43772558       0.10842249       0.01170153       0.70197816
Cu      -0.00000000       3.85019642      12.24993400       0.00000000       0.00000000       0.00000000       0.00000000       0.11684657       0.00031594       0.43809396       0.12759574      -0.00776966       0.69538686
Cu      -0.00000000       6.41699404      12.24993400       0.00000000       0.00000000       0.00000000       0.00000000       0.11637070      -0.00031061       0.43861545       0.11928367       0.00582533       0.68783889
Cu      -0.00000000       8.98379165      12.24993400       0.00000000       0.00000000       0.00000000       0.00000000       0.11673402      -0.00031254       0.43721357       0.13285077      -0.01016937       0.68631881
O        4.48781380       6.28796003      20.89775217       0.00000000       0.01848512      -0.02223858       0.04247063       0.02069763       0.00756210       0.01450907       0.08696804      -0.19291661       0.31189559
C        4.33424229       7.09335310      19.82832004       0.00000000       0.02096861       0.08770652       0.08812062       0.01633350      -0.00604967       0.01891232       0.04875522       0.13114805       0.35979921
H        4.46741332       5.33970493      20.60379209       0.00000000       0.02142956       0.00945078       0.03688798       0.01719925      -0.00814079       0.02172860      -0.18304589      -0.11211383       0.24897802
O        4.38326115       8.32887006      20.00849266       0.00000000       0.01136723      -0.05661054       0.01829603       0.01531341      -0.00417773      -0.01208765      -0.09924044      -0.60228251      -0.48130785
O        4.50248166       2.68812794      19.52173372       0.50000000      -0.06410821      -0.05268008       0.09773881       0.01649050      -0.00924390       0.04317735       0.00421745       0.67701473      -0.01848172
H        3.74734808       2.68598538      20.13813207       0.50000000      -0.00173823      -0.05808656      -0.01297111       0.01745568      -0.00418209       0.01812716       0.02517213      -0.11036606       0.16159284
42
Lattice="6.2873444314750255 0.0 0.0 0.0 10.26719046282867 0.0 0.0 0.0 28.249757996450562" Properties=species:S:1:pos:R:3:initial_magmoms:R:1:MACE_forces:R:3:forces:R:3:DFT_forces:R:3 adsorbate_info="_JSON {\"top layer atom index\": 0, \"sites\": {}}" MACE_energy=-172.33506197834356 energy=-172.68390777786715 stress="0.007113738132670693 1.792224612788411e-05 -0.0002868335116124752 1.792224612788411e-05 0.008088443376786384 5.6695896194413424e-05 -0.0002868335116124752 5.6695896194413424e-05 0.0015478057087840054" free_energy=-172.68390777786715 DFT_energy=-174.42953927 pbc="T T T"
Cu       4.14419259       1.34104653      18.17128368       0.00000000      -0.00828387      -0.03303256       0.14638291      -0.00824550       0.00143202       0.13805761       0.06569947      -0.09404051      -0.08261092
Cu       4.08425102       3.91896603      18.08980743       0.00000000      -0.00406683      -0.02894652       0.16047600      -0.00549469      -0.00866168       0.14278076       0.09216527       0.09375936      -0.17262811
Cu       4.07358533       6.38566585      18.04538513       0.00000000       0.00145370      -0.00341654       0.15914488      -0.00648078       0.00262689       0.13715718       0.11063885       0.06776583       0.08781268
Cu       4.15353219       9.07595017      18.14253314       0.00000000      -0.02911795      -0.02908600       0.15817632      -0.00028127       0.00555582       0.16027484       0.04573358      -0.05712105       0.04037629
Cu       2.08165985      10.29156030      17.40243532       0.00000000      -0.00669481      -0.01064791       0.12039814       0.00638148       0.00375340       0.12663823      -0.04957257       0.00734213      -0.07083384
Cu       2.02137709       2.57716812      17.36914353       0.00000000       0.00124631      -0.01714614       0.12258323       0.00626380      -0.00357783       0.12541429      -0.01510372      -0.01684910      -0.02463693
Cu       2.00905994       5.14336991      17.38765806       0.00000000       0.00699063      -0.01761949       0.11664100       0.00484510      -0.00102018       0.11980361      -0.01295214       0.00428057      -0.09443110
Cu       2.04757880       7.73246309      17.39155708       0.00000000      -0.00518559      -0.01717153       0.11729912       0.00481382       0.00139180       0.11785705      -0.09097281      -0.03740087      -0.08426157
Cu       6.26970504       1.27457495      16.71047928       0.00000000      -0.00492667      -0.00403893       0.09627475       0.00027657      -0.00082288       0.09896256       0.07380114       0.00882433      -0.07294776
Cu       6.25839835       3.85813078      16.69967664       0.00000000      -0.00136750      -0.00237830       0.09630225       0.00230185      -0.00184984       0.09219005       0.05285887      -0.01644685      -0.09693863
Cu       6.26634831       6.43558078      16.71417041       0.00000000       0.00162995      -0.00963467       0.09069674       0.00301628      -0.00049501       0.08956144       0.03042452      -0.01045264      -0.05182535
Cu       6.27537740       8.99842753      16.71922045       0.00000000      -0.00445881      -0.00037461       0.09224844       0.00209651       0.00335821       0.09219009       0.05390896      -0.00009519      -0.09849894
Cu       4.19156295       0.00000000      15.99982400       0.00000000       0.00000000       0.00000000       0.00000000       0.06192391      -0.07112350      -0.44141036       0.09103338       0.09895102       0.03770693
Cu       4.19156295       2.56679762      15.99982400       0.00000000       0.00000000       0.00000000       0.00000000       0.05297905       0.11419804      -0.35384648       0.07684500      -0.03938044      -0.38833450
Cu       4.19156295       5.13359523      15.99982400       0.00000000       0.00000000       0.00000000       0.00000000       0.05900986      -0.13311331      -0.33770242       0.01350341      -0.04575781      -0.53191501
Cu       4.19156295       7.70039285      15.99982400       0.00000000       0.00000000       0.00000000       0.00000000       0.05801479       0.10742465      -0.38893962       0.09355947       0.19883746      -0.43963136
Cu       2.09578148       1.28339881      15.24984600       0.00000000       0.00000000       0.00000000       0.00000000       0.00048632      -0.00343857      -0.28218406       0.03099246      -0.00348313      -0.32817179
Cu       2.09578148       3.85019642      15.24984600       0.00000000       0.00000000       0.00000000       0.00000000      -0.00061921       0.00804541      -0.30329918       0.04961235       0.02441790      -0.30049839
Cu       2.09578148       6.41699404      15.24984600       0.00000000       0.00000000       0.00000000       0.00000000      -0.00074309      -0.00037610      -0.27205576       0.05647202       0.05369010      -0.25458733
Cu       2.09578148       8.98379165      15.24984600       0.00000000       0.00000000       0.00000000       0.00000000      -0.01600991       0.00012319      -0.30421989       0.02135124       0.00645111      -0.26315846
Cu       0.00000000       0.00000000      14.49986800       0.00000000       0.00000000       0.00000000       0.00000000      -0.07594327       0.00144020      -0.19559528      -0.10315840      -0.00838526      -0.29167683
Cu       0.00000000       2.56679762      14.49986800       0.00000000       0.00000000       0.00000000       0.00000000      -0.07373253      -0.00637915      -0.20418353      -0.13193187      -0.00731855      -0.24611311
Cu       0.00000000       5.13359523      14.49986800       0.00000000       0.00000000       0.00000000       0.00000000      -0.07379209       0.00687789      -0.21152136      -0.09565763       0.03378067      -0.27664592
Cu       0.00000000       7.70039285      14.49986800       0.00000000       0.00000000       0.00000000       0.00000000      -0.07529689      -0.00121401      -0.20111048      -0.13213927       0.00752567      -0.23987173
Cu       4.19156295       1.28339881      13.74989000       0.00000000       0.00000000       0.00000000       0.00000000      -0.04484377      -0.00191267      -0.12686417      -0.08077063      -0.00198988      -0.00693557
Cu       4.19156295       3.85019642      13.74989000       0.00000000       0.00000000       0.00000000       0.00000000      -0.04401882       0.00090609      -0.12265299      -0.07488588      -0.03060550      -0.05389345
Cu       4.19156295       6.41699404      13.74989000       0.00000000       0.00000000       0.00000000       0.00000000      -0.04595061       0.00160258      -0.12485833      -0.06955877       0.02323060      -0.02642383
Cu       4.19156295       8.98379165      13.74989000       0.00000000       0.00000000       0.00000000       0.00000000      -0.04511383      -0.00058981      -0.11901290      -0.08877344       0.00584912      -0.05069228
Cu       2.09578148       0.00000000      12.99991200       0.00000000       0.00000000       0.00000000       0.00000000      -0.07891370       0.00131338       0.17298813      -0.09708883       0.00623763       0.26857282
Cu       2.09578148       2.56679762      12.99991200       0.00000000       0.00000000       0.00000000       0.00000000      -0.07904428      -0.00088023       0.17157620      -0.07505642      -0.00927616       0.25934329
Cu       2.09578148       5.13359523      12.99991200       0.00000000       0.00000000       0.00000000       0.00000000      -0.07936235       0.00117273       0.17317221      -0.12922393      -0.00037155       0.28145427
Cu       2.09578148       7.70039285      12.99991200       0.00000000       0.00000000       0.00000000       0.00000000      -0.07882221      -0.00155063       0.17481711      -0.07898879       0.00302300       0.24381246
Cu      -0.00000000       1.28339881      12.24993400       0.00000000       0.00000000       0.00000000       0.00000000       0.11685821       0.00032239       0.43772558       0.10811998       0.01197462       0.70088891
Cu      -0.00000000       3.85019642      12.24993400       0.00000000       0.00000000       0.00000000       0.00000000       0.11684657       0.00031594       0.43809396       0.12805426      -0.00714202       0.69563124
Cu      -0.00000000       6.41699404      12.24993400       0.00000000       0.00000000       0.00000000       0.00000000       0.11637070      -0.00031061       0.43861545       0.11873020       0.00618832       0.68907495
Cu      -0.00000000       8.98379165      12.24993400       0.00000000       0.00000000       0.00000000       0.00000000       0.11673402      -0.00031254       0.43721357       0.13179902      -0.01120017       0.68641471
O        4.52743555       6.22359817      20.86038014       0.00000000       0.02523288       0.01006717       0.04705298       0.02069763       0.00756210       0.01450907       0.10946469      -0.16814049       0.31021941
C        4.34805707       7.05611953      19.81563906       0.00000000       0.02126408       0.02232417       0.07125307       0.01633350      -0.00604967       0.01891232       0.06145394       0.21651402       0.38795906
H        4.51955778       5.28009377      20.54550652       0.00000000       0.01977691       0.02050809       0.04108723       0.01719925      -0.00814079       0.02172860      -0.16649156      -0.19539409       0.16894000
O        4.39053030       8.28656379      20.01695731       0.00000000       0.02112433      -0.00229196       0.03536029       0.01531341      -0.00417773      -0.01208765      -0.10286530      -0.68643767      -0.47956079
O        4.49122977       2.75252656      19.54541903       0.50000000      -0.04149877      -0.08415849       0.05386143       0.01649050      -0.00924390       0.04317735      -0.01271402       0.71037175      -0.01342496
H        3.72235428       2.76366752      20.14360439       0.50000000      -0.02772557      -0.08713830       0.01105686       0.01745568      -0.00418209       0.01812716      -0.00831611      -0.14172629       0.18294143
42
Lattice="6.2873444314750255 0.0 0.0 0.0 10.26719046282867 0.0 0.0 0.0 28.249757996450562" Properties=species:S:1:pos:R:3:initial_magmoms:R:1:MACE_forces:R:3:forces:R:3:DFT_forces:R:3 adsorbate_info="_JSON {\"top layer atom index\": 0, \"sites\": {}}" MACE_energy=-172.32541736957631 energy=-172.68390777786715 stress="0.007113738132670693 1.792224612788411e-05 -0.0002868335116124752 1.792224612788411e-05 0.008088443376786384 5.6695896194413424e-05 -0.0002868335116124752 5.6695896194413424e-05 0.0015478057087840054" free_energy=-172.68390777786715 DFT_energy=-174.40822142 pbc="T T T"
Cu       4.15352583       1.35408858      18.19037022       0.00000000      -0.02687026      -0.04075152       0.12758935      -0.00824550       0.00143202       0.13805761       0.04164605      -0.07411698      -0.08456875
Cu       4.07148573       3.91983072      18.08147782       0.00000000       0.00367022      -0.02845173       0.15554459      -0.00549469      -0.00866168       0.14278076       0.10393832       0.09724542      -0.16682355
Cu       4.06236649       6.38402062      18.03434910       0.00000000      -0.00148905      -0.00703653       0.14996705      -0.00648078       0.00262689       0.13715718       0.11290316       0.06196456       0.08602073
Cu       4.15366490       9.07467963      18.15597051       0.00000000      -0.01934940      -0.03416104       0.15516486      -0.00028127       0.00555582       0.16027484       0.05382677      -0.06162382       0.02223003
Cu       2.08911702      10.29286913      17.40458843       0.00000000      -0.01229119      -0.01215004       0.12043376       0.00638148       0.00375340       0.12663823      -0.05279014       0.00693503      -0.06358477
Cu       2.01967444       2.57290402      17.36880573       0.00000000       0.00269865      -0.00947860       0.12221085       0.00626380      -0.00357783       0.12541429      -0.01373237      -0.00993364      -0.02204107
Cu       1.99942826       5.14149955      17.38570695       0.00000000       0.01011359      -0.01180696       0.11692975       0.00484510      -0.00102018       0.11980361      -0.01204614       0.01265429      -0.09862762
Cu       2.04337755       7.73380302      17.39045467       0.00000000      -0.00000478      -0.01031578       0.11810094       0.00481382       0.00139180       0.11785705      -0.08275130      -0.03156972      -0.08124736
Cu       6.26803568       1.27295762      16.71365222       0.00000000      -0.00222577      -0.00362450       0.09569803       0.00027657      -0.00082288       0.09896256       0.07580669       0.00774393      -0.06815645
Cu       6.25420445       3.85493783      16.70126160       0.00000000       0.00247145      -0.00283784       0.09360943       0.00230185      -0.00184984       0.09219005       0.06042480      -0.01708606      -0.09893509
Cu       6.26282530       6.43595096      16.71467408       0.00000000       0.00316277      -0.00689559       0.08986504       0.00301628      -0.00049501       0.08956144       0.03305065      -0.00835947      -0.05505638
Cu       6.27404488       9.00027027      16.72049156       0.00000000      -0.00245542      -0.00069695       0.09339944       0.00209651       0.00335821       0.09219009       0.05494504       0.00064758      -0.09558588
Cu       4.19156295       0.00000000      15.99982400       0.00000000       0.00000000       0.00000000       0.00000000       0.06192391      -0.07112350      -0.44141036       0.09545293       0.10211038       0.09853506
Cu       4.19156295       2.56679762      15.99982400       0.00000000       0.00000000       0.00000000       0.00000000       0.05297905       0.11419804      -0.35384648       0.06947173      -0.06590654      -0.36969953
Cu       4.19156295       5.13359523      15.99982400       0.00000000       0.00000000       0.00000000       0.00000000       0.05900986      -0.13311331      -0.33770242       0.00331108      -0.06100477      -0.59499879
Cu       4.19156295       7.70039285      15.99982400       0.00000000       0.00000000       0.00000000       0.00000000       0.05801479       0.10742465      -0.38893962       0.08615269       0.22558686      -0.44299797
Cu       2.09578148       1.28339881      15.24984600       0.00000000       0.00000000       0.00000000       0.00000000       0.00048632      -0.00343857      -0.28218406       0.02452676      -0.00947597      -0.33037834
Cu       2.09578148       3.85019642      15.24984600       0.00000000       0.00000000       0.00000000       0.00000000      -0.00061921       0.00804541      -0.30329918       0.04672471       0.01983065      -0.29415905
Cu       2.09578148       6.41699404      15.24984600       0.00000000       0.00000000       0.00000000       0.00000000      -0.00074309      -0.00037610      -0.27205576       0.05578461       0.05398069      -0.24996386
Cu       2.09578148       8.98379165      15.24984600       0.00000000       0.00000000       0.00000000       0.00000000      -0.01600991       0.00012319      -0.30421989       0.01875507       0.01437717      -0.26043806
Cu       0.00000000       0.00000000      14.49986800       0.00000000       0.00000000       0.00000000       0.00000000      -0.07594327       0.00144020      -0.19559528      -0.10471152      -0.00727300      -0.28816338
Cu       0.00000000       2.56679762      14.49986800       0.00000000       0.00000000       0.00000000       0.00000000      -0.07373253      -0.00637915      -0.20418353      -0.12991479      -0.01211975      -0.24327086
Cu       0.00000000       5.13359523      14.49986800       0.00000000       0.00000000       0.00000000       0.00000000      -0.07379209       0.00687789      -0.21152136      -0.09455784       0.03150337      -0.27005391
Cu       0.00000000       7.70039285      14.49986800       0.00000000       0.00000000       0.00000000       0.00000000      -0.07529689      -0.00121401      -0.20111048      -0.13146613       0.00883762      -0.23458884
Cu       4.19156295       1.28339881      13.74989000       0.00000000       0.00000000       0.00000000       0.00000000      -0.04484377      -0.00191267      -0.12686417      -0.08069833      -0.00459180      -0.00353525
Cu       4.19156295       3.85019642      13.74989000       0.00000000       0.00000000       0.00000000       0.00000000      -0.04401882       0.00090609      -0.12265299      -0.07443516      -0.03179111      -0.05639197
Cu       4.19156295       6.41699404      13.74989000       0.00000000       0.00000000       0.00000000       0.00000000      -0.04595061       0.00160258      -0.12485833      -0.06946530       0.02321967      -0.02685628
Cu       4.19156295       8.98379165      13.74989000       0.00000000       0.00000000       0.00000000       0.00000000      -0.04511383      -0.00058981      -0.11901290      -0.08929355       0.00962766      -0.04936944
Cu       2.09578148       0.00000000      12.99991200       0.00000000       0.00000000       0.00000000       0.00000000      -0.07891370       0.00131338       0.17298813      -0.09418001       0.00520109       0.26694215
Cu       2.09578148       2.56679762      12.99991200       0.00000000       0.00000000       0.00000000       0.00000000      -0.07904428      -0.00088023       0.17157620      -0.07615284      -0.00944958       0.26051508
Cu       2.09578148       5.13359523      12.99991200       0.00000000       0.00000000       0.00000000       0.00000000      -0.07936235       0.00117273       0.17317221      -0.13071460       0.00007373       0.28268855
Cu       2.09578148       7.70039285      12.99991200       0.00000000       0.00000000       0.00000000       0.00000000      -0.07882221      -0.00155063       0.17481711      -0.07990253       0.00223312       0.24381897
Cu      -0.00000000       1.28339881      12.24993400       0.00000000       0.00000000       0.00000000       0.00000000       0.11685821       0.00032239       0.43772558       0.10652673       0.01212122       0.70048250
Cu      -0.00000000       3.85019642      12.24993400       0.00000000       0.00000000       0.00000000       0.00000000       0.11684657       0.00031594       0.43809396       0.12886523      -0.00613857       0.69596538
Cu      -0.00000000       6.41699404      12.24993400       0.00000000       0.00000000       0.00000000       0.00000000       0.11637070      -0.00031061       0.43861545       0.11916324       0.00564541       0.68977610
Cu      -0.00000000       8.98379165      12.24993400       0.00000000       0.00000000       0.00000000       0.00000000       0.11673402      -0.00031254       0.43721357       0.13076555      -0.01177075       0.68666828
O        4.55839459       6.16564623      20.83546878       0.00000000       0.03254501       0.02254238       0.05285497       0.02069763       0.00756210       0.01450907       0.12399464      -0.15886869       0.30032262
C        4.36325587       7.01583451      19.80833439       0.00000000       0.02149694       0.02288637       0.07446964       0.01633350      -0.00604967       0.01891232       0.07511857       0.26353849       0.38611511
H        4.55544537       5.22460113      20.50847634       0.00000000       0.01726606       0.02234331       0.04364728       0.01719925      -0.00814079       0.02172860      -0.15950729      -0.23745626       0.12969787
O        4.40452380       8.24301949      20.02407841       0.00000000       0.02282807       0.02075602       0.02840290       0.01531341      -0.00417773      -0.01208765      -0.10791189      -0.71187311      -0.46711097
O        4.46957513       2.79915971      19.57098257       0.50000000      -0.02898861      -0.09987009       0.03406327       0.01649050      -0.00924390       0.04317735      -0.02074790       0.73005269      -0.01170747
H        3.68785491       2.81851355      20.15220903       0.50000000      -0.02947211      -0.10461350       0.00931264       0.01745568      -0.00418209       0.01812716      -0.01617539      -0.16472109       0.17853246
42
Lattice="6.2873444314750255 0.0 0.0 0.0 10.26719046282867 0.0 0.0 0.0 28.249757996450562" Properties=species:S:1:pos:R:3:initial_magmoms:R:1:MACE_forces:R:3:forces:R:3:DFT_forces:R:3 adsorbate_info="_JSON {\"top layer atom index\": 0, \"sites\": {}}" MACE_energy=-172.3050548717579 energy=-172.68390777786715 stress="0.007113738132670693 1.792224612788411e-05 -0.0002868335116124752 1.792224612788411e-05 0.008088443376786384 5.6695896194413424e-05 -0.0002868335116124752 5.6695896194413424e-05 0.0015478057087840054" free_energy=-172.68390777786715 DFT_energy=-174.36360457 pbc="T T T"
Cu       4.16272011       1.37581915      18.21214437       0.00000000      -0.03610025      -0.05252492       0.12073130      -0.00824550       0.00143202       0.13805761       0.02740883      -0.07782418      -0.07633559
Cu       4.05645424       3.92120117      18.07029577       0.00000000       0.00925251      -0.02617527       0.15704447      -0.00549469      -0.00866168       0.14278076       0.11461582       0.10182623      -0.14776345
Cu       4.05062956       6.38261726      18.02170618       0.00000000      -0.00176143      -0.00067295       0.15948058      -0.00648078       0.00262689       0.13715718       0.11411493       0.06473991       0.10177365
Cu       4.15563323       9.07155984      18.17035229       0.00000000      -0.01121543      -0.02650168       0.15653801      -0.00028127       0.00555582       0.16027484       0.05422914      -0.05011938      -0.00668428
Cu       2.09736521      10.29402664      17.40731871       0.00000000      -0.01224013      -0.00915139       0.12142904       0.00638148       0.00375340       0.12663823      -0.04765153       0.01207341      -0.05587791
Cu       2.01812870       2.56895934      17.36865577       0.00000000       0.00161237      -0.00479743       0.12114411       0.00626380      -0.00357783       0.12541429      -0.01617618      -0.00721438      -0.02031894
Cu       1.98993775       5.14035946      17.38352988       0.00000000       0.00681762      -0.00717427       0.11667661       0.00484510      -0.00102018       0.11980361      -0.01869595       0.01839252      -0.10231867
Cu       2.03963849       7.73579046      17.38949402       0.00000000       0.00299784      -0.00391471       0.11859806       0.00481382       0.00139180       0.11785705      -0.07783875      -0.02528533      -0.08039507
Cu       6.26618219       1.27151066      16.71768124       0.00000000      -0.00161553      -0.00461060       0.09583370       0.00027657      -0.00082288       0.09896256       0.07586143       0.00521318      -0.06434217
Cu       6.25023341       3.85144940      16.70312523       0.00000000       0.00360728      -0.00240643       0.09039838       0.00230185      -0.00184984       0.09219005       0.06438947      -0.01491993      -0.10182135
Cu       6.25963272       6.43630280      16.71504806       0.00000000       0.00323541      -0.00340770       0.08931969       0.00301628      -0.00049501       0.08956144       0.03310040      -0.00507832      -0.05938397
Cu       6.27295791       9.00194131      16.72192479       0.00000000       0.00026814       0.00025390       0.09319055       0.00209651       0.00335821       0.09219009       0.05642482       0.00353068      -0.09403208
Cu       4.19156295       0.00000000      15.99982400       0.00000000       0.00000000       0.00000000       0.00000000       0.06192391      -0.07112350      -0.44141036       0.10170140       0.10551427       0.16202102
Cu       4.19156295       2.56679762      15.99982400       0.00000000       0.00000000       0.00000000       0.00000000       0.05297905       0.11419804      -0.35384648       0.06279692      -0.09275255      -0.35717354
Cu       4.19156295       5.13359523      15.99982400       0.00000000       0.00000000       0.00000000       0.00000000       0.05900986      -0.13311331      -0.33770242      -0.00229735      -0.07544599      -0.67693646
Cu       4.19156295       7.70039285      15.99982400       0.00000000       0.00000000       0.00000000       0.00000000       0.05801479       0.10742465      -0.38893962       0.08102981       0.25589671      -0.45256410
Cu       2.09578148       1.28339881      15.24984600       0.00000000       0.00000000       0.00000000       0.00000000       0.00048632      -0.00343857      -0.28218406       0.01695061      -0.01610930      -0.33125271
Cu       2.09578148       3.85019642      15.24984600       0.00000000       0.00000000       0.00000000       0.00000000      -0.00061921       0.00804541      -0.30329918       0.04452102       0.01637881      -0.28790826
Cu       2.09578148       6.41699404      15.24984600       0.00000000       0.00000000       0.00000000       0.00000000      -0.00074309      -0.00037610      -0.27205576       0.05600125       0.05535685      -0.24633749
Cu       2.09578148       8.98379165      15.24984600       0.00000000       0.00000000       0.00000000       0.00000000      -0.01600991       0.00012319      -0.30421989       0.01663289       0.02379463      -0.25789203
Cu       0.00000000       0.00000000      14.49986800       0.00000000       0.00000000       0.00000000       0.00000000      -0.07594327       0.00144020      -0.19559528      -0.10642699      -0.00535133      -0.28243713
Cu       0.00000000       2.56679762      14.49986800       0.00000000       0.00000000       0.00000000       0.00000000      -0.07373253      -0.00637915      -0.20418353      -0.12704733      -0.01698897      -0.23942871
Cu       0.00000000       5.13359523      14.49986800       0.00000000       0.00000000       0.00000000       0.00000000      -0.07379209       0.00687789      -0.21152136      -0.09347337       0.02932073      -0.26313455
Cu       0.00000000       7.70039285      14.49986800       0.00000000       0.00000000       0.00000000       0.00000000      -0.07529689      -0.00121401      -0.20111048      -0.13063617       0.01032877      -0.22965539
Cu       4.19156295       1.28339881      13.74989000       0.00000000       0.00000000       0.00000000       0.00000000      -0.04484377      -0.00191267      -0.12686417      -0.08124790      -0.00727270      -0.00167576
Cu       4.19156295       3.85019642      13.74989000       0.00000000       0.00000000       0.00000000       0.00000000      -0.04401882       0.00090609      -0.12265299      -0.07372539      -0.03235400      -0.06012532
Cu       4.19156295       6.41699404      13.74989000       0.00000000       0.00000000       0.00000000       0.00000000      -0.04595061       0.00160258      -0.12485833      -0.06865235       0.02286998      -0.02682050
Cu       4.19156295       8.98379165      13.74989000       0.00000000       0.00000000       0.00000000       0.00000000      -0.04511383      -0.00058981      -0.11901290      -0.08934472       0.01451915      -0.04840173
Cu       2.09578148       0.00000000      12.99991200       0.00000000       0.00000000       0.00000000       0.00000000      -0.07891370       0.00131338       0.17298813      -0.09027931       0.00461658       0.26420845
Cu       2.09578148       2.56679762      12.99991200       0.00000000       0.00000000       0.00000000       0.00000000      -0.07904428      -0.00088023       0.17157620      -0.07723245      -0.00918362       0.26086600
Cu       2.09578148       5.13359523      12.99991200       0.00000000       0.00000000       0.00000000       0.00000000      -0.07936235       0.00117273       0.17317221      -0.13164069       0.00077882       0.28342129
Cu       2.09578148       7.70039285      12.99991200       0.00000000       0.00000000       0.00000000       0.00000000      -0.07882221      -0.00155063       0.17481711      -0.08103249       0.00226758       0.24319904
Cu      -0.00000000       1.28339881      12.24993400       0.00000000       0.00000000       0.00000000       0.00000000       0.11685821       0.00032239       0.43772558       0.10538334       0.01253082       0.69885695
Cu      -0.00000000       3.85019642      12.24993400       0.00000000       0.00000000       0.00000000       0.00000000       0.11684657       0.00031594       0.43809396       0.12924777      -0.00497765       0.69599896
Cu      -0.00000000       6.41699404      12.24993400       0.00000000       0.00000000       0.00000000       0.00000000       0.11637070      -0.00031061       0.43861545       0.11901352       0.00556829       0.69041314
Cu      -0.00000000       8.98379165      12.24993400       0.00000000       0.00000000       0.00000000       0.00000000       0.11673402      -0.00031254       0.43721357       0.12910994      -0.01206998       0.68665544
O        4.57774317       6.09920825      20.80940126       0.00000000       0.03600226       0.03396518       0.04751167       0.02069763       0.00756210       0.01450907       0.13459271      -0.15176137       0.27872044
C        4.37389151       6.96961040      19.80182581       0.00000000       0.02104796       0.02342368       0.06676746       0.01633350      -0.00604967       0.01891232       0.08611069       0.28917521       0.39621715
H        4.57468025       5.15942046      20.47003686       0.00000000       0.01856351       0.03596742       0.04877518       0.01719925      -0.00814079       0.02172860      -0.16127134      -0.30095438       0.09433429
O        4.41814098       8.19366885      20.03187636       0.00000000       0.02459816       0.01940383       0.02403056       0.01531341      -0.00417773      -0.01208765      -0.11315836      -0.74296808      -0.44195132
O        4.45044255       2.86812728      19.60435380       0.50000000      -0.02985184      -0.13944606       0.01086112       0.01649050      -0.00924390       0.04317735      -0.01937462       0.77084612      -0.00806075
H        3.65445238       2.88450273      20.16661645       0.50000000      -0.02142960      -0.11056052      -0.00231624       0.01745568      -0.00418209       0.01812716      -0.01603346      -0.17690779       0.16434341
42
Lattice="6.2873444314750255 0.0 0.0 0.0 10.26719046282867 0.0 0.0 0.0 28.249757996450562" Properties=species:S:1:pos:R:3:initial_magmoms:R:1:MACE_forces:R:3:forces:R:3:DFT_forces:R:3 adsorbate_info="_JSON {\"top layer atom index\": 0, \"sites\": {}}" MACE_energy=-172.2788176409879 energy=-172.68390777786715 stress="0.007113738132670693 1.792224612788411e-05 -0.0002868335116124752 1.792224612788411e-05 0.008088443376786384 5.6695896194413424e-05 -0.0002868335116124752 5.6695896194413424e-05 0.0015478057087840054" free_energy=-172.68390777786715 DFT_energy=-174.31016602 pbc="T T T"
Cu       4.16587788       1.39542116      18.22898883       0.00000000      -0.02462151      -0.03821849       0.14070596      -0.00824550       0.00143202       0.13805761       0.02768739      -0.09158188      -0.09423576
Cu       4.04564554       3.91860827      18.06086032       0.00000000       0.00409552      -0.00868865       0.15239635      -0.00549469      -0.00866168       0.14278076       0.11929574       0.12250727      -0.13656981
Cu       4.04139179       6.38072647      18.01234153       0.00000000      -0.00534732       0.00221302       0.14857775      -0.00648078       0.00262689       0.13715718       0.11218953       0.06575182       0.09172270
Cu       4.15542866       9.06362578      18.18142529       0.00000000      -0.00212601      -0.00842292       0.16218502      -0.00028127       0.00555582       0.16027484       0.05694110      -0.02704179      -0.01749907
Cu       2.10217796      10.29308009      17.40923343       0.00000000      -0.00597132      -0.00249219       0.12398293       0.00638148       0.00375340       0.12663823      -0.03614264       0.02046651      -0.04543544
Cu       2.01727200       2.56498797      17.36888335       0.00000000      -0.00136803      -0.00271911       0.11934040       0.00626380      -0.00357783       0.12541429      -0.02265778      -0.00820207      -0.01932926
Cu       1.98444572       5.13784414      17.38171743       0.00000000      -0.00120135      -0.00070567       0.11620777       0.00484510      -0.00102018       0.11980361      -0.03429058       0.02843719      -0.10419866
Cu       2.03568573       7.73582215      17.38861353       0.00000000       0.00697529       0.00253420       0.11891497       0.00481382       0.00139180       0.11785705      -0.07193070      -0.02004977      -0.07802745
Cu       6.26382429       1.27095493      16.72163880       0.00000000      -0.00232101      -0.00724367       0.09642888       0.00027657      -0.00082288       0.09896256       0.07605457       0.00092157      -0.05981673
Cu       6.24775590       3.84871929      16.70480737       0.00000000       0.00223789      -0.00340503       0.08714482       0.00230185      -0.00184984       0.09219005       0.06657719      -0.01423409      -0.10455519
Cu       6.25751446       6.43555399      16.71552748       0.00000000       0.00141874       0.00051356       0.08861819       0.00301628      -0.00049501       0.08956144       0.03117855      -0.00299447      -0.06072298
Cu       6.27127271       9.00278013      16.72303093       0.00000000       0.00350341       0.00109747       0.09262363       0.00209651       0.00335821       0.09219009       0.05839563       0.00655236      -0.09280568
Cu       4.19156295       0.00000000      15.99982400       0.00000000       0.00000000       0.00000000       0.00000000       0.06192391      -0.07112350      -0.44141036       0.10395965       0.10271973       0.21086877
Cu       4.19156295       2.56679762      15.99982400       0.00000000       0.00000000       0.00000000       0.00000000       0.05297905       0.11419804      -0.35384648       0.05851124      -0.11333137      -0.35207374
Cu       4.19156295       5.13359523      15.99982400       0.00000000       0.00000000       0.00000000       0.00000000       0.05900986      -0.13311331      -0.33770242      -0.00242153      -0.09122924      -0.74100985
Cu       4.19156295       7.70039285      15.99982400       0.00000000       0.00000000       0.00000000       0.00000000       0.05801479       0.10742465      -0.38893962       0.07664166       0.27459184      -0.45999499
Cu       2.09578148       1.28339881      15.24984600       0.00000000       0.00000000       0.00000000       0.00000000       0.00048632      -0.00343857      -0.28218406       0.00942266      -0.02239656      -0.32972199
Cu       2.09578148       3.85019642      15.24984600       0.00000000       0.00000000       0.00000000       0.00000000      -0.00061921       0.00804541      -0.30329918       0.04341347       0.01219527      -0.28306059
Cu       2.09578148       6.41699404      15.24984600       0.00000000       0.00000000       0.00000000       0.00000000      -0.00074309      -0.00037610      -0.27205576       0.05694861       0.05432611      -0.24288114
Cu       2.09578148       8.98379165      15.24984600       0.00000000       0.00000000       0.00000000       0.00000000      -0.01600991       0.00012319      -0.30421989       0.01457304       0.02981708      -0.25504379
Cu       0.00000000       0.00000000      14.49986800       0.00000000       0.00000000       0.00000000       0.00000000      -0.07594327       0.00144020      -0.19559528      -0.10791349      -0.00320844      -0.27391564
Cu       0.00000000       2.56679762      14.49986800       0.00000000       0.00000000       0.00000000       0.00000000      -0.07373253      -0.00637915      -0.20418353      -0.12396118      -0.02137617      -0.23469887
Cu       0.00000000       5.13359523      14.49986800       0.00000000       0.00000000       0.00000000       0.00000000      -0.07379209       0.00687789      -0.21152136      -0.09271704       0.02718177      -0.25741660
Cu       0.00000000       7.70039285      14.49986800       0.00000000       0.00000000       0.00000000       0.00000000      -0.07529689      -0.00121401      -0.20111048      -0.12928883       0.01023712      -0.22408019
Cu       4.19156295       1.28339881      13.74989000       0.00000000       0.00000000       0.00000000       0.00000000      -0.04484377      -0.00191267      -0.12686417      -0.08140036      -0.00993088      -0.00009796
Cu       4.19156295       3.85019642      13.74989000       0.00000000       0.00000000       0.00000000       0.00000000      -0.04401882       0.00090609      -0.12265299      -0.07297830      -0.03273271      -0.06343655
Cu       4.19156295       6.41699404      13.74989000       0.00000000       0.00000000       0.00000000       0.00000000      -0.04595061       0.00160258      -0.12485833      -0.06765849       0.02203644      -0.02495203
Cu       4.19156295       8.98379165      13.74989000       0.00000000       0.00000000       0.00000000       0.00000000      -0.04511383      -0.00058981      -0.11901290      -0.08894790       0.01917818      -0.04654333
Cu       2.09578148       0.00000000      12.99991200       0.00000000       0.00000000       0.00000000       0.00000000      -0.07891370       0.00131338       0.17298813      -0.08604539       0.00390011       0.26297112
Cu       2.09578148       2.56679762      12.99991200       0.00000000       0.00000000       0.00000000       0.00000000      -0.07904428      -0.00088023       0.17157620      -0.07799976      -0.00926049       0.26192779
Cu       2.09578148       5.13359523      12.99991200       0.00000000       0.00000000       0.00000000       0.00000000      -0.07936235       0.00117273       0.17317221      -0.13144625       0.00109757       0.28454628
Cu       2.09578148       7.70039285      12.99991200       0.00000000       0.00000000       0.00000000       0.00000000      -0.07882221      -0.00155063       0.17481711      -0.08177129       0.00221807       0.24413091
Cu      -0.00000000       1.28339881      12.24993400       0.00000000       0.00000000       0.00000000       0.00000000       0.11685821       0.00032239       0.43772558       0.10464636       0.01289323       0.69814410
Cu      -0.00000000       3.85019642      12.24993400       0.00000000       0.00000000       0.00000000       0.00000000       0.11684657       0.00031594       0.43809396       0.12980941      -0.00430936       0.69676809
Cu      -0.00000000       6.41699404      12.24993400       0.00000000       0.00000000       0.00000000       0.00000000       0.11637070      -0.00031061       0.43861545       0.11840592       0.00528181       0.69198941
Cu      -0.00000000       8.98379165      12.24993400       0.00000000       0.00000000       0.00000000       0.00000000       0.11673402      -0.00031254       0.43721357       0.12732370      -0.01214318       0.68827479
O        4.58936154       6.03933640      20.78497482       0.00000000       0.03694378       0.02875549       0.05125889       0.02069763       0.00756210       0.01450907       0.13257749      -0.14255400       0.25747354
C        4.38279414       6.92837473      19.79639328       0.00000000       0.02073859       0.02086938       0.06553999       0.01633350      -0.00604967       0.01891232       0.09385278       0.30640786       0.40159589
H        4.57891854       5.09961992      20.43506567       0.00000000       0.02652099       0.03408750       0.04967911       0.01719925      -0.00814079       0.02172860      -0.16557397      -0.35694806       0.07695356
O        4.43336876       8.14963726      20.03839435       0.00000000       0.02318540       0.01868561       0.01707531       0.01531341      -0.00417773      -0.01208765      -0.12219781      -0.76557496      -0.41629545
O        4.43883728       2.94460933      19.64060971       0.50000000      -0.03432905      -0.19276307      -0.02005534       0.01649050      -0.00924390       0.04317735      -0.00356635       0.79059091      -0.00260527
H        3.63006393       2.94274478      20.18505169       0.50000000      -0.01684442      -0.09958561      -0.01491402       0.01745568      -0.00418209       0.01812716      -0.01749606      -0.17021030       0.15365708
42
Lattice="6.2873444314750255 0.0 0.0 0.0 10.26719046282867 0.0 0.0 0.0 28.249757996450562" Properties=species:S:1:pos:R:3:initial_magmoms:R:1:MACE_forces:R:3:forces:R:3:DFT_forces:R:3 adsorbate_info="_JSON {\"top layer atom index\": 0, \"sites\": {}}" MACE_energy=-172.24535682995196 energy=-172.68390777786715 stress="0.007113738132670693 1.792224612788411e-05 -0.0002868335116124752 1.792224612788411e-05 0.008088443376786384 5.6695896194413424e-05 -0.0002868335116124752 5.6695896194413424e-05 0.0015478057087840054" free_energy=-172.68390777786715 DFT_energy=-174.24393348 pbc="T T T"
Cu       4.16626129       1.40763062      18.23212984       0.00000000       0.00057843       0.01650672       0.19117086      -0.00824550       0.00143202       0.13805761       0.03775417      -0.09747617      -0.10191211
Cu       4.03824063       3.91064214      18.05352141       0.00000000      -0.01105188       0.02145275       0.13281086      -0.00549469      -0.00866168       0.14278076       0.11657265       0.14613852      -0.13542746
Cu       4.03558861       6.37727809      18.00574784       0.00000000      -0.00656333       0.01069119       0.15248148      -0.00648078       0.00262689       0.13715718       0.11340893       0.07368935       0.08433334
Cu       4.15383819       9.05298332      18.18891356       0.00000000       0.00511836       0.00761349       0.16637826      -0.00028127       0.00555582       0.16027484       0.05979622      -0.00495345      -0.02025414
Cu       2.10319085      10.29029220      17.41000903       0.00000000       0.00515954       0.00546731       0.12777925       0.00638148       0.00375340       0.12663823      -0.01972216       0.02968856      -0.03409270
Cu       2.01766765       2.56107126      17.37003335       0.00000000      -0.00416140      -0.00257638       0.11731734       0.00626380      -0.00357783       0.12541429      -0.03443744      -0.01246867      -0.02149896
Cu       1.98210098       5.13466650      17.38007547       0.00000000      -0.00971021       0.00336311       0.11528436       0.00484510      -0.00102018       0.11980361      -0.05215302       0.03577341      -0.10327477
Cu       2.03268455       7.73406702      17.38777231       0.00000000       0.00847692       0.00856161       0.11875275       0.00481382       0.00139180       0.11785705      -0.06756038      -0.01670340      -0.07528677
Cu       6.26222207       1.27114793      16.72452528       0.00000000      -0.00330366      -0.00991841       0.09770932       0.00027657      -0.00082288       0.09896256       0.07515717      -0.00502146      -0.05824224
Cu       6.24642927       3.84643271      16.70611608       0.00000000      -0.00078528      -0.00491396       0.08589258       0.00230185      -0.00184984       0.09219005       0.06579910      -0.01199591      -0.10712810
Cu       6.25635665       6.43440225      16.71564330       0.00000000       0.00070636       0.00294788       0.08774210       0.00301628      -0.00049501       0.08956144       0.02789018      -0.00297283      -0.06122748
Cu       6.26952986       9.00287297      16.72378140       0.00000000       0.00601236       0.00184934       0.09230499       0.00209651       0.00335821       0.09219009       0.06083932       0.00920401      -0.09382736
Cu       4.19156295       0.00000000      15.99982400       0.00000000       0.00000000       0.00000000       0.00000000       0.06192391      -0.07112350      -0.44141036       0.10377939       0.08890827       0.23438591
Cu       4.19156295       2.56679762      15.99982400       0.00000000       0.00000000       0.00000000       0.00000000       0.05297905       0.11419804      -0.35384648       0.05607092      -0.12049569      -0.36667954
Cu       4.19156295       5.13359523      15.99982400       0.00000000       0.00000000       0.00000000       0.00000000       0.05900986      -0.13311331      -0.33770242       0.00033759      -0.11121055      -0.78917138
Cu       4.19156295       7.70039285      15.99982400       0.00000000       0.00000000       0.00000000       0.00000000       0.05801479       0.10742465      -0.38893962       0.07321206       0.28224231      -0.46617541
Cu       2.09578148       1.28339881      15.24984600       0.00000000       0.00000000       0.00000000       0.00000000       0.00048632      -0.00343857      -0.28218406       0.00219623      -0.02687820      -0.32995468
Cu       2.09578148       3.85019642      15.24984600       0.00000000       0.00000000       0.00000000       0.00000000      -0.00061921       0.00804541      -0.30329918       0.04285398       0.00672513      -0.27956025
Cu       2.09578148       6.41699404      15.24984600       0.00000000       0.00000000       0.00000000       0.00000000      -0.00074309      -0.00037610      -0.27205576       0.05849801       0.05124500      -0.24199360
Cu       2.09578148       8.98379165      15.24984600       0.00000000       0.00000000       0.00000000       0.00000000      -0.01600991       0.00012319      -0.30421989       0.01283956       0.03245503      -0.25424708
Cu       0.00000000       0.00000000      14.49986800       0.00000000       0.00000000       0.00000000       0.00000000      -0.07594327       0.00144020      -0.19559528      -0.10936352      -0.00162855      -0.26658871
Cu       0.00000000       2.56679762      14.49986800       0.00000000       0.00000000       0.00000000       0.00000000      -0.07373253      -0.00637915      -0.20418353      -0.12064800      -0.02478222      -0.23232824
Cu       0.00000000       5.13359523      14.49986800       0.00000000       0.00000000       0.00000000       0.00000000      -0.07379209       0.00687789      -0.21152136      -0.09277378       0.02514312      -0.25414647
Cu       0.00000000       7.70039285      14.49986800       0.00000000       0.00000000       0.00000000       0.00000000      -0.07529689      -0.00121401      -0.20111048      -0.12810579       0.00948589      -0.22088885
Cu       4.19156295       1.28339881      13.74989000       0.00000000       0.00000000       0.00000000       0.00000000      -0.04484377      -0.00191267      -0.12686417      -0.08211333      -0.01233371       0.00048308
Cu       4.19156295       3.85019642      13.74989000       0.00000000       0.00000000       0.00000000       0.00000000      -0.04401882       0.00090609      -0.12265299      -0.07264231      -0.03288326      -0.06838589
Cu       4.19156295       6.41699404      13.74989000       0.00000000       0.00000000       0.00000000       0.00000000      -0.04595061       0.00160258      -0.12485833      -0.06658530       0.02036537      -0.02343246
Cu       4.19156295       8.98379165      13.74989000       0.00000000       0.00000000       0.00000000       0.00000000      -0.04511383      -0.00058981      -0.11901290      -0.08841010       0.02397360      -0.04625422
Cu       2.09578148       0.00000000      12.99991200       0.00000000       0.00000000       0.00000000       0.00000000      -0.07891370       0.00131338       0.17298813      -0.08124371       0.00298590       0.26058109
Cu       2.09578148       2.56679762      12.99991200       0.00000000       0.00000000       0.00000000       0.00000000      -0.07904428      -0.00088023       0.17157620      -0.07874990      -0.00933269       0.26149963
Cu       2.09578148       5.13359523      12.99991200       0.00000000       0.00000000       0.00000000       0.00000000      -0.07936235       0.00117273       0.17317221      -0.13049099       0.00116401       0.28495029
Cu       2.09578148       7.70039285      12.99991200       0.00000000       0.00000000       0.00000000       0.00000000      -0.07882221      -0.00155063       0.17481711      -0.08279443       0.00204995       0.24516120
Cu      -0.00000000       1.28339881      12.24993400       0.00000000       0.00000000       0.00000000       0.00000000       0.11685821       0.00032239       0.43772558       0.10356482       0.01339049       0.69570711
Cu      -0.00000000       3.85019642      12.24993400       0.00000000       0.00000000       0.00000000       0.00000000       0.11684657       0.00031594       0.43809396       0.12972980      -0.00440597       0.69669567
Cu      -0.00000000       6.41699404      12.24993400       0.00000000       0.00000000       0.00000000       0.00000000       0.11637070      -0.00031061       0.43861545       0.11657173       0.00494366       0.69367472
Cu      -0.00000000       8.98379165      12.24993400       0.00000000       0.00000000       0.00000000       0.00000000       0.11673402      -0.00031254       0.43721357       0.12424058      -0.01201710       0.68982201
O        4.59738993       5.99248235      20.76577734       0.00000000       0.03364830       0.00534994       0.03734242       0.02069763       0.00756210       0.01450907       0.12171735      -0.14197177       0.21609968
C        4.39059085       6.89450600      19.79370907       0.00000000       0.01833937       0.00230782       0.05358742       0.01633350      -0.00604967       0.01891232       0.10148938       0.29217069       0.41641812
H        4.57707354       5.04835367      20.40940019       0.00000000       0.03379560       0.02399235       0.03821655       0.01719925      -0.00814079       0.02172860      -0.16489560      -0.38329299       0.09020853
O        4.44611781       8.11560530      20.03964178       0.00000000       0.02380835      -0.00746927       0.02537128       0.01531341      -0.00417773      -0.01208765      -0.12590490      -0.79119841      -0.38244009
O        4.43735361       3.04683658      19.68520403       0.50000000      -0.03449202      -0.23107206      -0.04220124       0.01649050      -0.00924390       0.04317735       0.01769908       0.81364080       0.01137597
H        3.61416001       2.99916135      20.20552613       0.50000000      -0.02189169      -0.07067341      -0.01823663       0.01745568      -0.00418209       0.01812716      -0.02342361      -0.14136009       0.15302261
42
Lattice="6.2873444314750255 0.0 0.0 0.0 10.26719046282867 0.0 0.0 0.0 28.249757996450562" Properties=species:S:1:pos:R:3:initial_magmoms:R:1:MACE_forces:R:3:forces:R:3:DFT_forces:R:3 adsorbate_info="_JSON {\"top layer atom index\": 0, \"sites\": {}}" MACE_energy=-172.21040794031626 energy=-172.68390777786715 stress="0.007113738132670693 1.792224612788411e-05 -0.0002868335116124752 1.792224612788411e-05 0.008088443376786384 5.6695896194413424e-05 -0.0002868335116124752 5.6695896194413424e-05 0.0015478057087840054" free_energy=-172.68390777786715 DFT_energy=-174.19379337 pbc="T T T"
Cu       4.16631487       1.39792262      18.20717961       0.00000000       0.00567640       0.03246464       0.19144762      -0.00824550       0.00143202       0.13805761       0.04072023      -0.09749915      -0.09916438
Cu       4.03513080       3.89910733      18.05033797       0.00000000      -0.01683774       0.01289191       0.13124732      -0.00549469      -0.00866168       0.14278076       0.12468732       0.12134657      -0.09265441
Cu       4.03650317       6.37515678      18.00481960       0.00000000      -0.00836432       0.00882691       0.14757702      -0.00648078       0.00262689       0.13715718       0.11000725       0.06818764       0.06531634
Cu       4.15400390       9.04661528      18.19139223       0.00000000       0.00325316      -0.00106601       0.16924582      -0.00028127       0.00555582       0.16027484       0.05747874      -0.00547106      -0.01410098
Cu       2.10164299      10.28800917      17.40957806       0.00000000       0.00651340       0.00419448       0.12847900       0.00638148       0.00375340       0.12663823      -0.01609915       0.03001188      -0.02570458
Cu       2.01982468       2.55991099      17.37233947       0.00000000      -0.00248066      -0.00575242       0.11883256       0.00626380      -0.00357783       0.12541429      -0.04667009      -0.01939952      -0.02494531
Cu       1.98293647       5.13347893      17.37914374       0.00000000      -0.00917837       0.00117268       0.11375215       0.00484510      -0.00102018       0.11980361      -0.05630177       0.03726882      -0.09892252
Cu       2.03296508       7.73300487      17.38757715       0.00000000       0.00646698       0.00648391       0.11846525       0.00481382       0.00139180       0.11785705      -0.06755200      -0.02127540      -0.07336187
Cu       6.26438998       1.27180150      16.72413177       0.00000000      -0.00311118      -0.00882710       0.09880926       0.00027657      -0.00082288       0.09896256       0.07403153      -0.00756400      -0.06312565
Cu       6.24585692       3.84523164      16.70725302       0.00000000      -0.00088095      -0.00586987       0.08747669       0.00230185      -0.00184984       0.09219005       0.07054864      -0.00722063      -0.10903053
Cu       6.25694505       6.43431112      16.71478332       0.00000000       0.00113106       0.00187812       0.08766410       0.00301628      -0.00049501       0.08956144       0.02370913      -0.00685242      -0.05723956
Cu       6.26918020       9.00280134      16.72424730       0.00000000       0.00506081       0.00233850       0.09294463       0.00209651       0.00335821       0.09219009       0.06078953       0.00992243      -0.09606125
Cu       4.19156295       0.00000000      15.99982400       0.00000000       0.00000000       0.00000000       0.00000000       0.06192391      -0.07112350      -0.44141036       0.10848922       0.05626430       0.20879676
Cu       4.19156295       2.56679762      15.99982400       0.00000000       0.00000000       0.00000000       0.00000000       0.05297905       0.11419804      -0.35384648       0.05847320      -0.10128693      -0.41015352
Cu       4.19156295       5.13359523      15.99982400       0.00000000       0.00000000       0.00000000       0.00000000       0.05900986      -0.13311331      -0.33770242       0.00363942      -0.12221144      -0.79888062
Cu       4.19156295       7.70039285      15.99982400       0.00000000       0.00000000       0.00000000       0.00000000       0.05801479       0.10742465      -0.38893962       0.07394350       0.27819848      -0.46650533
Cu       2.09578148       1.28339881      15.24984600       0.00000000       0.00000000       0.00000000       0.00000000       0.00048632      -0.00343857      -0.28218406      -0.00026984      -0.02546901      -0.33267438
Cu       2.09578148       3.85019642      15.24984600       0.00000000       0.00000000       0.00000000       0.00000000      -0.00061921       0.00804541      -0.30329918       0.04208966       0.00331683      -0.27470030
Cu       2.09578148       6.41699404      15.24984600       0.00000000       0.00000000       0.00000000       0.00000000      -0.00074309      -0.00037610      -0.27205576       0.06121323       0.04989416      -0.24292117
Cu       2.09578148       8.98379165      15.24984600       0.00000000       0.00000000       0.00000000       0.00000000      -0.01600991       0.00012319      -0.30421989       0.01271457       0.03275035      -0.25506618
Cu       0.00000000       0.00000000      14.49986800       0.00000000       0.00000000       0.00000000       0.00000000      -0.07594327       0.00144020      -0.19559528      -0.11002520      -0.00211000      -0.26435365
Cu       0.00000000       2.56679762      14.49986800       0.00000000       0.00000000       0.00000000       0.00000000      -0.07373253      -0.00637915      -0.20418353      -0.11829052      -0.02482043      -0.23272780
Cu       0.00000000       5.13359523      14.49986800       0.00000000       0.00000000       0.00000000       0.00000000      -0.07379209       0.00687789      -0.21152136      -0.09373549       0.02306133      -0.25156682
Cu       0.00000000       7.70039285      14.49986800       0.00000000       0.00000000       0.00000000       0.00000000      -0.07529689      -0.00121401      -0.20111048      -0.12760965       0.01008907      -0.22131797
Cu       4.19156295       1.28339881      13.74989000       0.00000000       0.00000000       0.00000000       0.00000000      -0.04484377      -0.00191267      -0.12686417      -0.08236922      -0.01322586       0.00068867
Cu       4.19156295       3.85019642      13.74989000       0.00000000       0.00000000       0.00000000       0.00000000      -0.04401882       0.00090609      -0.12265299      -0.07263633      -0.03261206      -0.07251895
Cu       4.19156295       6.41699404      13.74989000       0.00000000       0.00000000       0.00000000       0.00000000      -0.04595061       0.00160258      -0.12485833      -0.06563741       0.01863411      -0.02266137
Cu       4.19156295       8.98379165      13.74989000       0.00000000       0.00000000       0.00000000       0.00000000      -0.04511383      -0.00058981      -0.11901290      -0.08712386       0.02801762      -0.04706386
Cu       2.09578148       0.00000000      12.99991200       0.00000000       0.00000000       0.00000000       0.00000000      -0.07891370       0.00131338       0.17298813      -0.07744745       0.00202825       0.25883729
Cu       2.09578148       2.56679762      12.99991200       0.00000000       0.00000000       0.00000000       0.00000000      -0.07904428      -0.00088023       0.17157620      -0.07880197      -0.00909426       0.26009453
Cu       2.09578148       5.13359523      12.99991200       0.00000000       0.00000000       0.00000000       0.00000000      -0.07936235       0.00117273       0.17317221      -0.12891783       0.00133415       0.28495401
Cu       2.09578148       7.70039285      12.99991200       0.00000000       0.00000000       0.00000000       0.00000000      -0.07882221      -0.00155063       0.17481711      -0.08346138       0.00153557       0.24747031
Cu      -0.00000000       1.28339881      12.24993400       0.00000000       0.00000000       0.00000000       0.00000000       0.11685821       0.00032239       0.43772558       0.10269562       0.01430755       0.69227522
Cu      -0.00000000       3.85019642      12.24993400       0.00000000       0.00000000       0.00000000       0.00000000       0.11684657       0.00031594       0.43809396       0.12958149      -0.00527386       0.69706340
Cu      -0.00000000       6.41699404      12.24993400       0.00000000       0.00000000       0.00000000       0.00000000       0.11637070      -0.00031061       0.43861545       0.11443688       0.00443877       0.69594500
Cu      -0.00000000       8.98379165      12.24993400       0.00000000       0.00000000       0.00000000       0.00000000       0.11673402      -0.00031254       0.43721357       0.12047276      -0.01080132       0.69196428
O        4.59471156       5.98217579      20.76039559       0.00000000       0.03457124      -0.01715931       0.03259505       0.02069763       0.00756210       0.01450907       0.12034492      -0.14654497       0.19132289
C        4.38992442       6.88334943      19.79549825       0.00000000       0.02021810      -0.00668140       0.05731564       0.01633350      -0.00604967       0.01891232       0.10105825       0.28173233       0.41044425
H        4.57239335       5.02953102      20.40630843       0.00000000       0.03048107      -0.00135954       0.02894076       0.01719925      -0.00814079       0.02172860      -0.16437759      -0.29912949       0.11859599
O        4.44349335       8.10751790      20.03581159       0.00000000       0.02527472      -0.01667941       0.02423096       0.01531341      -0.00417773      -0.01208765      -0.12144498      -0.77852403      -0.35819987
O        4.44930170       3.16157077      19.73089200       0.50000000      -0.02950278      -0.16321377      -0.01583638       0.01649050      -0.00924390       0.04317735       0.01283505       0.74799911       0.00687763
H        3.61463488       3.02828563      20.21660984       0.50000000      -0.03110371      -0.03216982      -0.00274325       0.01745568      -0.00418209       0.01812716      -0.02518842      -0.08395348       0.17497626
42
Lattice="6.2873444314750255 0.0 0.0 0.0 10.26719046282867 0.0 0.0 0.0 28.249757996450562" Properties=species:S:1:pos:R:3:initial_magmoms:R:1:MACE_forces:R:3:forces:R:3:DFT_forces:R:3 adsorbate_info="_JSON {\"top layer atom index\": 0, \"sites\": {}}" MACE_energy=-172.19880114149393 energy=-172.68390777786715 stress="0.007113738132670693 1.792224612788411e-05 -0.0002868335116124752 1.792224612788411e-05 0.008088443376786384 5.6695896194413424e-05 -0.0002868335116124752 5.6695896194413424e-05 0.0015478057087840054" free_energy=-172.68390777786715 DFT_energy=-174.17162637 pbc="T T T"
Cu       4.16231796       1.37967802      18.18055365       0.00000000      -0.00891077      -0.00887413       0.13933929      -0.00824550       0.00143202       0.13805761       0.03223637      -0.11093837      -0.14412738
Cu       4.03614781       3.88759711      18.05061403       0.00000000      -0.01298689      -0.01377766       0.13242387      -0.00549469      -0.00866168       0.14278076       0.13697663       0.08770747      -0.04340835
Cu       4.03812296       6.37362824      18.00528877       0.00000000      -0.00682723       0.00438946       0.15446669      -0.00648078       0.00262689       0.13715718       0.10916982       0.06089911       0.06119810
Cu       4.15397773       9.04107529      18.19249213       0.00000000      -0.00007587      -0.01687462       0.16962851      -0.00028127       0.00555582       0.16027484       0.05375756      -0.01341537      -0.00958830
Cu       2.09935689      10.28578044      17.40885787       0.00000000       0.00037136      -0.00236933       0.12698662       0.00638148       0.00375340       0.12663823      -0.02148738       0.02345916      -0.02140847
Cu       2.02171363       2.55968744      17.37424311       0.00000000       0.00082611      -0.00783919       0.12249704       0.00626380      -0.00357783       0.12541429      -0.05482736      -0.02675709      -0.02659978
Cu       1.98454329       5.13254525      17.37877995       0.00000000      -0.00495404      -0.00357046       0.11295070       0.00484510      -0.00102018       0.11980361      -0.05180381       0.03409653      -0.09240839
Cu       2.03338080       7.73204736      17.38758829       0.00000000       0.00445538       0.00277816       0.11821140       0.00481382       0.00139180       0.11785705      -0.06748427      -0.02702096      -0.07159275
Cu       6.26661279       1.27248735      16.72328366       0.00000000      -0.00078920      -0.00672222       0.09882094       0.00027657      -0.00082288       0.09896256       0.07271840      -0.00880416      -0.06767207
Cu       6.24580431       3.84470744      16.70812813       0.00000000      -0.00078103      -0.00669116       0.08956498       0.00230185      -0.00184984       0.09219005       0.07351027      -0.00316935      -0.11021362
Cu       6.25765030       6.43426157      16.71418035       0.00000000       0.00206692       0.00059445       0.08724423       0.00301628      -0.00049501       0.08956144       0.02088113      -0.01036982      -0.05306889
Cu       6.26894166       9.00270992      16.72459192       0.00000000       0.00284081       0.00220820       0.09386501       0.00209651       0.00335821       0.09219009       0.06000159       0.00964158      -0.09785357
Cu       4.19156295       0.00000000      15.99982400       0.00000000       0.00000000       0.00000000       0.00000000       0.06192391      -0.07112350      -0.44141036       0.11253900       0.01893718       0.16948539
Cu       4.19156295       2.56679762      15.99982400       0.00000000       0.00000000       0.00000000       0.00000000       0.05297905       0.11419804      -0.35384648       0.06171272      -0.07765761      -0.44726530
Cu       4.19156295       5.13359523      15.99982400       0.00000000       0.00000000       0.00000000       0.00000000       0.05900986      -0.13311331      -0.33770242       0.00660264      -0.13308101      -0.78976072
Cu       4.19156295       7.70039285      15.99982400       0.00000000       0.00000000       0.00000000       0.00000000       0.05801479       0.10742465      -0.38893962       0.07480131       0.27108596      -0.46512365
Cu       2.09578148       1.28339881      15.24984600       0.00000000       0.00000000       0.00000000       0.00000000       0.00048632      -0.00343857      -0.28218406      -0.00126843      -0.02353448      -0.33419757
Cu       2.09578148       3.85019642      15.24984600       0.00000000       0.00000000       0.00000000       0.00000000      -0.00061921       0.00804541      -0.30329918       0.04149821       0.00062828      -0.27062894
Cu       2.09578148       6.41699404      15.24984600       0.00000000       0.00000000       0.00000000       0.00000000      -0.00074309      -0.00037610      -0.27205576       0.06364634       0.04812850      -0.24249014
Cu       2.09578148       8.98379165      15.24984600       0.00000000       0.00000000       0.00000000       0.00000000      -0.01600991       0.00012319      -0.30421989       0.01245187       0.03142223      -0.25567306
Cu       0.00000000       0.00000000      14.49986800       0.00000000       0.00000000       0.00000000       0.00000000      -0.07594327       0.00144020      -0.19559528      -0.10995796      -0.00273724      -0.26269180
Cu       0.00000000       2.56679762      14.49986800       0.00000000       0.00000000       0.00000000       0.00000000      -0.07373253      -0.00637915      -0.20418353      -0.11652290      -0.02419975      -0.23250301
Cu       0.00000000       5.13359523      14.49986800       0.00000000       0.00000000       0.00000000       0.00000000      -0.07379209       0.00687789      -0.21152136      -0.09436387       0.02139232      -0.24935943
Cu       0.00000000       7.70039285      14.49986800       0.00000000       0.00000000       0.00000000       0.00000000      -0.07529689      -0.00121401      -0.20111048      -0.12674333       0.01062490      -0.22138075
Cu       4.19156295       1.28339881      13.74989000       0.00000000       0.00000000       0.00000000       0.00000000      -0.04484377      -0.00191267      -0.12686417      -0.08233881      -0.01389938      -0.00010719
Cu       4.19156295       3.85019642      13.74989000       0.00000000       0.00000000       0.00000000       0.00000000      -0.04401882       0.00090609      -0.12265299      -0.07252477      -0.03232805      -0.07432638
Cu       4.19156295       6.41699404      13.74989000       0.00000000       0.00000000       0.00000000       0.00000000      -0.04595061       0.00160258      -0.12485833      -0.06483209       0.01670643      -0.02129664
Cu       4.19156295       8.98379165      13.74989000       0.00000000       0.00000000       0.00000000       0.00000000      -0.04511383      -0.00058981      -0.11901290      -0.08573488       0.03037540      -0.04754315
Cu       2.09578148       0.00000000      12.99991200       0.00000000       0.00000000       0.00000000       0.00000000      -0.07891370       0.00131338       0.17298813      -0.07449654       0.00138422       0.25812500
Cu       2.09578148       2.56679762      12.99991200       0.00000000       0.00000000       0.00000000       0.00000000      -0.07904428      -0.00088023       0.17157620      -0.07867945      -0.00924353       0.25911186
Cu       2.09578148       5.13359523      12.99991200       0.00000000       0.00000000       0.00000000       0.00000000      -0.07936235       0.00117273       0.17317221      -0.12714620       0.00125523       0.28574371
Cu       2.09578148       7.70039285      12.99991200       0.00000000       0.00000000       0.00000000       0.00000000      -0.07882221      -0.00155063       0.17481711      -0.08369120       0.00097165       0.25040881
Cu      -0.00000000       1.28339881      12.24993400       0.00000000       0.00000000       0.00000000       0.00000000       0.11685821       0.00032239       0.43772558       0.10254288       0.01489361       0.69031906
Cu      -0.00000000       3.85019642      12.24993400       0.00000000       0.00000000       0.00000000       0.00000000       0.11684657       0.00031594       0.43809396       0.12966159      -0.00642552       0.69786963
Cu      -0.00000000       6.41699404      12.24993400       0.00000000       0.00000000       0.00000000       0.00000000       0.11637070      -0.00031061       0.43861545       0.11234728       0.00375626       0.69869919
Cu      -0.00000000       8.98379165      12.24993400       0.00000000       0.00000000       0.00000000       0.00000000       0.11673402      -0.00031254       0.43721357       0.11747974      -0.00981949       0.69440993
O        4.59108840       5.98103237      20.75854776       0.00000000       0.03428528      -0.02466046       0.02273826       0.02069763       0.00756210       0.01450907       0.11867932      -0.16231017       0.17442601
C        4.38833039       6.87931448      19.79888459       0.00000000       0.02142083      -0.02227484       0.05781380       0.01633350      -0.00604967       0.01891232       0.10054058       0.25710354       0.40305104
H        4.56599792       5.01886973      20.40670264       0.00000000       0.01843212      -0.02185607       0.02796061       0.01719925      -0.00814079       0.02172860      -0.16730485      -0.14762651       0.15978562
O        4.43954860       8.10701133      20.03190291       0.00000000       0.02696296      -0.02928438       0.02318101       0.01531341      -0.00417773      -0.01208765      -0.12007161      -0.74869527      -0.35431137
O        4.45697071       3.25141183      19.76694114       0.50000000      -0.01890507      -0.00069071       0.05729637       0.01649050      -0.00924390       0.04317735       0.00034581       0.68465211       0.00889676
H        3.62115617       3.03901079      20.22166016       0.50000000      -0.02719474      -0.00363686       0.01519926       0.01745568      -0.00418209       0.01812716      -0.01282135      -0.03708852       0.19507060
42
Lattice="6.2873444314750255 0.0 0.0 0.0 10.26719046282867 0.0 0.0 0.0 28.249757996450562" Properties=species:S:1:pos:R:3:initial_magmoms:R:1:MACE_forces:R:3:forces:R:3:DFT_forces:R:3 adsorbate_info="_JSON {\"top layer atom index\": 0, \"sites\": {}}" MACE_energy=-172.2161966449828 energy=-172.68390777786715 stress="0.007113738132670693 1.792224612788411e-05 -0.0002868335116124752 1.792224612788411e-05 0.008088443376786384 5.6695896194413424e-05 -0.0002868335116124752 5.6695896194413424e-05 0.0015478057087840054" free_energy=-172.68390777786715 DFT_energy=-174.17644112 pbc="T T T"
Cu       4.14127316       1.33790683      18.14323019       0.00000000      -0.01866378      -0.05079165       0.08343460      -0.00824550       0.00143202       0.13805761       0.03876460      -0.10496539      -0.14624417
Cu       4.04458543       3.86196990      18.05578121       0.00000000      -0.00560638      -0.03799577       0.13970382      -0.00549469      -0.00866168       0.14278076       0.15495363       0.05778074       0.03018722
Cu       4.03656162       6.36485659      18.00823084       0.00000000      -0.00102539      -0.00117449       0.15496179      -0.00648078       0.00262689       0.13715718       0.11443830       0.05721613       0.04397985
Cu       4.14866484       9.02085951      18.19292390       0.00000000       0.00056524      -0.02542994       0.16820827      -0.00028127       0.00555582       0.16027484       0.06028346      -0.00654311      -0.00602451
Cu       2.09011438      10.27620780      17.40657965       0.00000000      -0.00786420      -0.00848149       0.12526872       0.00638148       0.00375340       0.12663823      -0.03285078       0.01820686      -0.02230842
Cu       2.02280822       2.55671116      17.37644861       0.00000000       0.00408236      -0.00815688       0.12691774       0.00626380      -0.00357783       0.12541429      -0.06273242      -0.03653024      -0.03133603
Cu       1.98835555       5.12583413      17.37859358       0.00000000      -0.00287656      -0.00553971       0.11280374       0.00484510      -0.00102018       0.11980361      -0.04654591       0.03450520      -0.08416951
Cu       2.03007228       7.72611165      17.38709477       0.00000000       0.00723261      -0.00093071       0.11824526       0.00481382       0.00139180       0.11785705      -0.06118911      -0.03593280      -0.07042913
Cu       6.26655059       1.27403413      16.72381527       0.00000000       0.00380016      -0.00645307       0.09638687       0.00027657      -0.00082288       0.09896256       0.06944711      -0.01341593      -0.07458973
Cu       6.24605668       3.84426890      16.70949904       0.00000000      -0.00080414      -0.00906224       0.09067741       0.00230185      -0.00184984       0.09219005       0.07364715      -0.00178008      -0.11627753
Cu       6.25734624       6.43206875      16.71492092       0.00000000       0.00348650      -0.00046219       0.08538478       0.00301628      -0.00049501       0.08956144       0.01921429      -0.01761643      -0.04904872
Cu       6.26574014       9.00151846      16.72480783       0.00000000       0.00200065      -0.00046074       0.09399680       0.00209651       0.00335821       0.09219009       0.06007221       0.00745475      -0.10188625
Cu       4.19156295       0.00000000      15.99982400       0.00000000       0.00000000       0.00000000       0.00000000       0.06192391      -0.07112350      -0.44141036       0.10541631      -0.05129416       0.09461495
Cu       4.19156295       2.56679762      15.99982400       0.00000000       0.00000000       0.00000000       0.00000000       0.05297905       0.11419804      -0.35384648       0.06367413      -0.04923018      -0.48774452
Cu       4.19156295       5.13359523      15.99982400       0.00000000       0.00000000       0.00000000       0.00000000       0.05900986      -0.13311331      -0.33770242       0.00868427      -0.16689554      -0.75846071
Cu       4.19156295       7.70039285      15.99982400       0.00000000       0.00000000       0.00000000       0.00000000       0.05801479       0.10742465      -0.38893962       0.06672070       0.24203679      -0.45646266
Cu       2.09578148       1.28339881      15.24984600       0.00000000       0.00000000       0.00000000       0.00000000       0.00048632      -0.00343857      -0.28218406      -0.00591431      -0.02457096      -0.33329228
Cu       2.09578148       3.85019642      15.24984600       0.00000000       0.00000000       0.00000000       0.00000000      -0.00061921       0.00804541      -0.30329918       0.03932839      -0.00755671      -0.27176869
Cu       2.09578148       6.41699404      15.24984600       0.00000000       0.00000000       0.00000000       0.00000000      -0.00074309      -0.00037610      -0.27205576       0.06478258       0.03812284      -0.24017089
Cu       2.09578148       8.98379165      15.24984600       0.00000000       0.00000000       0.00000000       0.00000000      -0.01600991       0.00012319      -0.30421989       0.00838242       0.02292741      -0.26176092
Cu       0.00000000       0.00000000      14.49986800       0.00000000       0.00000000       0.00000000       0.00000000      -0.07594327       0.00144020      -0.19559528      -0.11038521      -0.00108295      -0.25685085
Cu       0.00000000       2.56679762      14.49986800       0.00000000       0.00000000       0.00000000       0.00000000      -0.07373253      -0.00637915      -0.20418353      -0.11413985      -0.02396684      -0.23153581
Cu       0.00000000       5.13359523      14.49986800       0.00000000       0.00000000       0.00000000       0.00000000      -0.07379209       0.00687789      -0.21152136      -0.09604604       0.01956633      -0.24811850
Cu       0.00000000       7.70039285      14.49986800       0.00000000       0.00000000       0.00000000       0.00000000      -0.07529689      -0.00121401      -0.20111048      -0.12563503       0.00891258      -0.21877744
Cu       4.19156295       1.28339881      13.74989000       0.00000000       0.00000000       0.00000000       0.00000000      -0.04484377      -0.00191267      -0.12686417      -0.08227574      -0.01526012      -0.00106424
Cu       4.19156295       3.85019642      13.74989000       0.00000000       0.00000000       0.00000000       0.00000000      -0.04401882       0.00090609      -0.12265299      -0.07272515      -0.03097043      -0.07774255
Cu       4.19156295       6.41699404      13.74989000       0.00000000       0.00000000       0.00000000       0.00000000      -0.04595061       0.00160258      -0.12485833      -0.06409325       0.01402699      -0.02001259
Cu       4.19156295       8.98379165      13.74989000       0.00000000       0.00000000       0.00000000       0.00000000      -0.04511383      -0.00058981      -0.11901290      -0.08456530       0.03332915      -0.04988194
Cu       2.09578148       0.00000000      12.99991200       0.00000000       0.00000000       0.00000000       0.00000000      -0.07891370       0.00131338       0.17298813      -0.07087358       0.00110701       0.25627689
Cu       2.09578148       2.56679762      12.99991200       0.00000000       0.00000000       0.00000000       0.00000000      -0.07904428      -0.00088023       0.17157620      -0.07909953      -0.00938186       0.25604588
Cu       2.09578148       5.13359523      12.99991200       0.00000000       0.00000000       0.00000000       0.00000000      -0.07936235       0.00117273       0.17317221      -0.12445802       0.00121039       0.28560761
Cu       2.09578148       7.70039285      12.99991200       0.00000000       0.00000000       0.00000000       0.00000000      -0.07882221      -0.00155063       0.17481711      -0.08448520       0.00024260       0.25408191
Cu      -0.00000000       1.28339881      12.24993400       0.00000000       0.00000000       0.00000000       0.00000000       0.11685821       0.00032239       0.43772558       0.10179349       0.01547266       0.68572319
Cu      -0.00000000       3.85019642      12.24993400       0.00000000       0.00000000       0.00000000       0.00000000       0.11684657       0.00031594       0.43809396       0.12970729      -0.00806251       0.69720668
Cu      -0.00000000       6.41699404      12.24993400       0.00000000       0.00000000       0.00000000       0.00000000       0.11637070      -0.00031061       0.43861545       0.10784265       0.00283392       0.70068391
Cu      -0.00000000       8.98379165      12.24993400       0.00000000       0.00000000       0.00000000       0.00000000       0.11673402      -0.00031254       0.43721357       0.11316556      -0.00825809       0.69615925
O        4.60221849       5.97467277      20.75552026       0.00000000       0.03100724      -0.01572370       0.02744520       0.02069763       0.00756210       0.01450907       0.10419560      -0.19098504       0.14253562
C        4.39801609       6.86668638      19.80323320       0.00000000       0.02147857      -0.01992932       0.06913298       0.01633350      -0.00604967       0.01891232       0.09952690       0.24421452       0.36799906
H        4.56052760       4.99529927      20.40740180       0.00000000      -0.00146721      -0.04206946       0.03944513       0.01719925      -0.00814079       0.02172860      -0.17182034       0.08011141       0.19268477
O        4.45165870       8.09946450      20.02396352       0.00000000       0.02134017      -0.02165305       0.01011743       0.01531341      -0.00417773      -0.01208765      -0.12461008      -0.67763564      -0.30864213
O        4.45137551       3.35901807      19.81959402       0.50000000      -0.00900060       0.18146211       0.12249867       0.01649050      -0.00924390       0.04317735      -0.01035717       0.57414590       0.01605156
H        3.62104537       3.06285563      20.23669473       0.50000000       0.00030990       0.02964936       0.02730897       0.01745568      -0.00418209       0.01812716       0.02076100       0.00851082       0.20476236
42
Lattice="6.2873444314750255 0.0 0.0 0.0 10.26719046282867 0.0 0.0 0.0 28.249757996450562" Properties=species:S:1:pos:R:3:initial_magmoms:R:1:MACE_forces:R:3:forces:R:3:DFT_forces:R:3 adsorbate_info="_JSON {\"top layer atom index\": 0, \"sites\": {}}" MACE_energy=-172.25487524186798 energy=-172.68390777786715 stress="0.007113738132670693 1.792224612788411e-05 -0.0002868335116124752 1.792224612788411e-05 0.008088443376786384 5.6695896194413424e-05 -0.0002868335116124752 5.6695896194413424e-05 0.0015478057087840054" free_energy=-172.68390777786715 DFT_energy=-174.1935881 pbc="T T T"
Cu       4.13111757       1.31141122      18.11752870       0.00000000      -0.03058758      -0.07733996       0.05908353      -0.00824550       0.00143202       0.13805761       0.03758723      -0.09332881      -0.16700126
Cu       4.05372857       3.84661408      18.06155628       0.00000000       0.00905244      -0.05470510       0.14660846      -0.00549469      -0.00866168       0.14278076       0.16812832       0.03325960       0.06910866
Cu       4.03844800       6.36272934      18.01030149       0.00000000       0.00681616       0.00185004       0.17996220      -0.00648078       0.00262689       0.13715718       0.11690520       0.05852697       0.05511534
Cu       4.14659417       9.01088448      18.19281868       0.00000000      -0.00321991      -0.03448534       0.16191250      -0.00028127       0.00555582       0.16027484       0.05940364      -0.00266395      -0.00812812
Cu       2.08483783      10.27136868      17.40522580       0.00000000      -0.01969905      -0.01595818       0.12325049       0.00638148       0.00375340       0.12663823      -0.04435017       0.01165035      -0.02248260
Cu       2.02548348       2.55630275      17.37873825       0.00000000       0.00629965      -0.00824661       0.12984233       0.00626380      -0.00357783       0.12541429      -0.06161939      -0.04335172      -0.03264414
Cu       1.99228867       5.12279631      17.37894677       0.00000000      -0.00144882      -0.00931709       0.11336537       0.00484510      -0.00102018       0.11980361      -0.03757589       0.03312641      -0.07263600
Cu       2.02895431       7.72349609      17.38724154       0.00000000       0.00635752      -0.00543865       0.11742545       0.00481382       0.00139180       0.11785705      -0.05708110      -0.04438458      -0.06680917
Cu       6.26824486       1.27571976      16.72337349       0.00000000       0.00391006      -0.00530738       0.09698612       0.00027657      -0.00082288       0.09896256       0.06196016      -0.01588076      -0.07528798
Cu       6.24707206       3.84456330      16.71066500       0.00000000       0.00082063      -0.01069659       0.09035090       0.00230185      -0.00184984       0.09219005       0.07458546      -0.00220522      -0.11925936
Cu       6.25832918       6.43105632      16.71488554       0.00000000       0.00377573      -0.00226778       0.08463177       0.00301628      -0.00049501       0.08956144       0.01468448      -0.02276257      -0.04422184
Cu       6.26424677       9.00127716      16.72502984       0.00000000       0.00015935      -0.00316603       0.09421710       0.00209651       0.00335821       0.09219009       0.05914596       0.00542107      -0.10410371
Cu       4.19156295       0.00000000      15.99982400       0.00000000       0.00000000       0.00000000       0.00000000       0.06192391      -0.07112350      -0.44141036       0.10643668      -0.10647676       0.02441387
Cu       4.19156295       2.56679762      15.99982400       0.00000000       0.00000000       0.00000000       0.00000000       0.05297905       0.11419804      -0.35384648       0.06709989      -0.02160552      -0.50344825
Cu       4.19156295       5.13359523      15.99982400       0.00000000       0.00000000       0.00000000       0.00000000       0.05900986      -0.13311331      -0.33770242       0.01364856      -0.18289930      -0.72991520
Cu       4.19156295       7.70039285      15.99982400       0.00000000       0.00000000       0.00000000       0.00000000       0.05801479       0.10742465      -0.38893962       0.06559958       0.22753153      -0.45463678
Cu       2.09578148       1.28339881      15.24984600       0.00000000       0.00000000       0.00000000       0.00000000       0.00048632      -0.00343857      -0.28218406      -0.00765933      -0.02342597      -0.33249084
Cu       2.09578148       3.85019642      15.24984600       0.00000000       0.00000000       0.00000000       0.00000000      -0.00061921       0.00804541      -0.30329918       0.03696045      -0.01159553      -0.27050878
Cu       2.09578148       6.41699404      15.24984600       0.00000000       0.00000000       0.00000000       0.00000000      -0.00074309      -0.00037610      -0.27205576       0.06642879       0.03246929      -0.23958818
Cu       2.09578148       8.98379165      15.24984600       0.00000000       0.00000000       0.00000000       0.00000000      -0.01600991       0.00012319      -0.30421989       0.00694066       0.01806525      -0.26245935
Cu       0.00000000       0.00000000      14.49986800       0.00000000       0.00000000       0.00000000       0.00000000      -0.07594327       0.00144020      -0.19559528      -0.11080986       0.00007085      -0.25337286
Cu       0.00000000       2.56679762      14.49986800       0.00000000       0.00000000       0.00000000       0.00000000      -0.07373253      -0.00637915      -0.20418353      -0.11304869      -0.02243181      -0.23037465
Cu       0.00000000       5.13359523      14.49986800       0.00000000       0.00000000       0.00000000       0.00000000      -0.07379209       0.00687789      -0.21152136      -0.09750159       0.01822966      -0.24608938
Cu       0.00000000       7.70039285      14.49986800       0.00000000       0.00000000       0.00000000       0.00000000      -0.07529689      -0.00121401      -0.20111048      -0.12437034       0.00872194      -0.21773376
Cu       4.19156295       1.28339881      13.74989000       0.00000000       0.00000000       0.00000000       0.00000000      -0.04484377      -0.00191267      -0.12686417      -0.08198595      -0.01581458       0.00097125
Cu       4.19156295       3.85019642      13.74989000       0.00000000       0.00000000       0.00000000       0.00000000      -0.04401882       0.00090609      -0.12265299      -0.07273830      -0.03032341      -0.07885294
Cu       4.19156295       6.41699404      13.74989000       0.00000000       0.00000000       0.00000000       0.00000000      -0.04595061       0.00160258      -0.12485833      -0.06393646       0.01115320      -0.01748222
Cu       4.19156295       8.98379165      13.74989000       0.00000000       0.00000000       0.00000000       0.00000000      -0.04511383      -0.00058981      -0.11901290      -0.08291961       0.03548255      -0.05194794
Cu       2.09578148       0.00000000      12.99991200       0.00000000       0.00000000       0.00000000       0.00000000      -0.07891370       0.00131338       0.17298813      -0.06807812       0.00149547       0.25482354
Cu       2.09578148       2.56679762      12.99991200       0.00000000       0.00000000       0.00000000       0.00000000      -0.07904428      -0.00088023       0.17157620      -0.07843169      -0.00964841       0.25317358
Cu       2.09578148       5.13359523      12.99991200       0.00000000       0.00000000       0.00000000       0.00000000      -0.07936235       0.00117273       0.17317221      -0.12100348       0.00145298       0.28551855
Cu       2.09578148       7.70039285      12.99991200       0.00000000       0.00000000       0.00000000       0.00000000      -0.07882221      -0.00155063       0.17481711      -0.08518542      -0.00066148       0.25884305
Cu      -0.00000000       1.28339881      12.24993400       0.00000000       0.00000000       0.00000000       0.00000000       0.11685821       0.00032239       0.43772558       0.10120833       0.01520959       0.68315461
Cu      -0.00000000       3.85019642      12.24993400       0.00000000       0.00000000       0.00000000       0.00000000       0.11684657       0.00031594       0.43809396       0.12943470      -0.00986430       0.69782674
Cu      -0.00000000       6.41699404      12.24993400       0.00000000       0.00000000       0.00000000       0.00000000       0.11637070      -0.00031061       0.43861545       0.10368735       0.00189830       0.70380046
Cu      -0.00000000       8.98379165      12.24993400       0.00000000       0.00000000       0.00000000       0.00000000       0.11673402      -0.00031254       0.43721357       0.10954248      -0.00597345       0.69879068
O        4.59613143       5.98082035      20.75517969       0.00000000       0.02200277      -0.01501397      -0.00203116       0.02069763       0.00756210       0.01450907       0.08523593      -0.26341412       0.06574532
C        4.39611435       6.86870508      19.81002876       0.00000000       0.02077952      -0.01588514       0.07021384       0.01633350      -0.00604967       0.01891232       0.09301501       0.20673096       0.33721322
H        4.54662682       4.97375813      20.40633035       0.00000000      -0.02954253      -0.10752042       0.04006092       0.01719925      -0.00814079       0.02172860      -0.18896980       0.24436653       0.22042995
O        4.44841034       8.10672355      20.01867720       0.00000000       0.02193045      -0.02350296       0.01058512       0.01531341      -0.00417773      -0.01208765      -0.12230966      -0.64968995      -0.26194514
O        4.45455924       3.45976951      19.85923337       0.50000000      -0.01709549       0.32675709       0.17772453       0.01649050      -0.00924390       0.04317735      -0.02658538       0.55388950       0.03810849
H        3.64125478       3.09063980      20.25258857       0.50000000       0.04308634       0.07885520       0.04883265       0.01745568      -0.00418209       0.01812716       0.06852140       0.05965019       0.21638315
42
Lattice="6.2873444314750255 0.0 0.0 0.0 10.26719046282867 0.0 0.0 0.0 28.249757996450562" Properties=species:S:1:pos:R:3:initial_magmoms:R:1:MACE_forces:R:3:forces:R:3:DFT_forces:R:3 adsorbate_info="_JSON {\"top layer atom index\": 0, \"sites\": {}}" MACE_energy=-172.31019851045534 energy=-172.68390777786715 stress="0.007113738132670693 1.792224612788411e-05 -0.0002868335116124752 1.792224612788411e-05 0.008088443376786384 5.6695896194413424e-05 -0.0002868335116124752 5.6695896194413424e-05 0.0015478057087840054" free_energy=-172.68390777786715 DFT_energy=-174.21105259 pbc="T T T"
Cu       4.12568522       1.29521769      18.10023960       0.00000000      -0.04211143      -0.09223932       0.05733766      -0.00824550       0.00143202       0.13805761       0.02263745      -0.08826374      -0.17183619
Cu       4.06107156       3.83773860      18.06556883       0.00000000       0.02659921      -0.06486468       0.16146134      -0.00549469      -0.00866168       0.14278076       0.17390943       0.02683529       0.05789199
Cu       4.04095199       6.36294091      18.01279970       0.00000000       0.00768451       0.00574450       0.18399290      -0.00648078       0.00262689       0.13715718       0.11146645       0.05895202       0.04631194
Cu       4.14620125       9.00512175      18.19272969       0.00000000      -0.00716711      -0.04415287       0.16075569      -0.00028127       0.00555582       0.16027484       0.05369480      -0.00022513      -0.01342473
Cu       2.08052370      10.26813019      17.40437541       0.00000000      -0.02336377      -0.02042812       0.12286282       0.00638148       0.00375340       0.12663823      -0.04607831       0.00900948      -0.02189356
Cu       2.02719195       2.55654978      17.38047777       0.00000000       0.00750640      -0.00997886       0.13076889       0.00626380      -0.00357783       0.12541429      -0.05281790      -0.04982629      -0.03377722
Cu       1.99379847       5.12156660      17.37929466       0.00000000       0.00306314      -0.01281242       0.11426876       0.00484510      -0.00102018       0.11980361      -0.02139804       0.03352847      -0.06232940
Cu       2.02903387       7.72184263      17.38712533       0.00000000       0.00132772      -0.00785512       0.11732957       0.00481382       0.00139180       0.11785705      -0.05451692      -0.05256051      -0.06176034
Cu       6.26961723       1.27623977      16.72268484       0.00000000       0.00312732      -0.00248523       0.09862631       0.00027657      -0.00082288       0.09896256       0.05383478      -0.01569684      -0.07446933
Cu       6.24769178       3.84407812      16.71073174       0.00000000       0.00418111      -0.00892076       0.09039209       0.00230185      -0.00184984       0.09219005       0.07566066      -0.00038455      -0.11930522
Cu       6.25887617       6.43040490      16.71443159       0.00000000       0.00475208      -0.00500403       0.08530348       0.00301628      -0.00049501       0.08956144       0.00991934      -0.02756968      -0.03925051
Cu       6.26364021       9.00028131      16.72493307       0.00000000      -0.00280542      -0.00244086       0.09428632       0.00209651       0.00335821       0.09219009       0.05727324       0.00653979      -0.10625404
Cu       4.19156295       0.00000000      15.99982400       0.00000000       0.00000000       0.00000000       0.00000000       0.06192391      -0.07112350      -0.44141036       0.10702584      -0.14879837      -0.03159260
Cu       4.19156295       2.56679762      15.99982400       0.00000000       0.00000000       0.00000000       0.00000000       0.05297905       0.11419804      -0.35384648       0.06737877      -0.00026861      -0.50717990
Cu       4.19156295       5.13359523      15.99982400       0.00000000       0.00000000       0.00000000       0.00000000       0.05900986      -0.13311331      -0.33770242       0.01695335      -0.18795756      -0.70730016
Cu       4.19156295       7.70039285      15.99982400       0.00000000       0.00000000       0.00000000       0.00000000       0.05801479       0.10742465      -0.38893962       0.06544724       0.21902680      -0.45524276
Cu       2.09578148       1.28339881      15.24984600       0.00000000       0.00000000       0.00000000       0.00000000       0.00048632      -0.00343857      -0.28218406      -0.00928788      -0.02333452      -0.33360814
Cu       2.09578148       3.85019642      15.24984600       0.00000000       0.00000000       0.00000000       0.00000000      -0.00061921       0.00804541      -0.30329918       0.03442587      -0.01324077      -0.27006347
Cu       2.09578148       6.41699404      15.24984600       0.00000000       0.00000000       0.00000000       0.00000000      -0.00074309      -0.00037610      -0.27205576       0.06714855       0.02822692      -0.24325743
Cu       2.09578148       8.98379165      15.24984600       0.00000000       0.00000000       0.00000000       0.00000000      -0.01600991       0.00012319      -0.30421989       0.00742777       0.01520640      -0.26288673
Cu       0.00000000       0.00000000      14.49986800       0.00000000       0.00000000       0.00000000       0.00000000      -0.07594327       0.00144020      -0.19559528      -0.11171200       0.00093319      -0.25236983
Cu       0.00000000       2.56679762      14.49986800       0.00000000       0.00000000       0.00000000       0.00000000      -0.07373253      -0.00637915      -0.20418353      -0.11204423      -0.02228186      -0.23144582
Cu       0.00000000       5.13359523      14.49986800       0.00000000       0.00000000       0.00000000       0.00000000      -0.07379209       0.00687789      -0.21152136      -0.09890395       0.01792153      -0.24542949
Cu       0.00000000       7.70039285      14.49986800       0.00000000       0.00000000       0.00000000       0.00000000      -0.07529689      -0.00121401      -0.20111048      -0.12330696       0.00801268      -0.21918936
Cu       4.19156295       1.28339881      13.74989000       0.00000000       0.00000000       0.00000000       0.00000000      -0.04484377      -0.00191267      -0.12686417      -0.08209599      -0.01645261       0.00115943
Cu       4.19156295       3.85019642      13.74989000       0.00000000       0.00000000       0.00000000       0.00000000      -0.04401882       0.00090609      -0.12265299      -0.07270096      -0.02988726      -0.08030482
Cu       4.19156295       6.41699404      13.74989000       0.00000000       0.00000000       0.00000000       0.00000000      -0.04595061       0.00160258      -0.12485833      -0.06455379       0.00823677      -0.01434880
Cu       4.19156295       8.98379165      13.74989000       0.00000000       0.00000000       0.00000000       0.00000000      -0.04511383      -0.00058981      -0.11901290      -0.08182221       0.03766676      -0.05477143
Cu       2.09578148       0.00000000      12.99991200       0.00000000       0.00000000       0.00000000       0.00000000      -0.07891370       0.00131338       0.17298813      -0.06560109       0.00263349       0.25213236
Cu       2.09578148       2.56679762      12.99991200       0.00000000       0.00000000       0.00000000       0.00000000      -0.07904428      -0.00088023       0.17157620      -0.07693283      -0.01029676       0.24915642
Cu       2.09578148       5.13359523      12.99991200       0.00000000       0.00000000       0.00000000       0.00000000      -0.07936235       0.00117273       0.17317221      -0.11717247       0.00223434       0.28440858
Cu       2.09578148       7.70039285      12.99991200       0.00000000       0.00000000       0.00000000       0.00000000      -0.07882221      -0.00155063       0.17481711      -0.08598513      -0.00164585       0.26314499
Cu      -0.00000000       1.28339881      12.24993400       0.00000000       0.00000000       0.00000000       0.00000000       0.11685821       0.00032239       0.43772558       0.10070809       0.01427278       0.68024195
Cu      -0.00000000       3.85019642      12.24993400       0.00000000       0.00000000       0.00000000       0.00000000       0.11684657       0.00031594       0.43809396       0.12835125      -0.01162157       0.69798306
Cu      -0.00000000       6.41699404      12.24993400       0.00000000       0.00000000       0.00000000       0.00000000       0.11637070      -0.00031061       0.43861545       0.09967298       0.00102172       0.70674210
Cu      -0.00000000       8.98379165      12.24993400       0.00000000       0.00000000       0.00000000       0.00000000       0.11673402      -0.00031254       0.43721357       0.10676481      -0.00311637       0.70086699
O        4.59099549       5.98708077      20.75181630       0.00000000       0.01140237      -0.00747544      -0.00890757       0.02069763       0.00756210       0.01450907       0.05882823      -0.36076621      -0.01971581
C        4.39560176       6.87137323      19.81704830       0.00000000       0.02504852       0.00856083       0.10043722       0.01633350      -0.00604967       0.01891232       0.08285213       0.19523957       0.28451531
H        4.53222303       4.93154664      20.39919467       0.00000000      -0.06509932      -0.27910145      -0.01047457       0.01719925      -0.00814079       0.02172860      -0.17914676       0.39747982       0.29392461
O        4.44610884       8.11490565      20.01260280       0.00000000       0.02066865       0.02218223      -0.00771297       0.01531341      -0.00417773      -0.01208765      -0.10495851      -0.62814418      -0.15174102
O        4.45594115       3.54566901      19.88970550       0.50000000      -0.01482222       0.44202691       0.22264585       0.01649050      -0.00924390       0.04317735      -0.04729140       0.48779484       0.02583779
H        3.66246486       3.11880992      20.26606463       0.50000000       0.07877386       0.13738453       0.08779276       0.01745568      -0.00418209       0.01812716       0.10694631       0.12156657       0.24043059
42
Lattice="6.2873444314750255 0.0 0.0 0.0 10.26719046282867 0.0 0.0 0.0 28.249757996450562" Properties=species:S:1:pos:R:3:initial_magmoms:R:1:MACE_forces:R:3:forces:R:3:DFT_forces:R:3 adsorbate_info="_JSON {\"top layer atom index\": 0, \"sites\": {}}" MACE_energy=-172.40063629734018 energy=-172.68390777786715 stress="0.007113738132670693 1.792224612788411e-05 -0.0002868335116124752 1.792224612788411e-05 0.008088443376786384 5.6695896194413424e-05 -0.0002868335116124752 5.6695896194413424e-05 0.0015478057087840054" free_energy=-172.68390777786715 DFT_energy=-174.23033375 pbc="T T T"
Cu       4.12210530       1.28519616      18.08995196       0.00000000      -0.05105523      -0.10840627       0.05052807      -0.00824550       0.00143202       0.13805761       0.00873415      -0.09398026      -0.18767218
Cu       4.06684025       3.83308964      18.06818283       0.00000000       0.04427372      -0.06713921       0.17013701      -0.00549469      -0.00866168       0.14278076       0.17520247       0.02969885       0.00677560
Cu       4.04326415       6.36489418      18.01643049       0.00000000       0.00971593       0.01380590       0.18349957      -0.00648078       0.00262689       0.13715718       0.10678306       0.05973651       0.04311708
Cu       4.14596805       9.00133488      18.19284243       0.00000000      -0.00988923      -0.05268801       0.16195462      -0.00028127       0.00555582       0.16027484       0.04671695       0.00973167      -0.03375505
Cu       2.07768154      10.26614318      17.40387548       0.00000000      -0.02699814      -0.02362594       0.12279592       0.00638148       0.00375340       0.12663823      -0.04707900       0.01092313      -0.02127900
Cu       2.02816089       2.55678295      17.38159492       0.00000000       0.00770137      -0.01120866       0.13223771       0.00626380      -0.00357783       0.12541429      -0.03981084      -0.05392511      -0.02975313
Cu       1.99462529       5.12098228      17.37961404       0.00000000       0.00572407      -0.01388085       0.11557550       0.00484510      -0.00102018       0.11980361      -0.00667620       0.03959473      -0.05080079
Cu       2.02873395       7.72091263      17.38692063       0.00000000      -0.00330532      -0.00906443       0.11612675       0.00481382       0.00139180       0.11785705      -0.04818319      -0.05935002      -0.05320761
Cu       6.27037662       1.27665530      16.72235486       0.00000000       0.00217672      -0.00000644       0.10026612       0.00027657      -0.00082288       0.09896256       0.04619316      -0.01559206      -0.07173959
Cu       6.24836292       3.84387986      16.71048404       0.00000000       0.00713068      -0.00786539       0.08871988       0.00230185      -0.00184984       0.09219005       0.07538242      -0.00015482      -0.11841624
Cu       6.25924069       6.42985230      16.71410232       0.00000000       0.00455955      -0.00717281       0.08543677       0.00301628      -0.00049501       0.08956144       0.00292371      -0.03170994      -0.03504990
Cu       6.26324377       8.99967955      16.72478099       0.00000000      -0.00512124      -0.00188747       0.09385009       0.00209651       0.00335821       0.09219009       0.05552884       0.00779979      -0.10766291
Cu       4.19156295       0.00000000      15.99982400       0.00000000       0.00000000       0.00000000       0.00000000       0.06192391      -0.07112350      -0.44141036       0.10623848      -0.17704334      -0.07238109
Cu       4.19156295       2.56679762      15.99982400       0.00000000       0.00000000       0.00000000       0.00000000       0.05297905       0.11419804      -0.35384648       0.06696102       0.01521163      -0.49876863
Cu       4.19156295       5.13359523      15.99982400       0.00000000       0.00000000       0.00000000       0.00000000       0.05900986      -0.13311331      -0.33770242       0.02165744      -0.18426909      -0.68310025
Cu       4.19156295       7.70039285      15.99982400       0.00000000       0.00000000       0.00000000       0.00000000       0.05801479       0.10742465      -0.38893962       0.06549018       0.21452249      -0.45437808
Cu       2.09578148       1.28339881      15.24984600       0.00000000       0.00000000       0.00000000       0.00000000       0.00048632      -0.00343857      -0.28218406      -0.01146997      -0.02465255      -0.33654700
Cu       2.09578148       3.85019642      15.24984600       0.00000000       0.00000000       0.00000000       0.00000000      -0.00061921       0.00804541      -0.30329918       0.03115764      -0.01358804      -0.27103968
Cu       2.09578148       6.41699404      15.24984600       0.00000000       0.00000000       0.00000000       0.00000000      -0.00074309      -0.00037610      -0.27205576       0.06595816       0.02418284      -0.24947542
Cu       2.09578148       8.98379165      15.24984600       0.00000000       0.00000000       0.00000000       0.00000000      -0.01600991       0.00012319      -0.30421989       0.00947601       0.01296655      -0.26191300
Cu       0.00000000       0.00000000      14.49986800       0.00000000       0.00000000       0.00000000       0.00000000      -0.07594327       0.00144020      -0.19559528      -0.11321842       0.00400777      -0.25114535
Cu       0.00000000       2.56679762      14.49986800       0.00000000       0.00000000       0.00000000       0.00000000      -0.07373253      -0.00637915      -0.20418353      -0.11173955      -0.02148804      -0.23159031
Cu       0.00000000       5.13359523      14.49986800       0.00000000       0.00000000       0.00000000       0.00000000      -0.07379209       0.00687789      -0.21152136      -0.10082531       0.02014306      -0.24442954
Cu       0.00000000       7.70039285      14.49986800       0.00000000       0.00000000       0.00000000       0.00000000      -0.07529689      -0.00121401      -0.20111048      -0.12225234       0.00749893      -0.21965082
Cu       4.19156295       1.28339881      13.74989000       0.00000000       0.00000000       0.00000000       0.00000000      -0.04484377      -0.00191267      -0.12686417      -0.08234854      -0.01705292       0.00308338
Cu       4.19156295       3.85019642      13.74989000       0.00000000       0.00000000       0.00000000       0.00000000      -0.04401882       0.00090609      -0.12265299      -0.07244312      -0.02967310      -0.08058870
Cu       4.19156295       6.41699404      13.74989000       0.00000000       0.00000000       0.00000000       0.00000000      -0.04595061       0.00160258      -0.12485833      -0.06587077       0.00467814      -0.00917506
Cu       4.19156295       8.98379165      13.74989000       0.00000000       0.00000000       0.00000000       0.00000000      -0.04511383      -0.00058981      -0.11901290      -0.08138021       0.03949020      -0.05601811
Cu       2.09578148       0.00000000      12.99991200       0.00000000       0.00000000       0.00000000       0.00000000      -0.07891370       0.00131338       0.17298813      -0.06432875       0.00558326       0.24802717
Cu       2.09578148       2.56679762      12.99991200       0.00000000       0.00000000       0.00000000       0.00000000      -0.07904428      -0.00088023       0.17157620      -0.07383411      -0.01129092       0.24443451
Cu       2.09578148       5.13359523      12.99991200       0.00000000       0.00000000       0.00000000       0.00000000      -0.07936235       0.00117273       0.17317221      -0.11311585       0.00433801       0.28276161
Cu       2.09578148       7.70039285      12.99991200       0.00000000       0.00000000       0.00000000       0.00000000      -0.07882221      -0.00155063       0.17481711      -0.08770623      -0.00262830       0.26797925
Cu      -0.00000000       1.28339881      12.24993400       0.00000000       0.00000000       0.00000000       0.00000000       0.11685821       0.00032239       0.43772558       0.09959041       0.01273794       0.67683038
Cu      -0.00000000       3.85019642      12.24993400       0.00000000       0.00000000       0.00000000       0.00000000       0.11684657       0.00031594       0.43809396       0.12559188      -0.01304451       0.69761839
Cu      -0.00000000       6.41699404      12.24993400       0.00000000       0.00000000       0.00000000       0.00000000       0.11637070      -0.00031061       0.43861545       0.09596127       0.00043459       0.70927697
Cu      -0.00000000       8.98379165      12.24993400       0.00000000       0.00000000       0.00000000       0.00000000       0.11673402      -0.00031254       0.43721357       0.10547633       0.00120784       0.70213311
O        4.58548590       5.99791999      20.74939831       0.00000000       0.00003804       0.05231496      -0.01122952       0.02069763       0.00756210       0.01450907       0.03648839      -0.28235485      -0.08513796
C        4.39575169       6.87716607      19.82728640       0.00000000       0.03771387       0.02063383       0.16623802       0.01633350      -0.00604967       0.01891232       0.07401927       0.20385887       0.22061033
H        4.51805789       4.86992209      20.38409713       0.00000000      -0.11681301      -0.63410137      -0.11943735       0.01719925      -0.00814079       0.02172860      -0.15687585       0.57744027       0.40188828
O        4.44325571       8.12730579      20.00415089       0.00000000       0.01525597       0.10977517      -0.04985442       0.01531341      -0.00417773      -0.01208765      -0.08434102      -0.58337403      -0.01091216
O        4.45778897       3.61235100      19.91518702       0.50000000      -0.01203636       0.60090782       0.30106255       0.01649050      -0.00924390       0.04317735      -0.09340243       0.09150120      -0.05019948
H        3.68139453       3.14211634      20.27782787       0.50000000       0.12600533       0.21871131       0.13482222       0.01745568      -0.00418209       0.01812716       0.15537044       0.21788362       0.27125098
42
Lattice="6.2873444314750255 0.0 0.0 0.0 10.26719046282867 0.0 0.0 0.0 28.249757996450562" Properties=species:S:1:pos:R:3:initial_magmoms:R:1:MACE_forces:R:3:forces:R:3:DFT_forces:R:3 adsorbate_info="_JSON {\"top layer atom index\": 0, \"sites\": {}}" MACE_energy=-172.5418159878579 energy=-172.68390777786715 stress="0.007113738132670693 1.792224612788411e-05 -0.0002868335116124752 1.792224612788411e-05 0.008088443376786384 5.6695896194413424e-05 -0.0002868335116124752 5.6695896194413424e-05 0.0015478057087840054" free_energy=-172.68390777786715 DFT_energy=-174.30223518 pbc="T T T"
Cu       4.11900377       1.27757026      18.08294792       0.00000000      -0.05740411      -0.12111028       0.04331674      -0.00824550       0.00143202       0.13805761      -0.00254484      -0.09542410      -0.20606635
Cu       4.07144081       3.83030748      18.06958218       0.00000000       0.05676897      -0.05891951       0.16449031      -0.00549469      -0.00866168       0.14278076       0.16244334       0.03826718      -0.11407014
Cu       4.04509597       6.36680428      18.01993845       0.00000000       0.01668812       0.02508776       0.19716726      -0.00648078       0.00262689       0.13715718       0.10649019       0.07017735       0.07593990
Cu       4.14562906       8.99781889      18.19351014       0.00000000      -0.01176761      -0.06067204       0.16378887      -0.00028127       0.00555582       0.16027484       0.03557106       0.03477836      -0.08228316
Cu       2.07547704      10.26451834      17.40353772       0.00000000      -0.03064885      -0.02573874       0.12283448       0.00638148       0.00375340       0.12663823      -0.04909596       0.01225880      -0.02178907
Cu       2.02859714       2.55678734      17.38246985       0.00000000       0.00563255      -0.01215718       0.13463794       0.00626380      -0.00357783       0.12541429      -0.02575981      -0.05605743      -0.02254476
Cu       1.99509305       5.12047025      17.37993606       0.00000000       0.00487212      -0.01348271       0.11714906       0.00484510      -0.00102018       0.11980361       0.00718910       0.04701158      -0.03929897
Cu       2.02811526       7.72021530      17.38663991       0.00000000      -0.00712820      -0.01000725       0.11408899       0.00481382       0.00139180       0.11785705      -0.04079340      -0.06904304      -0.04495438
Cu       6.27075716       1.27708041      16.72231318       0.00000000       0.00116657       0.00205491       0.10193291       0.00027657      -0.00082288       0.09896256       0.03859130      -0.01526557      -0.06789691
Cu       6.24906787       3.84379935      16.71011902       0.00000000       0.01069140      -0.00691057       0.08561942       0.00230185      -0.00184984       0.09219005       0.07603237       0.00022753      -0.11634704
Cu       6.25945893       6.42930761      16.71390846       0.00000000       0.00398665      -0.00935801       0.08545534       0.00301628      -0.00049501       0.08956144      -0.00352791      -0.03451966      -0.02915342
Cu       6.26278680       8.99927465      16.72462746       0.00000000      -0.00650248      -0.00157988       0.09247060       0.00209651       0.00335821       0.09219009       0.05508018       0.01050124      -0.10831973
Cu       4.19156295       0.00000000      15.99982400       0.00000000       0.00000000       0.00000000       0.00000000       0.06192391      -0.07112350      -0.44141036       0.10592201      -0.20241860      -0.10501996
Cu       4.19156295       2.56679762      15.99982400       0.00000000       0.00000000       0.00000000       0.00000000       0.05297905       0.11419804      -0.35384648       0.06714441       0.02419191      -0.48596305
Cu       4.19156295       5.13359523      15.99982400       0.00000000       0.00000000       0.00000000       0.00000000       0.05900986      -0.13311331      -0.33770242       0.02578401      -0.17800874      -0.66135943
Cu       4.19156295       7.70039285      15.99982400       0.00000000       0.00000000       0.00000000       0.00000000       0.05801479       0.10742465      -0.38893962       0.06514925       0.20989963      -0.45175091
Cu       2.09578148       1.28339881      15.24984600       0.00000000       0.00000000       0.00000000       0.00000000       0.00048632      -0.00343857      -0.28218406      -0.01451907      -0.02578808      -0.34148536
Cu       2.09578148       3.85019642      15.24984600       0.00000000       0.00000000       0.00000000       0.00000000      -0.00061921       0.00804541      -0.30329918       0.02782277      -0.01328767      -0.27423690
Cu       2.09578148       6.41699404      15.24984600       0.00000000       0.00000000       0.00000000       0.00000000      -0.00074309      -0.00037610      -0.27205576       0.06426073       0.02217093      -0.25612046
Cu       2.09578148       8.98379165      15.24984600       0.00000000       0.00000000       0.00000000       0.00000000      -0.01600991       0.00012319      -0.30421989       0.01153687       0.01303210      -0.25963176
Cu       0.00000000       0.00000000      14.49986800       0.00000000       0.00000000       0.00000000       0.00000000      -0.07594327       0.00144020      -0.19559528      -0.11482641       0.00522192      -0.25002300
Cu       0.00000000       2.56679762      14.49986800       0.00000000       0.00000000       0.00000000       0.00000000      -0.07373253      -0.00637915      -0.20418353      -0.11082482      -0.02253808      -0.23157608
Cu       0.00000000       5.13359523      14.49986800       0.00000000       0.00000000       0.00000000       0.00000000      -0.07379209       0.00687789      -0.21152136      -0.10253294       0.02154007      -0.24365759
Cu       0.00000000       7.70039285      14.49986800       0.00000000       0.00000000       0.00000000       0.00000000      -0.07529689      -0.00121401      -0.20111048      -0.12292434       0.00522015      -0.21987316
Cu       4.19156295       1.28339881      13.74989000       0.00000000       0.00000000       0.00000000       0.00000000      -0.04484377      -0.00191267      -0.12686417      -0.08362406      -0.01612852       0.00504697
Cu       4.19156295       3.85019642      13.74989000       0.00000000       0.00000000       0.00000000       0.00000000      -0.04401882       0.00090609      -0.12265299      -0.07277838      -0.02856518      -0.08038179
Cu       4.19156295       6.41699404      13.74989000       0.00000000       0.00000000       0.00000000       0.00000000      -0.04595061       0.00160258      -0.12485833      -0.06636189       0.00068403      -0.00366665
Cu       4.19156295       8.98379165      13.74989000       0.00000000       0.00000000       0.00000000       0.00000000      -0.04511383      -0.00058981      -0.11901290      -0.08017018       0.04146977      -0.05825657
Cu       2.09578148       0.00000000      12.99991200       0.00000000       0.00000000       0.00000000       0.00000000      -0.07891370       0.00131338       0.17298813      -0.06392711       0.00778658       0.24290571
Cu       2.09578148       2.56679762      12.99991200       0.00000000       0.00000000       0.00000000       0.00000000      -0.07904428      -0.00088023       0.17157620      -0.07040330      -0.01304846       0.23899928
Cu       2.09578148       5.13359523      12.99991200       0.00000000       0.00000000       0.00000000       0.00000000      -0.07936235       0.00117273       0.17317221      -0.10865685       0.00531232       0.27994095
Cu       2.09578148       7.70039285      12.99991200       0.00000000       0.00000000       0.00000000       0.00000000      -0.07882221      -0.00155063       0.17481711      -0.08919847      -0.00390632       0.27057054
Cu      -0.00000000       1.28339881      12.24993400       0.00000000       0.00000000       0.00000000       0.00000000       0.11685821       0.00032239       0.43772558       0.09969450       0.00990894       0.67278254
Cu      -0.00000000       3.85019642      12.24993400       0.00000000       0.00000000       0.00000000       0.00000000       0.11684657       0.00031594       0.43809396       0.12288879      -0.01491311       0.69739855
Cu      -0.00000000       6.41699404      12.24993400       0.00000000       0.00000000       0.00000000       0.00000000       0.11637070      -0.00031061       0.43861545       0.09191654       0.00042529       0.71176299
Cu      -0.00000000       8.98379165      12.24993400       0.00000000       0.00000000       0.00000000       0.00000000       0.11673402      -0.00031254       0.43721357       0.10443399       0.00608151       0.70238381
O        4.58228291       6.02093756      20.75284897       0.00000000      -0.00503121       0.24973351       0.04066420       0.02069763       0.00756210       0.01450907       0.02441089      -0.08164928      -0.07847236
C        4.39761155       6.88645167      19.84102623       0.00000000       0.05942115       0.10191227       0.27346466       0.01633350      -0.00604967       0.01891232       0.05577255       0.23158130       0.12668089
H        4.50574354       4.78844486      20.36342482       0.00000000      -0.16767718      -1.16722296      -0.25488371       0.01719925      -0.00814079       0.02172860      -0.11365664       0.67637595       0.53830694
O        4.44070667       8.14491872      19.99096011       0.00000000      -0.00190496       0.24966111      -0.15106751       0.01531341      -0.00417773      -0.01208765      -0.05630832      -0.40355095       0.12117842
O        4.45961182       3.66036234      19.93589430       0.50000000       0.00288688       0.66363764       0.36118024       0.01649050      -0.00924390       0.04317735      -0.15740102      -0.55364857      -0.13361879
H        3.69504435       3.16195935      20.28902049       0.50000000       0.15889398       0.28929369       0.18321045       0.01745568      -0.00418209       0.01812716       0.20170086       0.33363691       0.30392029
42
Lattice="6.2873444314750255 0.0 0.0 0.0 10.26719046282867 0.0 0.0 0.0 28.249757996450562" Properties=species:S:1:pos:R:3:initial_magmoms:R:1:MACE_forces:R:3:forces:R:3:DFT_forces:R:3 adsorbate_info="_JSON {\"top layer atom index\": 0, \"sites\": {}}" MACE_energy=-172.7576646151795 energy=-172.68390777786715 stress="0.007113738132670693 1.792224612788411e-05 -0.0002868335116124752 1.792224612788411e-05 0.008088443376786384 5.6695896194413424e-05 -0.0002868335116124752 5.6695896194413424e-05 0.0015478057087840054" free_energy=-172.68390777786715 DFT_energy=-174.41796081 pbc="T T T"
Cu       4.11043927       1.26294619      18.07086989       0.00000000      -0.05369744      -0.09140336       0.07027423      -0.00824550       0.00143202       0.13805761      -0.00269388      -0.05350390      -0.18046356
Cu       4.07965757       3.82441019      18.07026214       0.00000000       0.04601572      -0.04549783       0.15910333      -0.00549469      -0.00866168       0.14278076       0.12301209       0.05170467      -0.27733852
Cu       4.04957516       6.36929580      18.03078264       0.00000000       0.02681050       0.02439724       0.21737533      -0.00648078       0.00262689       0.13715718       0.10550828       0.07180650       0.12001528
Cu       4.14268541       8.99111979      18.18874249       0.00000000      -0.02084169      -0.03637558       0.12420550      -0.00028127       0.00555582       0.16027484       0.00507490       0.13187809      -0.26216589
Cu       2.06909292      10.26020715      17.40246513       0.00000000      -0.03233718      -0.02222236       0.12218410       0.00638148       0.00375340       0.12663823      -0.04893140       0.01794085      -0.02427743
Cu       2.02864732       2.55622074      17.38412021       0.00000000       0.00242469      -0.01198726       0.13319199       0.00626380      -0.00357783       0.12541429      -0.01106010      -0.05638559      -0.01515399
Cu       1.99705171       5.11916524      17.38109790       0.00000000       0.01148703      -0.00946941       0.11998976       0.00484510      -0.00102018       0.11980361       0.03187271       0.05680657      -0.02316155
Cu       2.02618019       7.71711511      17.38576755       0.00000000      -0.00740906      -0.01441970       0.11349994       0.00481382       0.00139180       0.11785705      -0.02657349      -0.08302922      -0.03340295
Cu       6.27057569       1.27803726      16.72268095       0.00000000      -0.00248639       0.00328064       0.10318577       0.00027657      -0.00082288       0.09896256       0.02833337      -0.01750596      -0.06471515
Cu       6.25112692       3.84379709      16.70875943       0.00000000       0.01517693      -0.00396846       0.08310966       0.00230185      -0.00184984       0.09219005       0.07386627       0.00079600      -0.11237384
Cu       6.25923393       6.42743489      16.71397680       0.00000000       0.00307631      -0.01170541       0.08694777       0.00301628      -0.00049501       0.08956144      -0.01022249      -0.03713461      -0.01883443
Cu       6.26142997       8.99796026      16.72365083       0.00000000      -0.00622650      -0.00250689       0.08855083       0.00209651       0.00335821       0.09219009       0.05739057       0.01227706      -0.11039707
Cu       4.19156295       0.00000000      15.99982400       0.00000000       0.00000000       0.00000000       0.00000000       0.06192391      -0.07112350      -0.44141036       0.10098462      -0.23771787      -0.16410479
Cu       4.19156295       2.56679762      15.99982400       0.00000000       0.00000000       0.00000000       0.00000000       0.05297905       0.11419804      -0.35384648       0.06934695       0.02889343      -0.48129850
Cu       4.19156295       5.13359523      15.99982400       0.00000000       0.00000000       0.00000000       0.00000000       0.05900986      -0.13311331      -0.33770242       0.02832866      -0.16113898      -0.60782502
Cu       4.19156295       7.70039285      15.99982400       0.00000000       0.00000000       0.00000000       0.00000000       0.05801479       0.10742465      -0.38893962       0.06072617       0.18800967      -0.44395829
Cu       2.09578148       1.28339881      15.24984600       0.00000000       0.00000000       0.00000000       0.00000000       0.00048632      -0.00343857      -0.28218406      -0.01788363      -0.02620353      -0.34347715
Cu       2.09578148       3.85019642      15.24984600       0.00000000       0.00000000       0.00000000       0.00000000      -0.00061921       0.00804541      -0.30329918       0.02523940      -0.01365672      -0.27947422
Cu       2.09578148       6.41699404      15.24984600       0.00000000       0.00000000       0.00000000       0.00000000      -0.00074309      -0.00037610      -0.27205576       0.06017808       0.01633125      -0.26685911
Cu       2.09578148       8.98379165      15.24984600       0.00000000       0.00000000       0.00000000       0.00000000      -0.01600991       0.00012319      -0.30421989       0.01413479       0.00912892      -0.25952288
Cu       0.00000000       0.00000000      14.49986800       0.00000000       0.00000000       0.00000000       0.00000000      -0.07594327       0.00144020      -0.19559528      -0.11529088       0.00756399      -0.24919956
Cu       0.00000000       2.56679762      14.49986800       0.00000000       0.00000000       0.00000000       0.00000000      -0.07373253      -0.00637915      -0.20418353      -0.11002827      -0.02479650      -0.23294990
Cu       0.00000000       5.13359523      14.49986800       0.00000000       0.00000000       0.00000000       0.00000000      -0.07379209       0.00687789      -0.21152136      -0.10478934       0.02399140      -0.24519586
Cu       0.00000000       7.70039285      14.49986800       0.00000000       0.00000000       0.00000000       0.00000000      -0.07529689      -0.00121401      -0.20111048      -0.12427355      -0.00011787      -0.21985064
Cu       4.19156295       1.28339881      13.74989000       0.00000000       0.00000000       0.00000000       0.00000000      -0.04484377      -0.00191267      -0.12686417      -0.08499441      -0.01487008       0.00624152
Cu       4.19156295       3.85019642      13.74989000       0.00000000       0.00000000       0.00000000       0.00000000      -0.04401882       0.00090609      -0.12265299      -0.07340563      -0.02702267      -0.07951572
Cu       4.19156295       6.41699404      13.74989000       0.00000000       0.00000000       0.00000000       0.00000000      -0.04595061       0.00160258      -0.12485833      -0.06705056      -0.00406354       0.00398602
Cu       4.19156295       8.98379165      13.74989000       0.00000000       0.00000000       0.00000000       0.00000000      -0.04511383      -0.00058981      -0.11901290      -0.07928938       0.04206262      -0.06009405
Cu       2.09578148       0.00000000      12.99991200       0.00000000       0.00000000       0.00000000       0.00000000      -0.07891370       0.00131338       0.17298813      -0.06528944       0.01000068       0.23802613
Cu       2.09578148       2.56679762      12.99991200       0.00000000       0.00000000       0.00000000       0.00000000      -0.07904428      -0.00088023       0.17157620      -0.06682293      -0.01546720       0.23258403
Cu       2.09578148       5.13359523      12.99991200       0.00000000       0.00000000       0.00000000       0.00000000      -0.07936235       0.00117273       0.17317221      -0.10402039       0.00641779       0.27556335
Cu       2.09578148       7.70039285      12.99991200       0.00000000       0.00000000       0.00000000       0.00000000      -0.07882221      -0.00155063       0.17481711      -0.09096280      -0.00614606       0.27209646
Cu      -0.00000000       1.28339881      12.24993400       0.00000000       0.00000000       0.00000000       0.00000000       0.11685821       0.00032239       0.43772558       0.10026899       0.00577659       0.66822012
Cu      -0.00000000       3.85019642      12.24993400       0.00000000       0.00000000       0.00000000       0.00000000       0.11684657       0.00031594       0.43809396       0.11937341      -0.01756679       0.69682057
Cu      -0.00000000       6.41699404      12.24993400       0.00000000       0.00000000       0.00000000       0.00000000       0.11637070      -0.00031061       0.43861545       0.08844824       0.00027320       0.71441406
Cu      -0.00000000       8.98379165      12.24993400       0.00000000       0.00000000       0.00000000       0.00000000       0.11673402      -0.00031254       0.43721357       0.10458181       0.01165421       0.70204200
O        4.57686430       6.07149431      20.76347828       0.00000000      -0.01462972       0.32511446       0.09378615       0.02069763       0.00756210       0.01450907       0.03584860       0.03566534       0.07123996
C        4.40309378       6.92315614      19.86602488       0.00000000       0.04693810       0.23335508       0.23795572       0.01633350      -0.00604967       0.01891232       0.07246871       0.17741774       0.27376843
H        4.49430905       4.67150687      20.34654438       0.00000000      -0.08754844      -0.78211826      -0.07011181       0.01719925      -0.00814079       0.02172860      -0.01793544       0.20719881       0.46135588
O        4.43978650       8.19057070      19.96349517       0.00000000       0.00067387       0.31320747      -0.14081016       0.01531341      -0.00417773      -0.01208765      -0.08526464      -0.20643701      -0.01835218
O        4.46694918       3.67884643      19.95646574       0.50000000       0.05810305       0.09213039       0.15376706       0.01649050      -0.00924390       0.04317735      -0.10001081      -0.35385431       0.01663845
H        3.70577736       3.18717894      20.31741640       0.50000000       0.05321955       0.17334724       0.21659230       0.01745568      -0.00418209       0.01812716       0.10180682       0.24302300       0.32094997
42
Lattice="6.2873444314750255 0.0 0.0 0.0 10.26719046282867 0.0 0.0 0.0 28.249757996450562" Properties=species:S:1:pos:R:3:initial_magmoms:R:1:MACE_forces:R:3:forces:R:3:DFT_forces:R:3 adsorbate_info="_JSON {\"top layer atom index\": 0, \"sites\": {}}" MACE_energy=-172.82953011183608 energy=-172.68390777786715 stress="0.007113738132670693 1.792224612788411e-05 -0.0002868335116124752 1.792224612788411e-05 0.008088443376786384 5.6695896194413424e-05 -0.0002868335116124752 5.6695896194413424e-05 0.0015478057087840054" free_energy=-172.68390777786715 DFT_energy=-174.43487972 pbc="T T T"
Cu       4.11147863       1.26009983      18.06390279       0.00000000      -0.05880922      -0.06283593       0.09494706      -0.00824550       0.00143202       0.13805761      -0.01046975      -0.02624716      -0.15898510
Cu       4.08491350       3.82523962      18.07171979       0.00000000       0.03286847      -0.04678157       0.15833195      -0.00549469      -0.00866168       0.14278076       0.09601628       0.05202419      -0.33504791
Cu       4.05666368       6.37633605      18.04025613       0.00000000       0.02338873       0.01165596       0.20740642      -0.00648078       0.00262689       0.13715718       0.09752027       0.05760282       0.10725398
Cu       4.14212585       8.99615724      18.17974495       0.00000000      -0.03137876      -0.02220138       0.09144283      -0.00028127       0.00555582       0.16027484      -0.01392167       0.18498537      -0.38496385
Cu       2.06741063      10.26181553      17.40217955       0.00000000      -0.03795881      -0.02188622       0.11933824       0.00638148       0.00375340       0.12663823      -0.05484256       0.02037166      -0.02873747
Cu       2.03014285       2.55824034      17.38567317       0.00000000       0.00295601      -0.00995712       0.12946404       0.00626380      -0.00357783       0.12541429      -0.00495262      -0.05573441      -0.01399509
Cu       2.00005802       5.12171657      17.38254318       0.00000000       0.02273064      -0.01066660       0.12173650       0.00484510      -0.00102018       0.11980361       0.04865240       0.05732399      -0.01515391
Cu       2.02681353       7.71768189      17.38549373       0.00000000      -0.00637032      -0.02118856       0.11429848       0.00481382       0.00139180       0.11785705      -0.02072399      -0.09381444      -0.02700790
Cu       6.27230295       1.27977773      16.72214521       0.00000000      -0.00632811       0.00328111       0.10309641       0.00027657      -0.00082288       0.09896256       0.02220757      -0.01932459      -0.06404980
Cu       6.25332739       3.84522552      16.70793401       0.00000000       0.01541652      -0.00305606       0.08372953       0.00230185      -0.00184984       0.09219005       0.06970840       0.00142270      -0.10823796
Cu       6.26021969       6.42775549      16.71345303       0.00000000       0.00183797      -0.01432714       0.08926183       0.00301628      -0.00049501       0.08956144      -0.01421458      -0.03677570      -0.01200345
Cu       6.26231613       8.99880469      16.72300520       0.00000000      -0.00627010      -0.00564108       0.08561261       0.00209651       0.00335821       0.09219009       0.05994606       0.01082303      -0.11375051
Cu       4.19156295       0.00000000      15.99982400       0.00000000       0.00000000       0.00000000       0.00000000       0.06192391      -0.07112350      -0.44141036       0.10420229      -0.24251566      -0.20481566
Cu       4.19156295       2.56679762      15.99982400       0.00000000       0.00000000       0.00000000       0.00000000       0.05297905       0.11419804      -0.35384648       0.07477813       0.03920105      -0.48407215
Cu       4.19156295       5.13359523      15.99982400       0.00000000       0.00000000       0.00000000       0.00000000       0.05900986      -0.13311331      -0.33770242       0.03039386      -0.13981776      -0.55927234
Cu       4.19156295       7.70039285      15.99982400       0.00000000       0.00000000       0.00000000       0.00000000       0.05801479       0.10742465      -0.38893962       0.06389325       0.17643412      -0.44199701
Cu       2.09578148       1.28339881      15.24984600       0.00000000       0.00000000       0.00000000       0.00000000       0.00048632      -0.00343857      -0.28218406      -0.01642063      -0.02173673      -0.34309050
Cu       2.09578148       3.85019642      15.24984600       0.00000000       0.00000000       0.00000000       0.00000000      -0.00061921       0.00804541      -0.30329918       0.02562200      -0.01007445      -0.27837027
Cu       2.09578148       6.41699404      15.24984600       0.00000000       0.00000000       0.00000000       0.00000000      -0.00074309      -0.00037610      -0.27205576       0.05846165       0.01602271      -0.27383155
Cu       2.09578148       8.98379165      15.24984600       0.00000000       0.00000000       0.00000000       0.00000000      -0.01600991       0.00012319      -0.30421989       0.01706277       0.00938596      -0.25752793
Cu       0.00000000       0.00000000      14.49986800       0.00000000       0.00000000       0.00000000       0.00000000      -0.07594327       0.00144020      -0.19559528      -0.11400932       0.00918585      -0.25149611
Cu       0.00000000       2.56679762      14.49986800       0.00000000       0.00000000       0.00000000       0.00000000      -0.07373253      -0.00637915      -0.20418353      -0.11040722      -0.02362422      -0.23403870
Cu       0.00000000       5.13359523      14.49986800       0.00000000       0.00000000       0.00000000       0.00000000      -0.07379209       0.00687789      -0.21152136      -0.10584922       0.02643962      -0.24643002
Cu       0.00000000       7.70039285      14.49986800       0.00000000       0.00000000       0.00000000       0.00000000      -0.07529689      -0.00121401      -0.20111048      -0.12493618      -0.00077781      -0.22112623
Cu       4.19156295       1.28339881      13.74989000       0.00000000       0.00000000       0.00000000       0.00000000      -0.04484377      -0.00191267      -0.12686417      -0.08510585      -0.01323977       0.00561665
Cu       4.19156295       3.85019642      13.74989000       0.00000000       0.00000000       0.00000000       0.00000000      -0.04401882       0.00090609      -0.12265299      -0.07367022      -0.02601454      -0.07892512
Cu       4.19156295       6.41699404      13.74989000       0.00000000       0.00000000       0.00000000       0.00000000      -0.04595061       0.00160258      -0.12485833      -0.06722549      -0.00572036       0.00850499
Cu       4.19156295       8.98379165      13.74989000       0.00000000       0.00000000       0.00000000       0.00000000      -0.04511383      -0.00058981      -0.11901290      -0.07868229       0.04103670      -0.05994182
Cu       2.09578148       0.00000000      12.99991200       0.00000000       0.00000000       0.00000000       0.00000000      -0.07891370       0.00131338       0.17298813      -0.06660030       0.01149255       0.23834687
Cu       2.09578148       2.56679762      12.99991200       0.00000000       0.00000000       0.00000000       0.00000000      -0.07904428      -0.00088023       0.17157620      -0.06497565      -0.01610594       0.22954803
Cu       2.09578148       5.13359523      12.99991200       0.00000000       0.00000000       0.00000000       0.00000000      -0.07936235       0.00117273       0.17317221      -0.10168649       0.00682793       0.27288112
Cu       2.09578148       7.70039285      12.99991200       0.00000000       0.00000000       0.00000000       0.00000000      -0.07882221      -0.00155063       0.17481711      -0.09094128      -0.00676225       0.27309522
Cu      -0.00000000       1.28339881      12.24993400       0.00000000       0.00000000       0.00000000       0.00000000       0.11685821       0.00032239       0.43772558       0.10099453       0.00485770       0.66741202
Cu      -0.00000000       3.85019642      12.24993400       0.00000000       0.00000000       0.00000000       0.00000000       0.11684657       0.00031594       0.43809396       0.11807623      -0.01827098       0.69628194
Cu      -0.00000000       6.41699404      12.24993400       0.00000000       0.00000000       0.00000000       0.00000000       0.11637070      -0.00031061       0.43861545       0.08754506       0.00002812       0.71488173
Cu      -0.00000000       8.98379165      12.24993400       0.00000000       0.00000000       0.00000000       0.00000000       0.11673402      -0.00031254       0.43721357       0.10462841       0.01394873       0.70298631
O        4.55467821       6.11143789      20.76763417       0.00000000      -0.02686517       0.22077761       0.04504723       0.02069763       0.00756210       0.01450907       0.05220893       0.07657911       0.13993716
C        4.39383457       6.96714427      19.87994052       0.00000000       0.02887222       0.18986655       0.16984023       0.01633350      -0.00604967       0.01891232       0.10563990       0.03367008       0.49762174
H        4.49803887       4.62307576      20.34577176       0.00000000       0.02078112      -0.28279941       0.03991530       0.01719925      -0.00814079       0.02172860      -0.03953872      -0.00086887       0.45749851
O        4.42561459       8.23664291      19.95121106       0.00000000       0.02256501       0.22436685      -0.03077271       0.01531341      -0.00417773      -0.01208765      -0.12234797      -0.22581746      -0.18828422
O        4.48447113       3.66537007      19.96294357       0.50000000       0.02244824      -0.08191688       0.13368530       0.01649050      -0.00924390       0.04317735      -0.00552138       0.02919843       0.10034871
H        3.71937242       3.19460376      20.33940233       0.50000000       0.00524007       0.04035653       0.17028625       0.01745568      -0.00418209       0.01812716       0.04948540       0.10438071       0.27293759
42
Lattice="6.2873444314750255 0.0 0.0 0.0 10.26719046282867 0.0 0.0 0.0 28.249757996450562" Properties=species:S:1:pos:R:3:initial_magmoms:R:1:MACE_forces:R:3:forces:R:3:DFT_forces:R:3 adsorbate_info="_JSON {\"top layer atom index\": 0, \"sites\": {}}" MACE_energy=-172.91303168329654 energy=-172.68390777786715 stress="0.007113738132670693 1.792224612788411e-05 -0.0002868335116124752 1.792224612788411e-05 0.008088443376786384 5.6695896194413424e-05 -0.0002868335116124752 5.6695896194413424e-05 0.0015478057087840054" free_energy=-172.68390777786715 DFT_energy=-174.44948941 pbc="T T T"
Cu       4.08433063       1.25578313      18.05424244       0.00000000      -0.02973248      -0.00927675       0.13220753      -0.00824550       0.00143202       0.13805761       0.03311622       0.00073498      -0.12144452
Cu       4.10771840       3.81318607      18.09463800       0.00000000       0.00806272      -0.01265058       0.17652905      -0.00549469      -0.00866168       0.14278076       0.05094802       0.07552976      -0.35467423
Cu       4.07558768       6.39462813      18.06644791       0.00000000       0.01359301       0.00150980       0.15445869      -0.00648078       0.00262689       0.13715718       0.08338004       0.06231483       0.07449477
Cu       4.12446703       9.00650276      18.14871576       0.00000000      -0.02034277      -0.00579166       0.11796948      -0.00028127       0.00555582       0.16027484      -0.01265765       0.20856324      -0.43103804
Cu       2.04308553      10.25782326      17.39656082       0.00000000      -0.01171982      -0.00195941       0.12320883       0.00638148       0.00375340       0.12663823      -0.02414295       0.04768747      -0.03163013
Cu       2.03277551       2.56234626      17.38853490       0.00000000      -0.00389602      -0.00416976       0.12432280       0.00626380      -0.00357783       0.12541429      -0.00871928      -0.04798462      -0.01358086
Cu       2.02356731       5.12232457      17.38809565       0.00000000       0.00726931      -0.01554730       0.11737007       0.00484510      -0.00102018       0.11980361       0.02766121       0.05310008      -0.01913489
Cu       2.02367457       7.70991238      17.38615415       0.00000000       0.01000444      -0.01834105       0.11875676       0.00481382       0.00139180       0.11785705      -0.00453018      -0.09408322      -0.01882635
Cu       6.26535643       1.28534988      16.72657368       0.00000000      -0.00580450      -0.00176925       0.09711219       0.00027657      -0.00082288       0.09896256       0.01929938      -0.02737565      -0.07049436
Cu       6.26233594       3.84888585      16.70581387       0.00000000      -0.00320149      -0.00163498       0.09866706       0.00230185      -0.00184984       0.09219005       0.04014480       0.00462520      -0.09234004
Cu       6.26311887       6.41962923      16.71407869       0.00000000       0.00694895      -0.00758119       0.09023209       0.00301628      -0.00049501       0.08956144      -0.00841026      -0.02381075      -0.00232592
Cu       6.25729786       8.99320648      16.71864307       0.00000000       0.00403108      -0.00654326       0.08654539       0.00209651       0.00335821       0.09219009       0.07879246       0.01103151      -0.11510542
Cu       4.19156295       0.00000000      15.99982400       0.00000000       0.00000000       0.00000000       0.00000000       0.06192391      -0.07112350      -0.44141036       0.08316797      -0.22824921      -0.29726667
Cu       4.19156295       2.56679762      15.99982400       0.00000000       0.00000000       0.00000000       0.00000000       0.05297905       0.11419804      -0.35384648       0.08125053       0.08471009      -0.44941511
Cu       4.19156295       5.13359523      15.99982400       0.00000000       0.00000000       0.00000000       0.00000000       0.05900986      -0.13311331      -0.33770242       0.04572384      -0.12550160      -0.39993746
Cu       4.19156295       7.70039285      15.99982400       0.00000000       0.00000000       0.00000000       0.00000000       0.05801479       0.10742465      -0.38893962       0.05784833       0.12177926      -0.43645393
Cu       2.09578148       1.28339881      15.24984600       0.00000000       0.00000000       0.00000000       0.00000000       0.00048632      -0.00343857      -0.28218406      -0.02539027      -0.01024144      -0.33086203
Cu       2.09578148       3.85019642      15.24984600       0.00000000       0.00000000       0.00000000       0.00000000      -0.00061921       0.00804541      -0.30329918       0.02829567      -0.00219667      -0.28508548
Cu       2.09578148       6.41699404      15.24984600       0.00000000       0.00000000       0.00000000       0.00000000      -0.00074309      -0.00037610      -0.27205576       0.05194916       0.00250246      -0.28769555
Cu       2.09578148       8.98379165      15.24984600       0.00000000       0.00000000       0.00000000       0.00000000      -0.01600991       0.00012319      -0.30421989       0.01922504      -0.00504004      -0.25608384
Cu       0.00000000       0.00000000      14.49986800       0.00000000       0.00000000       0.00000000       0.00000000      -0.07594327       0.00144020      -0.19559528      -0.10951980       0.01719594      -0.24233181
Cu       0.00000000       2.56679762      14.49986800       0.00000000       0.00000000       0.00000000       0.00000000      -0.07373253      -0.00637915      -0.20418353      -0.11346151      -0.02418460      -0.23115785
Cu       0.00000000       5.13359523      14.49986800       0.00000000       0.00000000       0.00000000       0.00000000      -0.07379209       0.00687789      -0.21152136      -0.11030541       0.02879922      -0.25782764
Cu       0.00000000       7.70039285      14.49986800       0.00000000       0.00000000       0.00000000       0.00000000      -0.07529689      -0.00121401      -0.20111048      -0.12587112      -0.00995089      -0.22514048
Cu       4.19156295       1.28339881      13.74989000       0.00000000       0.00000000       0.00000000       0.00000000      -0.04484377      -0.00191267      -0.12686417      -0.08462118      -0.00523626       0.00405247
Cu       4.19156295       3.85019642      13.74989000       0.00000000       0.00000000       0.00000000       0.00000000      -0.04401882       0.00090609      -0.12265299      -0.07587281      -0.02507293      -0.08117535
Cu       4.19156295       6.41699404      13.74989000       0.00000000       0.00000000       0.00000000       0.00000000      -0.04595061       0.00160258      -0.12485833      -0.06841417      -0.00893074       0.01578052
Cu       4.19156295       8.98379165      13.74989000       0.00000000       0.00000000       0.00000000       0.00000000      -0.04511383      -0.00058981      -0.11901290      -0.07815725       0.03440868      -0.05574191
Cu       2.09578148       0.00000000      12.99991200       0.00000000       0.00000000       0.00000000       0.00000000      -0.07891370       0.00131338       0.17298813      -0.07103163       0.01498067       0.24544795
Cu       2.09578148       2.56679762      12.99991200       0.00000000       0.00000000       0.00000000       0.00000000      -0.07904428      -0.00088023       0.17157620      -0.06074220      -0.01693283       0.22119507
Cu       2.09578148       5.13359523      12.99991200       0.00000000       0.00000000       0.00000000       0.00000000      -0.07936235       0.00117273       0.17317221      -0.09568689       0.00730047       0.26357591
Cu       2.09578148       7.70039285      12.99991200       0.00000000       0.00000000       0.00000000       0.00000000      -0.07882221      -0.00155063       0.17481711      -0.09068236      -0.00835079       0.27797408
Cu      -0.00000000       1.28339881      12.24993400       0.00000000       0.00000000       0.00000000       0.00000000       0.11685821       0.00032239       0.43772558       0.10136329       0.00466246       0.66835492
Cu      -0.00000000       3.85019642      12.24993400       0.00000000       0.00000000       0.00000000       0.00000000       0.11684657       0.00031594       0.43809396       0.11640803      -0.01746590       0.69200267
Cu      -0.00000000       6.41699404      12.24993400       0.00000000       0.00000000       0.00000000       0.00000000       0.11637070      -0.00031061       0.43861545       0.08548706      -0.00349529       0.71382766
Cu      -0.00000000       8.98379165      12.24993400       0.00000000       0.00000000       0.00000000       0.00000000       0.11673402      -0.00031254       0.43721357       0.10366695       0.01677194       0.70695314
O        4.47776554       6.22190366      20.77152722       0.00000000      -0.00075204       0.03751686       0.05278101       0.02069763       0.00756210       0.01450907       0.10316373      -0.01017708       0.31666124
C        4.36606091       7.09444850      19.90256091       0.00000000       0.00471017       0.09134590       0.04801670       0.01633350      -0.00604967       0.01891232       0.10600345      -0.18254055       0.73471690
H        4.51522818       4.61091176      20.37008392       0.00000000       0.04384354      -0.01388088       0.07764456       0.01719925      -0.00814079       0.02172860      -0.04368421       0.01671872       0.38274635
O        4.41736010       8.36279938      19.94930374       0.00000000       0.01500925       0.07418031       0.04556391       0.01531341      -0.00417773      -0.01208765      -0.14314426      -0.18779289      -0.50527958
O        4.52779499       3.66828663      20.00860247       0.50000000       0.00352004      -0.00800155       0.10814004       0.01649050      -0.00924390       0.04317735       0.00490109       0.21011568       0.12416910
H        3.78954942       3.19294127      20.42990797       0.50000000       0.00080060       0.00033433       0.06235034       0.01745568      -0.00418209       0.01812716       0.03324915       0.04108130       0.17009671
42
Lattice="6.2873444314750255 0.0 0.0 0.0 10.26719046282867 0.0 0.0 0.0 28.249757996450562" Properties=species:S:1:pos:R:3:initial_magmoms:R:1:MACE_forces:R:3:forces:R:3:DFT_forces:R:3 adsorbate_info="_JSON {\"top layer atom index\": 0, \"sites\": {}}" MACE_energy=-172.9242427206971 energy=-172.68390777786715 stress="0.007113738132670693 1.792224612788411e-05 -0.0002868335116124752 1.792224612788411e-05 0.008088443376786384 5.6695896194413424e-05 -0.0002868335116124752 5.6695896194413424e-05 0.0015478057087840054" free_energy=-172.68390777786715 DFT_energy=-174.4651021 pbc="T T T"
Cu       4.07964023       1.26387160      18.05447809       0.00000000      -0.01579484       0.00183012       0.14036389      -0.00824550       0.00143202       0.13805761       0.04682412       0.00343713      -0.12281428
Cu       4.13096606       3.82335198      18.11268154       0.00000000      -0.01177845      -0.02706683       0.16334489      -0.00549469      -0.00866168       0.14278076       0.02780062       0.03928306      -0.36396971
Cu       4.09891431       6.40639777      18.07063138       0.00000000      -0.00928517       0.00577612       0.18176359      -0.00648078       0.00262689       0.13715718       0.05269927       0.06361052       0.12540591
Cu       4.12433062       9.01654292      18.14164834       0.00000000      -0.01664560      -0.00255566       0.11663392      -0.00028127       0.00555582       0.16027484       0.00074273       0.21138937      -0.43676659
Cu       2.04143571      10.25768596      17.39487744       0.00000000      -0.01337161       0.00513673       0.12322792       0.00638148       0.00375340       0.12663823      -0.02766782       0.05704240      -0.03275531
Cu       2.04082887       2.56841040      17.39272710       0.00000000      -0.00124194      -0.00937233       0.12203555       0.00626380      -0.00357783       0.12541429      -0.00391117      -0.05374457      -0.01375360
Cu       2.03907068       5.12014946      17.39128141       0.00000000       0.00539599      -0.00283140       0.11802579       0.00484510      -0.00102018       0.11980361       0.02678778       0.06923967      -0.01428481
Cu       2.03278603       7.70455160      17.38759011       0.00000000      -0.00149131      -0.00538819       0.11770102       0.00481382       0.00139180       0.11785705      -0.01905699      -0.07913662      -0.01867044
Cu       6.26681301       1.28562590      16.72717604       0.00000000      -0.00672181      -0.00040327       0.10107525       0.00027657      -0.00082288       0.09896256       0.01490783      -0.02385289      -0.06333280
Cu       6.26760003       3.84880163      16.70778410       0.00000000      -0.00006739      -0.00168809       0.08845475       0.00230185      -0.00184984       0.09219005       0.04295732       0.00522652      -0.10066740
Cu       6.27283718       6.41455771      16.71208758       0.00000000      -0.00589199      -0.00262722       0.09068096       0.00301628      -0.00049501       0.08956144      -0.02560584      -0.01404740      -0.00433651
Cu       6.25967026       8.98731793      16.71908291       0.00000000       0.00377119       0.00334738       0.08686468       0.00209651       0.00335821       0.09219009       0.07911691       0.01782161      -0.11678377
Cu       4.19156295       0.00000000      15.99982400       0.00000000       0.00000000       0.00000000       0.00000000       0.06192391      -0.07112350      -0.44141036       0.09386608      -0.21622458      -0.31022962
Cu       4.19156295       2.56679762      15.99982400       0.00000000       0.00000000       0.00000000       0.00000000       0.05297905       0.11419804      -0.35384648       0.09254486       0.12776998      -0.39419597
Cu       4.19156295       5.13359523      15.99982400       0.00000000       0.00000000       0.00000000       0.00000000       0.05900986      -0.13311331      -0.33770242       0.06947564      -0.11611305      -0.36096487
Cu       4.19156295       7.70039285      15.99982400       0.00000000       0.00000000       0.00000000       0.00000000       0.05801479       0.10742465      -0.38893962       0.07954924       0.11182663      -0.44637298
Cu       2.09578148       1.28339881      15.24984600       0.00000000       0.00000000       0.00000000       0.00000000       0.00048632      -0.00343857      -0.28218406      -0.02635374      -0.00156349      -0.31913547
Cu       2.09578148       3.85019642      15.24984600       0.00000000       0.00000000       0.00000000       0.00000000      -0.00061921       0.00804541      -0.30329918       0.02749840      -0.00139193      -0.28628964
Cu       2.09578148       6.41699404      15.24984600       0.00000000       0.00000000       0.00000000       0.00000000      -0.00074309      -0.00037610      -0.27205576       0.06063190      -0.00391317      -0.29281792
Cu       2.09578148       8.98379165      15.24984600       0.00000000       0.00000000       0.00000000       0.00000000      -0.01600991       0.00012319      -0.30421989       0.02012152      -0.01124019      -0.24898361
Cu       0.00000000       0.00000000      14.49986800       0.00000000       0.00000000       0.00000000       0.00000000      -0.07594327       0.00144020      -0.19559528      -0.10885863       0.01529985      -0.23419378
Cu       0.00000000       2.56679762      14.49986800       0.00000000       0.00000000       0.00000000       0.00000000      -0.07373253      -0.00637915      -0.20418353      -0.11663544      -0.02362266      -0.22688894
Cu       0.00000000       5.13359523      14.49986800       0.00000000       0.00000000       0.00000000       0.00000000      -0.07379209       0.00687789      -0.21152136      -0.11240456       0.02324215      -0.26166947
Cu       0.00000000       7.70039285      14.49986800       0.00000000       0.00000000       0.00000000       0.00000000      -0.07529689      -0.00121401      -0.20111048      -0.12587833      -0.01183825      -0.23091394
Cu       4.19156295       1.28339881      13.74989000       0.00000000       0.00000000       0.00000000       0.00000000      -0.04484377      -0.00191267      -0.12686417      -0.08496847      -0.00137851       0.00621083
Cu       4.19156295       3.85019642      13.74989000       0.00000000       0.00000000       0.00000000       0.00000000      -0.04401882       0.00090609      -0.12265299      -0.07697914      -0.02719894      -0.07857602
Cu       4.19156295       6.41699404      13.74989000       0.00000000       0.00000000       0.00000000       0.00000000      -0.04595061       0.00160258      -0.12485833      -0.06756203      -0.00879348       0.01336762
Cu       4.19156295       8.98379165      13.74989000       0.00000000       0.00000000       0.00000000       0.00000000      -0.04511383      -0.00058981      -0.11901290      -0.07656257       0.03187291      -0.05763535
Cu       2.09578148       0.00000000      12.99991200       0.00000000       0.00000000       0.00000000       0.00000000      -0.07891370       0.00131338       0.17298813      -0.07306374       0.01612477       0.24574351
Cu       2.09578148       2.56679762      12.99991200       0.00000000       0.00000000       0.00000000       0.00000000      -0.07904428      -0.00088023       0.17157620      -0.06054870      -0.01637858       0.22052732
Cu       2.09578148       5.13359523      12.99991200       0.00000000       0.00000000       0.00000000       0.00000000      -0.07936235       0.00117273       0.17317221      -0.09600162       0.00703779       0.26276003
Cu       2.09578148       7.70039285      12.99991200       0.00000000       0.00000000       0.00000000       0.00000000      -0.07882221      -0.00155063       0.17481711      -0.09320316      -0.00948677       0.27894655
Cu      -0.00000000       1.28339881      12.24993400       0.00000000       0.00000000       0.00000000       0.00000000       0.11685821       0.00032239       0.43772558       0.10072275       0.00355056       0.66882451
Cu      -0.00000000       3.85019642      12.24993400       0.00000000       0.00000000       0.00000000       0.00000000       0.11684657       0.00031594       0.43809396       0.11517769      -0.01730963       0.69249143
Cu      -0.00000000       6.41699404      12.24993400       0.00000000       0.00000000       0.00000000       0.00000000       0.11637070      -0.00031061       0.43861545       0.08477815      -0.00285098       0.71408472
Cu      -0.00000000       8.98379165      12.24993400       0.00000000       0.00000000       0.00000000       0.00000000       0.11673402      -0.00031254       0.43721357       0.10345361       0.01634506       0.70747251
O        4.40750352       6.27865807      20.80728284       0.00000000      -0.02379044       0.03588693       0.02922172       0.02069763       0.00756210       0.01450907       0.07481311      -0.02251183       0.26503366
C        4.33074793       7.13152302      19.91449395       0.00000000      -0.00633476       0.10086087       0.05885669       0.01633350      -0.00604967       0.01891232       0.08858565      -0.18278198       0.72467302
H        4.47483821       4.68315954      20.41019777       0.00000000       0.07289025      -0.05107575       0.02920372       0.01719925      -0.00814079       0.02172860      -0.03750689      -0.03405016       0.32154844
O        4.39008218       8.40132810      19.94884874       0.00000000       0.01899280       0.07053063       0.03931318       0.01531341      -0.00417773      -0.01208765      -0.12298212      -0.18968229      -0.47925345
O        4.58783708       3.75585239      20.02292473       0.50000000       0.02034372      -0.06030964       0.07946961       0.01649050      -0.00924390       0.04317735       0.04712847       0.19961791       0.07992229
H        3.95143482       3.16756371      20.46482536       0.50000000      -0.02970480      -0.00075686       0.06378345       0.01745568      -0.00418209       0.01812716       0.00556729       0.04937406       0.18924390
42
Lattice="6.2873444314750255 0.0 0.0 0.0 10.26719046282867 0.0 0.0 0.0 28.249757996450562" Properties=species:S:1:pos:R:3:initial_magmoms:R:1:MACE_forces:R:3:forces:R:3:DFT_forces:R:3 adsorbate_info="_JSON {\"top layer atom index\": 0, \"sites\": {}}" MACE_energy=-172.93852459045632 energy=-172.68390777786715 stress="0.007113738132670693 1.792224612788411e-05 -0.0002868335116124752 1.792224612788411e-05 0.008088443376786384 5.6695896194413424e-05 -0.0002868335116124752 5.6695896194413424e-05 0.0015478057087840054" free_energy=-172.68390777786715 DFT_energy=-174.4475139 pbc="T T T"
Cu       4.08431209       1.27592254      18.05638129       0.00000000      -0.03048647      -0.01686614       0.12302969      -0.00824550       0.00143202       0.13805761       0.02843316      -0.02867226      -0.14203205
Cu       4.13742001       3.83084179      18.13001903       0.00000000      -0.00215468      -0.01715660       0.11690466      -0.00549469      -0.00866168       0.14278076       0.02622099       0.04143500      -0.41872340
Cu       4.10993116       6.41625369      18.09055954       0.00000000      -0.01753161       0.01760047       0.12199302      -0.00648078       0.00262689       0.13715718       0.03392639       0.08728121       0.05785680
Cu       4.12314776       9.02803120      18.12559837       0.00000000      -0.00674847      -0.02176353       0.17679810      -0.00028127       0.00555582       0.16027484       0.01247231       0.17841001      -0.40257493
Cu       2.03910070      10.26369430      17.39332354       0.00000000      -0.00338757      -0.00309157       0.12663669       0.00638148       0.00375340       0.12663823      -0.01506440       0.04998294      -0.02920908
Cu       2.04406207       2.57227222      17.39251674       0.00000000      -0.00266167      -0.00445054       0.12857498       0.00626380      -0.00357783       0.12541429       0.00000181      -0.04793352      -0.00287964
Cu       2.05023100       5.12218646      17.39482324       0.00000000      -0.00905477      -0.00235314       0.11187855       0.00484510      -0.00102018       0.11980361       0.00833984       0.06801288      -0.02024734
Cu       2.03887117       7.70134785      17.38936034       0.00000000      -0.00860480       0.00705939       0.11551123       0.00481382       0.00139180       0.11785705      -0.02655559      -0.06757948      -0.01745246
Cu       6.26663326       1.28642191      16.72454529       0.00000000      -0.00184847       0.00312503       0.10905487       0.00027657      -0.00082288       0.09896256       0.01958379      -0.01888592      -0.05322159
Cu       6.26778788       3.85116071      16.71047259       0.00000000       0.00909495      -0.00572716       0.08716585       0.00230185      -0.00184984       0.09219005       0.05160375       0.00080170      -0.09661626
Cu       6.27409587       6.41249335      16.71508740       0.00000000       0.00088473      -0.00121941       0.08683483       0.00301628      -0.00049501       0.08956144      -0.01403129      -0.00663292      -0.00380348
Cu       6.26476691       8.98430651      16.71561912       0.00000000      -0.00520654       0.00802599       0.09477312       0.00209651       0.00335821       0.09219009       0.06850245       0.02307945      -0.11070141
Cu       4.19156295       0.00000000      15.99982400       0.00000000       0.00000000       0.00000000       0.00000000       0.06192391      -0.07112350      -0.44141036       0.09987481      -0.18426817      -0.33530615
Cu       4.19156295       2.56679762      15.99982400       0.00000000       0.00000000       0.00000000       0.00000000       0.05297905       0.11419804      -0.35384648       0.09750414       0.15947464      -0.36297993
Cu       4.19156295       5.13359523      15.99982400       0.00000000       0.00000000       0.00000000       0.00000000       0.05900986      -0.13311331      -0.33770242       0.07677166      -0.09627498      -0.28021880
Cu       4.19156295       7.70039285      15.99982400       0.00000000       0.00000000       0.00000000       0.00000000       0.05801479       0.10742465      -0.38893962       0.09083828       0.08394573      -0.42231548
Cu       2.09578148       1.28339881      15.24984600       0.00000000       0.00000000       0.00000000       0.00000000       0.00048632      -0.00343857      -0.28218406      -0.02458705       0.00614116      -0.32556539
Cu       2.09578148       3.85019642      15.24984600       0.00000000       0.00000000       0.00000000       0.00000000      -0.00061921       0.00804541      -0.30329918       0.02206099       0.00654507      -0.28611429
Cu       2.09578148       6.41699404      15.24984600       0.00000000       0.00000000       0.00000000       0.00000000      -0.00074309      -0.00037610      -0.27205576       0.05399478      -0.00743517      -0.29482826
Cu       2.09578148       8.98379165      15.24984600       0.00000000       0.00000000       0.00000000       0.00000000      -0.01600991       0.00012319      -0.30421989       0.02859835      -0.01363992      -0.24208819
Cu       0.00000000       0.00000000      14.49986800       0.00000000       0.00000000       0.00000000       0.00000000      -0.07594327       0.00144020      -0.19559528      -0.10733291       0.01597677      -0.23993533
Cu       0.00000000       2.56679762      14.49986800       0.00000000       0.00000000       0.00000000       0.00000000      -0.07373253      -0.00637915      -0.20418353      -0.11858579      -0.01743522      -0.22429898
Cu       0.00000000       5.13359523      14.49986800       0.00000000       0.00000000       0.00000000       0.00000000      -0.07379209       0.00687789      -0.21152136      -0.11446259       0.02428373      -0.25542611
Cu       0.00000000       7.70039285      14.49986800       0.00000000       0.00000000       0.00000000       0.00000000      -0.07529689      -0.00121401      -0.20111048      -0.12722088      -0.01890347      -0.23352098
Cu       4.19156295       1.28339881      13.74989000       0.00000000       0.00000000       0.00000000       0.00000000      -0.04484377      -0.00191267      -0.12686417      -0.08487952       0.00353672       0.00594462
Cu       4.19156295       3.85019642      13.74989000       0.00000000       0.00000000       0.00000000       0.00000000      -0.04401882       0.00090609      -0.12265299      -0.07797437      -0.02724648      -0.07686542
Cu       4.19156295       6.41699404      13.74989000       0.00000000       0.00000000       0.00000000       0.00000000      -0.04595061       0.00160258      -0.12485833      -0.06868813      -0.00874181       0.01734279
Cu       4.19156295       8.98379165      13.74989000       0.00000000       0.00000000       0.00000000       0.00000000      -0.04511383      -0.00058981      -0.11901290      -0.07620357       0.02709801      -0.05485802
Cu       2.09578148       0.00000000      12.99991200       0.00000000       0.00000000       0.00000000       0.00000000      -0.07891370       0.00131338       0.17298813      -0.07511622       0.01839256       0.24826662
Cu       2.09578148       2.56679762      12.99991200       0.00000000       0.00000000       0.00000000       0.00000000      -0.07904428      -0.00088023       0.17157620      -0.05873248      -0.01641403       0.21722071
Cu       2.09578148       5.13359523      12.99991200       0.00000000       0.00000000       0.00000000       0.00000000      -0.07936235       0.00117273       0.17317221      -0.09367232       0.00770938       0.25927427
Cu       2.09578148       7.70039285      12.99991200       0.00000000       0.00000000       0.00000000       0.00000000      -0.07882221      -0.00155063       0.17481711      -0.09306214      -0.01008786       0.28040256
Cu      -0.00000000       1.28339881      12.24993400       0.00000000       0.00000000       0.00000000       0.00000000       0.11685821       0.00032239       0.43772558       0.10153437       0.00342081       0.66961193
Cu      -0.00000000       3.85019642      12.24993400       0.00000000       0.00000000       0.00000000       0.00000000       0.11684657       0.00031594       0.43809396       0.11444478      -0.01690170       0.69182749
Cu      -0.00000000       6.41699404      12.24993400       0.00000000       0.00000000       0.00000000       0.00000000       0.11637070      -0.00031061       0.43861545       0.08521497      -0.00305601       0.71379500
Cu      -0.00000000       8.98379165      12.24993400       0.00000000       0.00000000       0.00000000       0.00000000       0.11673402      -0.00031254       0.43721357       0.10381815       0.01722131       0.70907775
O        4.40149472       6.33154101      20.80913373       0.00000000      -0.01344617      -0.01882516      -0.00108851       0.02069763       0.00756210       0.01450907       0.08725057      -0.02983104       0.29758919
C        4.32942478       7.19349999      19.92742040       0.00000000       0.00083834       0.00758954       0.05550710       0.01633350      -0.00604967       0.01891232       0.08437485      -0.25637305       0.77295047
H        4.49523765       4.66546952      20.44712237       0.00000000       0.03736692      -0.00147080      -0.01183900       0.01719925      -0.00814079       0.02172860      -0.00745054       0.01631936       0.29706077
O        4.38728023       8.46224763      19.95216234       0.00000000       0.01453402       0.01542769       0.03925892       0.01531341      -0.00417773      -0.01208765      -0.11421145      -0.20350712      -0.55308205
O        4.61157309       3.75112093      20.04610055       0.50000000       0.04335783       0.02908098       0.06209490       0.01649050      -0.00924390       0.04317735       0.01382650       0.19233574       0.03063879
H        3.98022751       3.14928599      20.47602267       0.50000000      -0.04510067       0.00193925       0.10255795       0.01745568      -0.00418209       0.01812716      -0.01136045       0.04841595       0.21600526
42
Lattice="6.2873444314750255 0.0 0.0 0.0 10.26719046282867 0.0 0.0 0.0 28.249757996450562" Properties=species:S:1:pos:R:3:initial_magmoms:R:1:MACE_forces:R:3:forces:R:3:DFT_forces:R:3 adsorbate_info="_JSON {\"top layer atom index\": 0, \"sites\": {}}" MACE_energy=-172.9502172376953 energy=-172.68390777786715 stress="0.007113738132670693 1.792224612788411e-05 -0.0002868335116124752 1.792224612788411e-05 0.008088443376786384 5.6695896194413424e-05 -0.0002868335116124752 5.6695896194413424e-05 0.0015478057087840054" free_energy=-172.68390777786715 DFT_energy=-174.46382886 pbc="T T T"
Cu       4.07983967       1.27809519      18.05483357       0.00000000      -0.01595657      -0.00044869       0.13998403      -0.00824550       0.00143202       0.13805761       0.04507069      -0.01682643      -0.10987179
Cu       4.14905809       3.82503505      18.15787873       0.00000000      -0.01099525      -0.00967229       0.12998723      -0.00549469      -0.00866168       0.14278076       0.02685969       0.04207417      -0.36168768
Cu       4.11338016       6.42451099      18.09405052       0.00000000      -0.01521472       0.00952028       0.13886617      -0.00648078       0.00262689       0.13715718       0.03667086       0.08990712       0.07868329
Cu       4.12044030       9.03237265      18.11695362       0.00000000      -0.00843823      -0.00820018       0.16931667      -0.00028127       0.00555582       0.16027484       0.00962109       0.17691241      -0.42226236
Cu       2.03542942      10.26302796      17.39255141       0.00000000       0.00134963       0.00667689       0.12644042       0.00638148       0.00375340       0.12663823      -0.01287738       0.06054109      -0.03324429
Cu       2.04876608       2.57544381      17.39646793       0.00000000      -0.00299518      -0.00471917       0.12236807       0.00626380      -0.00357783       0.12541429      -0.00403690      -0.04425789      -0.01025799
Cu       2.05859373       5.11990273      17.39699472       0.00000000      -0.00663755      -0.00017697       0.11283983       0.00484510      -0.00102018       0.11980361       0.00709188       0.06686196      -0.01655062
Cu       2.03772423       7.70009641      17.38972106       0.00000000      -0.00048918       0.00630872       0.11781281       0.00481382       0.00139180       0.11785705      -0.02222758      -0.06703559      -0.01879410
Cu       6.26752125       1.28879978      16.72842721       0.00000000      -0.00848828       0.00062635       0.09954738       0.00027657      -0.00082288       0.09896256       0.01224130      -0.02153362      -0.06535802
Cu       6.26921711       3.85066796      16.71328918       0.00000000       0.00166388      -0.00218188       0.08859357       0.00230185      -0.00184984       0.09219005       0.04171239       0.00586512      -0.09076836
Cu       6.27639626       6.40977709      16.71503403       0.00000000      -0.00300856       0.00061088       0.08803107       0.00301628      -0.00049501       0.08956144      -0.01489564      -0.00375223      -0.00079926
Cu       6.26428096       8.98397290      16.71502660       0.00000000      -0.00251173       0.00497913       0.09169954       0.00209651       0.00335821       0.09219009       0.07175593       0.01949889      -0.11467243
Cu       4.19156295       0.00000000      15.99982400       0.00000000       0.00000000       0.00000000       0.00000000       0.06192391      -0.07112350      -0.44141036       0.10141956      -0.16698914      -0.36216871
Cu       4.19156295       2.56679762      15.99982400       0.00000000       0.00000000       0.00000000       0.00000000       0.05297905       0.11419804      -0.35384648       0.10327270       0.19209686      -0.31230851
Cu       4.19156295       5.13359523      15.99982400       0.00000000       0.00000000       0.00000000       0.00000000       0.05900986      -0.13311331      -0.33770242       0.08706056      -0.11411936      -0.21117149
Cu       4.19156295       7.70039285      15.99982400       0.00000000       0.00000000       0.00000000       0.00000000       0.05801479       0.10742465      -0.38893962       0.09274012       0.07562361      -0.43092891
Cu       2.09578148       1.28339881      15.24984600       0.00000000       0.00000000       0.00000000       0.00000000       0.00048632      -0.00343857      -0.28218406      -0.02741312       0.01336418      -0.31385646
Cu       2.09578148       3.85019642      15.24984600       0.00000000       0.00000000       0.00000000       0.00000000      -0.00061921       0.00804541      -0.30329918       0.01800499       0.00528458      -0.28485108
Cu       2.09578148       6.41699404      15.24984600       0.00000000       0.00000000       0.00000000       0.00000000      -0.00074309      -0.00037610      -0.27205576       0.05595507      -0.01363487      -0.29093291
Cu       2.09578148       8.98379165      15.24984600       0.00000000       0.00000000       0.00000000       0.00000000      -0.01600991       0.00012319      -0.30421989       0.02923237      -0.01541208      -0.24094609
Cu       0.00000000       0.00000000      14.49986800       0.00000000       0.00000000       0.00000000       0.00000000      -0.07594327       0.00144020      -0.19559528      -0.10649373       0.02095629      -0.23300538
Cu       0.00000000       2.56679762      14.49986800       0.00000000       0.00000000       0.00000000       0.00000000      -0.07373253      -0.00637915      -0.20418353      -0.12045542      -0.01748041      -0.21718830
Cu       0.00000000       5.13359523      14.49986800       0.00000000       0.00000000       0.00000000       0.00000000      -0.07379209       0.00687789      -0.21152136      -0.11582809       0.02014040      -0.25255278
Cu       0.00000000       7.70039285      14.49986800       0.00000000       0.00000000       0.00000000       0.00000000      -0.07529689      -0.00121401      -0.20111048      -0.12679408      -0.01925101      -0.23308858
Cu       4.19156295       1.28339881      13.74989000       0.00000000       0.00000000       0.00000000       0.00000000      -0.04484377      -0.00191267      -0.12686417      -0.08399024       0.00757922       0.00576094
Cu       4.19156295       3.85019642      13.74989000       0.00000000       0.00000000       0.00000000       0.00000000      -0.04401882       0.00090609      -0.12265299      -0.07915752      -0.02891923      -0.07555279
Cu       4.19156295       6.41699404      13.74989000       0.00000000       0.00000000       0.00000000       0.00000000      -0.04595061       0.00160258      -0.12485833      -0.06895551      -0.00939311       0.01707754
Cu       4.19156295       8.98379165      13.74989000       0.00000000       0.00000000       0.00000000       0.00000000      -0.04511383      -0.00058981      -0.11901290      -0.07522706       0.02544964      -0.05383950
Cu       2.09578148       0.00000000      12.99991200       0.00000000       0.00000000       0.00000000       0.00000000      -0.07891370       0.00131338       0.17298813      -0.07667470       0.01961534       0.25035732
Cu       2.09578148       2.56679762      12.99991200       0.00000000       0.00000000       0.00000000       0.00000000      -0.07904428      -0.00088023       0.17157620      -0.05737105      -0.01603347       0.21530260
Cu       2.09578148       5.13359523      12.99991200       0.00000000       0.00000000       0.00000000       0.00000000      -0.07936235       0.00117273       0.17317221      -0.09174185       0.00819625       0.25696614
Cu       2.09578148       7.70039285      12.99991200       0.00000000       0.00000000       0.00000000       0.00000000      -0.07882221      -0.00155063       0.17481711      -0.09431412      -0.01095632       0.28202574
Cu      -0.00000000       1.28339881      12.24993400       0.00000000       0.00000000       0.00000000       0.00000000       0.11685821       0.00032239       0.43772558       0.10130636       0.00289687       0.67075817
Cu      -0.00000000       3.85019642      12.24993400       0.00000000       0.00000000       0.00000000       0.00000000       0.11684657       0.00031594       0.43809396       0.11352455      -0.01605197       0.69146356
Cu      -0.00000000       6.41699404      12.24993400       0.00000000       0.00000000       0.00000000       0.00000000       0.11637070      -0.00031061       0.43861545       0.08496987      -0.00314572       0.71412158
Cu      -0.00000000       8.98379165      12.24993400       0.00000000       0.00000000       0.00000000       0.00000000       0.11673402      -0.00031254       0.43721357       0.10499204       0.01725063       0.71020056
O        4.39588042       6.37664649      20.81207627       0.00000000       0.00955254      -0.00431077       0.02470370       0.02069763       0.00756210       0.01450907       0.11613698      -0.02857516       0.32543985
C        4.32922476       7.23409692      19.92573698       0.00000000       0.00354308      -0.00678793       0.04378807       0.01633350      -0.00604967       0.01891232       0.07616892      -0.29156295       0.80083613
H        4.55694296       4.72747617      20.45843011       0.00000000       0.01641289      -0.01397136      -0.01565857       0.01719925      -0.00814079       0.02172860      -0.04234984       0.01561235       0.18456306
O        4.39132110       8.50286660      19.94807048       0.00000000       0.00608453      -0.00082794       0.04258196       0.01531341      -0.00417773      -0.01208765      -0.09656533      -0.20216796      -0.58132049
O        4.64034100       3.79415806      20.09394655       0.50000000       0.00245673       0.00101883       0.02023027       0.01649050      -0.00924390       0.04317735      -0.03100064       0.19092453       0.01946101
H        4.00842261       3.23901377      20.58320246       0.50000000      -0.01665575       0.00292590      -0.00982171       0.01745568      -0.00418209       0.01812716       0.01256187       0.03044701       0.11496139
42
Lattice="6.2873444314750255 0.0 0.0 0.0 10.26719046282867 0.0 0.0 0.0 28.249757996450562" Properties=species:S:1:pos:R:3:initial_magmoms:R:1:MACE_forces:R:3:forces:R:3:DFT_forces:R:3 adsorbate_info="_JSON {\"top layer atom index\": 0, \"sites\": {}}" MACE_energy=-172.94994335767538 energy=-172.68390777786715 stress="0.007113738132670693 1.792224612788411e-05 -0.0002868335116124752 1.792224612788411e-05 0.008088443376786384 5.6695896194413424e-05 -0.0002868335116124752 5.6695896194413424e-05 0.0015478057087840054" free_energy=-172.68390777786715 DFT_energy=-174.45923356 pbc="T T T"
Cu       4.07783369       1.27761004      18.05438806       0.00000000      -0.01639473      -0.00393730       0.14089598      -0.00824550       0.00143202       0.13805761       0.04416534      -0.02684434      -0.11422046
Cu       4.14557578       3.82708996      18.15447254       0.00000000      -0.01488534      -0.00282765       0.12027026      -0.00549469      -0.00866168       0.14278076       0.01396310       0.04473580      -0.39178121
Cu       4.11079604       6.42959395      18.09893144       0.00000000      -0.00113428       0.05065149       0.20989915      -0.00648078       0.00262689       0.13715718       0.05297648       0.13176211       0.15371323
Cu       4.11848247       9.02803083      18.12177043       0.00000000      -0.00030132      -0.01238707       0.20345774      -0.00028127       0.00555582       0.16027484       0.01755149       0.15378807      -0.36279093
Cu       2.03431132      10.26281802      17.39286938       0.00000000       0.00495173       0.00349317       0.12639309       0.00638148       0.00375340       0.12663823      -0.00917589       0.05671097      -0.03166530
Cu       2.04703506       2.57541088      17.39610554       0.00000000      -0.00122990      -0.00428704       0.12307812       0.00626380      -0.00357783       0.12541429      -0.00132368      -0.04488804      -0.01079664
Cu       2.05644362       5.12101055      17.39699860       0.00000000       0.00131289       0.00401166       0.11301408       0.00484510      -0.00102018       0.11980361       0.01435231       0.07004815      -0.01983353
Cu       2.03635189       7.70070930      17.39017003       0.00000000       0.00167087       0.00611052       0.11634765       0.00481382       0.00139180       0.11785705      -0.02014383      -0.06803197      -0.01797380
Cu       6.26640565       1.28861082      16.72849348       0.00000000      -0.00560878       0.00025292       0.09904675       0.00027657      -0.00082288       0.09896256       0.01537584      -0.02175285      -0.06459786
Cu       6.26842600       3.85084270      16.71313132       0.00000000       0.00453040      -0.00219370       0.08463174       0.00230185      -0.00184984       0.09219005       0.04279203       0.00479640      -0.09456203
Cu       6.27457262       6.41029352      16.71601116       0.00000000      -0.00406060      -0.00010769       0.08756872       0.00301628      -0.00049501       0.08956144      -0.01332806      -0.00352261       0.00109478
Cu       6.26298539       8.98380728      16.71575712       0.00000000      -0.00331921       0.00538802       0.09249348       0.00209651       0.00335821       0.09219009       0.07322292       0.02032187      -0.11163712
Cu       4.19156295       0.00000000      15.99982400       0.00000000       0.00000000       0.00000000       0.00000000       0.06192391      -0.07112350      -0.44141036       0.09862653      -0.17564195      -0.34974827
Cu       4.19156295       2.56679762      15.99982400       0.00000000       0.00000000       0.00000000       0.00000000       0.05297905       0.11419804      -0.35384648       0.09980623       0.18959644      -0.31663158
Cu       4.19156295       5.13359523      15.99982400       0.00000000       0.00000000       0.00000000       0.00000000       0.05900986      -0.13311331      -0.33770242       0.08048880      -0.10025708      -0.20046475
Cu       4.19156295       7.70039285      15.99982400       0.00000000       0.00000000       0.00000000       0.00000000       0.05801479       0.10742465      -0.38893962       0.08636525       0.07774632      -0.41040042
Cu       2.09578148       1.28339881      15.24984600       0.00000000       0.00000000       0.00000000       0.00000000       0.00048632      -0.00343857      -0.28218406      -0.02834455       0.01167866      -0.31302595
Cu       2.09578148       3.85019642      15.24984600       0.00000000       0.00000000       0.00000000       0.00000000      -0.00061921       0.00804541      -0.30329918       0.01741655       0.00575901      -0.28452405
Cu       2.09578148       6.41699404      15.24984600       0.00000000       0.00000000       0.00000000       0.00000000      -0.00074309      -0.00037610      -0.27205576       0.05151778      -0.01315037      -0.29039559
Cu       2.09578148       8.98379165      15.24984600       0.00000000       0.00000000       0.00000000       0.00000000      -0.01600991       0.00012319      -0.30421989       0.02630199      -0.01481226      -0.24133173
Cu       0.00000000       0.00000000      14.49986800       0.00000000       0.00000000       0.00000000       0.00000000      -0.07594327       0.00144020      -0.19559528      -0.10705601       0.02069090      -0.23155170
Cu       0.00000000       2.56679762      14.49986800       0.00000000       0.00000000       0.00000000       0.00000000      -0.07373253      -0.00637915      -0.20418353      -0.12122686      -0.01819035      -0.21732689
Cu       0.00000000       5.13359523      14.49986800       0.00000000       0.00000000       0.00000000       0.00000000      -0.07379209       0.00687789      -0.21152136      -0.11687365       0.02028331      -0.25020508
Cu       0.00000000       7.70039285      14.49986800       0.00000000       0.00000000       0.00000000       0.00000000      -0.07529689      -0.00121401      -0.20111048      -0.12705473      -0.01860406      -0.23160442
Cu       4.19156295       1.28339881      13.74989000       0.00000000       0.00000000       0.00000000       0.00000000      -0.04484377      -0.00191267      -0.12686417      -0.08401529       0.00737063       0.00686994
Cu       4.19156295       3.85019642      13.74989000       0.00000000       0.00000000       0.00000000       0.00000000      -0.04401882       0.00090609      -0.12265299      -0.07990596      -0.02819025      -0.07619303
Cu       4.19156295       6.41699404      13.74989000       0.00000000       0.00000000       0.00000000       0.00000000      -0.04595061       0.00160258      -0.12485833      -0.07074282      -0.00881406       0.01831126
Cu       4.19156295       8.98379165      13.74989000       0.00000000       0.00000000       0.00000000       0.00000000      -0.04511383      -0.00058981      -0.11901290      -0.07606522       0.02369901      -0.05151729
Cu       2.09578148       0.00000000      12.99991200       0.00000000       0.00000000       0.00000000       0.00000000      -0.07891370       0.00131338       0.17298813      -0.07679664       0.01932648       0.25238083
Cu       2.09578148       2.56679762      12.99991200       0.00000000       0.00000000       0.00000000       0.00000000      -0.07904428      -0.00088023       0.17157620      -0.05777672      -0.01579315       0.21534052
Cu       2.09578148       5.13359523      12.99991200       0.00000000       0.00000000       0.00000000       0.00000000      -0.07936235       0.00117273       0.17317221      -0.09103816       0.00868158       0.25648024
Cu       2.09578148       7.70039285      12.99991200       0.00000000       0.00000000       0.00000000       0.00000000      -0.07882221      -0.00155063       0.17481711      -0.09339846      -0.01173068       0.28273778
Cu      -0.00000000       1.28339881      12.24993400       0.00000000       0.00000000       0.00000000       0.00000000       0.11685821       0.00032239       0.43772558       0.10099298       0.00381213       0.67205392
Cu      -0.00000000       3.85019642      12.24993400       0.00000000       0.00000000       0.00000000       0.00000000       0.11684657       0.00031594       0.43809396       0.11431908      -0.01563422       0.69128182
Cu      -0.00000000       6.41699404      12.24993400       0.00000000       0.00000000       0.00000000       0.00000000       0.11637070      -0.00031061       0.43861545       0.08496367      -0.00428838       0.71328923
Cu      -0.00000000       8.98379165      12.24993400       0.00000000       0.00000000       0.00000000       0.00000000       0.11673402      -0.00031254       0.43721357       0.10399712       0.01616358       0.71151884
O        4.42339477       6.38635393      20.82364107       0.00000000       0.00668191       0.03071501       0.00236403       0.02069763       0.00756210       0.01450907       0.10846707      -0.00805418       0.30392134
C        4.34697000       7.25430275      19.94917459       0.00000000      -0.02120902      -0.04891048      -0.04299575       0.01633350      -0.00604967       0.01891232       0.07878451      -0.31705766       0.72221817
H        4.56182333       4.73280664      20.45861367       0.00000000       0.01587174      -0.00019799      -0.01972525       0.01719925      -0.00814079       0.02172860      -0.01536358      -0.02617099       0.24081449
O        4.40100750       8.52169283      19.97234371       0.00000000       0.00167619      -0.03345759      -0.01380495       0.01531341      -0.00417773      -0.01208765      -0.12598674      -0.20104379      -0.68781491
O        4.65267436       3.80843641      20.07720960       0.50000000       0.02307435      -0.03448215       0.06266456       0.01649050      -0.00924390       0.04317735      -0.02478991       0.20119621       0.02079522
H        4.06129188       3.22265612      20.58126958       0.50000000      -0.02010386       0.02015927      -0.01765988       0.01745568      -0.00418209       0.01812716       0.01395965       0.05430562       0.10977295
42
Lattice="6.2873444314750255 0.0 0.0 0.0 10.26719046282867 0.0 0.0 0.0 28.249757996450562" Properties=species:S:1:pos:R:3:initial_magmoms:R:1:MACE_forces:R:3:forces:R:3:DFT_forces:R:3 adsorbate_info="_JSON {\"top layer atom index\": 0, \"sites\": {}}" MACE_energy=-172.94987883339806 energy=-172.68390777786715 stress="0.007113738132670693 1.792224612788411e-05 -0.0002868335116124752 1.792224612788411e-05 0.008088443376786384 5.6695896194413424e-05 -0.0002868335116124752 5.6695896194413424e-05 0.0015478057087840054" free_energy=-172.68390777786715 DFT_energy=-174.45760546 pbc="T T T"
Cu       4.07467956       1.27619779      18.05407982       0.00000000      -0.01379028      -0.00289097       0.14172457      -0.00824550       0.00143202       0.13805761       0.04921061      -0.02736521      -0.11684877
Cu       4.13979661       3.83130010      18.14745782       0.00000000      -0.00087302       0.00160655       0.15207234      -0.00549469      -0.00866168       0.14278076       0.02317336       0.04457843      -0.35208665
Cu       4.11025424       6.44432099      18.11785871       0.00000000      -0.01347103      -0.01225232       0.08518052      -0.00648078       0.00262689       0.13715718       0.04684102       0.05440737       0.02554314
Cu       4.11779877       9.02242838      18.13553786       0.00000000      -0.00536602       0.04811569       0.12505835      -0.00028127       0.00555582       0.16027484       0.00636448       0.20691798      -0.43988983
Cu       2.03377185      10.26185824      17.39324676       0.00000000       0.01034192       0.00018266       0.12518213       0.00638148       0.00375340       0.12663823      -0.00546139       0.05216106      -0.03127154
Cu       2.04481216       2.57543513      17.39564445       0.00000000       0.00131934      -0.00340071       0.12295088       0.00626380      -0.00357783       0.12541429       0.00165333      -0.04359085      -0.01166878
Cu       2.05545238       5.12387422      17.39686683       0.00000000       0.01136374       0.00891586       0.11384318       0.00484510      -0.00102018       0.11980361       0.02345344       0.07519923      -0.02260656
Cu       2.03504908       7.70160066      17.39029473       0.00000000       0.00539446       0.00622349       0.11704473       0.00481382       0.00139180       0.11785705      -0.02093455      -0.06791277      -0.02055322
Cu       6.26507788       1.28840326      16.72836957       0.00000000      -0.00143355      -0.00033548       0.09910258       0.00027657      -0.00082288       0.09896256       0.01921035      -0.02258516      -0.06288552
Cu       6.26823722       3.85110408      16.71160948       0.00000000       0.00661633      -0.00160213       0.08513229       0.00230185      -0.00184984       0.09219005       0.04394172       0.00514916      -0.09505411
Cu       6.27146148       6.41079258      16.71706022       0.00000000      -0.00275432      -0.00136077       0.08915612       0.00301628      -0.00049501       0.08956144      -0.00874661      -0.00244935       0.00358398
Cu       6.26086338       8.98372491      16.71661209       0.00000000      -0.00426261       0.00651940       0.09436894       0.00209651       0.00335821       0.09219009       0.07521216       0.02115492      -0.10829348
Cu       4.19156295       0.00000000      15.99982400       0.00000000       0.00000000       0.00000000       0.00000000       0.06192391      -0.07112350      -0.44141036       0.09315839      -0.19671311      -0.32055111
Cu       4.19156295       2.56679762      15.99982400       0.00000000       0.00000000       0.00000000       0.00000000       0.05297905       0.11419804      -0.35384648       0.09640024       0.18300804      -0.32250039
Cu       4.19156295       5.13359523      15.99982400       0.00000000       0.00000000       0.00000000       0.00000000       0.05900986      -0.13311331      -0.33770242       0.07227667      -0.05670034      -0.16229843
Cu       4.19156295       7.70039285      15.99982400       0.00000000       0.00000000       0.00000000       0.00000000       0.05801479       0.10742465      -0.38893962       0.07499976       0.07610719      -0.36822145
Cu       2.09578148       1.28339881      15.24984600       0.00000000       0.00000000       0.00000000       0.00000000       0.00048632      -0.00343857      -0.28218406      -0.02893656       0.00950383      -0.31087449
Cu       2.09578148       3.85019642      15.24984600       0.00000000       0.00000000       0.00000000       0.00000000      -0.00061921       0.00804541      -0.30329918       0.01838860       0.00722247      -0.28381919
Cu       2.09578148       6.41699404      15.24984600       0.00000000       0.00000000       0.00000000       0.00000000      -0.00074309      -0.00037610      -0.27205576       0.04733044      -0.01113796      -0.28855304
Cu       2.09578148       8.98379165      15.24984600       0.00000000       0.00000000       0.00000000       0.00000000      -0.01600991       0.00012319      -0.30421989       0.02374510      -0.01401224      -0.24059838
Cu       0.00000000       0.00000000      14.49986800       0.00000000       0.00000000       0.00000000       0.00000000      -0.07594327       0.00144020      -0.19559528      -0.10748415       0.01985360      -0.22953364
Cu       0.00000000       2.56679762      14.49986800       0.00000000       0.00000000       0.00000000       0.00000000      -0.07373253      -0.00637915      -0.20418353      -0.12153570      -0.01916141      -0.21882150
Cu       0.00000000       5.13359523      14.49986800       0.00000000       0.00000000       0.00000000       0.00000000      -0.07379209       0.00687789      -0.21152136      -0.11728777       0.02159438      -0.24911936
Cu       0.00000000       7.70039285      14.49986800       0.00000000       0.00000000       0.00000000       0.00000000      -0.07529689      -0.00121401      -0.20111048      -0.12725190      -0.01733701      -0.22920811
Cu       4.19156295       1.28339881      13.74989000       0.00000000       0.00000000       0.00000000       0.00000000      -0.04484377      -0.00191267      -0.12686417      -0.08380758       0.00790232       0.00730833
Cu       4.19156295       3.85019642      13.74989000       0.00000000       0.00000000       0.00000000       0.00000000      -0.04401882       0.00090609      -0.12265299      -0.08056536      -0.02801409      -0.07601284
Cu       4.19156295       6.41699404      13.74989000       0.00000000       0.00000000       0.00000000       0.00000000      -0.04595061       0.00160258      -0.12485833      -0.07165013      -0.00771172       0.01876057
Cu       4.19156295       8.98379165      13.74989000       0.00000000       0.00000000       0.00000000       0.00000000      -0.04511383      -0.00058981      -0.11901290      -0.07610665       0.02238156      -0.04972406
Cu       2.09578148       0.00000000      12.99991200       0.00000000       0.00000000       0.00000000       0.00000000      -0.07891370       0.00131338       0.17298813      -0.07667164       0.01880043       0.25451268
Cu       2.09578148       2.56679762      12.99991200       0.00000000       0.00000000       0.00000000       0.00000000      -0.07904428      -0.00088023       0.17157620      -0.05764001      -0.01467449       0.21567644
Cu       2.09578148       5.13359523      12.99991200       0.00000000       0.00000000       0.00000000       0.00000000      -0.07936235       0.00117273       0.17317221      -0.09048117       0.00890688       0.25615329
Cu       2.09578148       7.70039285      12.99991200       0.00000000       0.00000000       0.00000000       0.00000000      -0.07882221      -0.00155063       0.17481711      -0.09259180      -0.01192756       0.28340835
Cu      -0.00000000       1.28339881      12.24993400       0.00000000       0.00000000       0.00000000       0.00000000       0.11685821       0.00032239       0.43772558       0.10076943       0.00475875       0.67353981
Cu      -0.00000000       3.85019642      12.24993400       0.00000000       0.00000000       0.00000000       0.00000000       0.11684657       0.00031594       0.43809396       0.11504745      -0.01483401       0.69060724
Cu      -0.00000000       6.41699404      12.24993400       0.00000000       0.00000000       0.00000000       0.00000000       0.11637070      -0.00031061       0.43861545       0.08544957      -0.00472617       0.71286961
Cu      -0.00000000       8.98379165      12.24993400       0.00000000       0.00000000       0.00000000       0.00000000       0.11673402      -0.00031254       0.43721357       0.10354206       0.01489988       0.71305655
O        4.45509808       6.40308934      20.83171648       0.00000000      -0.00967443      -0.04726239      -0.02511632       0.02069763       0.00756210       0.01450907       0.08701960      -0.08488159       0.27064910
C        4.36220891       7.26829474      19.95552758       0.00000000       0.00221312      -0.04079924       0.07782198       0.01633350      -0.00604967       0.01891232       0.08136228      -0.29154430       0.68914884
H        4.56686187       4.73951303      20.45576097       0.00000000       0.01719796       0.00634260       0.00104464       0.01719925      -0.00814079       0.02172860       0.00035394      -0.04177370       0.21461158
O        4.41150845       8.53674442      19.98685904       0.00000000      -0.00721679      -0.00482892      -0.06036235       0.01531341      -0.00417773      -0.01208765      -0.11552421      -0.16407146      -0.58693359
O        4.67235502       3.82207084      20.06344710       0.50000000       0.03786862      -0.04280992       0.04467895       0.01649050      -0.00924390       0.04317735      -0.01345668       0.20305848       0.04840212
H        4.12340321       3.20485489      20.57762413       0.50000000      -0.03020634       0.04773222      -0.01207409       0.01745568      -0.00418209       0.01812716       0.00722983       0.08555852       0.12009641
42
Lattice="6.2873444314750255 0.0 0.0 0.0 10.26719046282867 0.0 0.0 0.0 28.249757996450562" Properties=species:S:1:pos:R:3:initial_magmoms:R:1:MACE_forces:R:3:forces:R:3:DFT_forces:R:3 adsorbate_info="_JSON {\"top layer atom index\": 0, \"sites\": {}}" MACE_energy=-172.94127279428716 energy=-172.68390777786715 stress="0.007113738132670693 1.792224612788411e-05 -0.0002868335116124752 1.792224612788411e-05 0.008088443376786384 5.6695896194413424e-05 -0.0002868335116124752 5.6695896194413424e-05 0.0015478057087840054" free_energy=-172.68390777786715 DFT_energy=-174.43980441 pbc="T T T"
Cu       4.06696278       1.27855506      18.05440998       0.00000000      -0.00466388       0.06010443       0.14177300      -0.00824550       0.00143202       0.13805761       0.05673813       0.03642644      -0.12294211
Cu       4.13417943       3.84346790      18.14605604       0.00000000       0.02505090      -0.03567772       0.13738067      -0.00549469      -0.00866168       0.14278076       0.03037982       0.00912292      -0.37125245
Cu       4.10652380       6.45591262      18.11247977       0.00000000      -0.00421620      -0.01850340       0.13050049      -0.00648078       0.00262689       0.13715718       0.06259085       0.04330920       0.06399360
Cu       4.11557054       9.04606326      18.12820025       0.00000000       0.00174927      -0.05894277       0.16585541      -0.00028127       0.00555582       0.16027484       0.00821616       0.11313202      -0.42748164
Cu       2.03388487      10.25815346      17.39236744       0.00000000      -0.02962202       0.03313309       0.11900861       0.00638148       0.00375340       0.12663823      -0.04677939       0.09058688      -0.03916111
Cu       2.04102155       2.57706788      17.39451832       0.00000000       0.01389656       0.00914269       0.12945210       0.00626380      -0.00357783       0.12541429       0.01719316      -0.03022210      -0.00535637
Cu       2.05931505       5.13511398      17.39611282       0.00000000      -0.02327947      -0.03167170       0.11436306       0.00484510      -0.00102018       0.11980361      -0.01300655       0.03184878      -0.02336945
Cu       2.03360556       7.70516741      17.38943091       0.00000000      -0.00916924       0.00951391       0.11502997       0.00481382       0.00139180       0.11785705      -0.03263452      -0.06635508      -0.02015351
Cu       6.26351939       1.28754827      16.72794360       0.00000000      -0.00043170       0.00096511       0.10446140       0.00027657      -0.00082288       0.09896256       0.02023519      -0.01822219      -0.05542125
Cu       6.27035821       3.85275921      16.70619914       0.00000000       0.00050268      -0.00138760       0.10142238       0.00230185      -0.00184984       0.09219005       0.03931723       0.00506723      -0.08088604
Cu       6.26537694       6.41122423      16.71943064       0.00000000       0.03389187       0.00076349       0.08066247       0.00301628      -0.00049501       0.08956144       0.03027674       0.00415365      -0.00192874
Cu       6.25621396       8.98433269      16.71814024       0.00000000       0.02558233       0.00262172       0.08063482       0.00209651       0.00335821       0.09219009       0.10681792       0.01655559      -0.11962449
Cu       4.19156295       0.00000000      15.99982400       0.00000000       0.00000000       0.00000000       0.00000000       0.06192391      -0.07112350      -0.44141036       0.08691023      -0.16737725      -0.36215965
Cu       4.19156295       2.56679762      15.99982400       0.00000000       0.00000000       0.00000000       0.00000000       0.05297905       0.11419804      -0.35384648       0.09384815       0.19010489      -0.31348069
Cu       4.19156295       5.13359523      15.99982400       0.00000000       0.00000000       0.00000000       0.00000000       0.05900986      -0.13311331      -0.33770242       0.06982121      -0.05084701      -0.18290410
Cu       4.19156295       7.70039285      15.99982400       0.00000000       0.00000000       0.00000000       0.00000000       0.05801479       0.10742465      -0.38893962       0.06430583       0.09036591      -0.39285571
Cu       2.09578148       1.28339881      15.24984600       0.00000000       0.00000000       0.00000000       0.00000000       0.00048632      -0.00343857      -0.28218406      -0.03128804       0.00945754      -0.30954743
Cu       2.09578148       3.85019642      15.24984600       0.00000000       0.00000000       0.00000000       0.00000000      -0.00061921       0.00804541      -0.30329918       0.02550206       0.01312731      -0.27965961
Cu       2.09578148       6.41699404      15.24984600       0.00000000       0.00000000       0.00000000       0.00000000      -0.00074309      -0.00037610      -0.27205576       0.03778911      -0.00249037      -0.29544104
Cu       2.09578148       8.98379165      15.24984600       0.00000000       0.00000000       0.00000000       0.00000000      -0.01600991       0.00012319      -0.30421989       0.01763551      -0.01412284      -0.24863154
Cu       0.00000000       0.00000000      14.49986800       0.00000000       0.00000000       0.00000000       0.00000000      -0.07594327       0.00144020      -0.19559528      -0.10711054       0.01746657      -0.22838663
Cu       0.00000000       2.56679762      14.49986800       0.00000000       0.00000000       0.00000000       0.00000000      -0.07373253      -0.00637915      -0.20418353      -0.12141090      -0.02388940      -0.22133901
Cu       0.00000000       5.13359523      14.49986800       0.00000000       0.00000000       0.00000000       0.00000000      -0.07379209       0.00687789      -0.21152136      -0.11758385       0.02976947      -0.25105994
Cu       0.00000000       7.70039285      14.49986800       0.00000000       0.00000000       0.00000000       0.00000000      -0.07529689      -0.00121401      -0.20111048      -0.12625685      -0.01694287      -0.22293148
Cu       4.19156295       1.28339881      13.74989000       0.00000000       0.00000000       0.00000000       0.00000000      -0.04484377      -0.00191267      -0.12686417      -0.08419655       0.00727840       0.00793418
Cu       4.19156295       3.85019642      13.74989000       0.00000000       0.00000000       0.00000000       0.00000000      -0.04401882       0.00090609      -0.12265299      -0.08057600      -0.02786110      -0.07519709
Cu       4.19156295       6.41699404      13.74989000       0.00000000       0.00000000       0.00000000       0.00000000      -0.04595061       0.00160258      -0.12485833      -0.07129533      -0.00779623       0.01724835
Cu       4.19156295       8.98379165      13.74989000       0.00000000       0.00000000       0.00000000       0.00000000      -0.04511383      -0.00058981      -0.11901290      -0.07561560       0.02324094      -0.04989716
Cu       2.09578148       0.00000000      12.99991200       0.00000000       0.00000000       0.00000000       0.00000000      -0.07891370       0.00131338       0.17298813      -0.07634177       0.01938574       0.25495417
Cu       2.09578148       2.56679762      12.99991200       0.00000000       0.00000000       0.00000000       0.00000000      -0.07904428      -0.00088023       0.17157620      -0.05767174      -0.01505412       0.21585740
Cu       2.09578148       5.13359523      12.99991200       0.00000000       0.00000000       0.00000000       0.00000000      -0.07936235       0.00117273       0.17317221      -0.09066960       0.00985596       0.25657785
Cu       2.09578148       7.70039285      12.99991200       0.00000000       0.00000000       0.00000000       0.00000000      -0.07882221      -0.00155063       0.17481711      -0.09178242      -0.01242062       0.28398680
Cu      -0.00000000       1.28339881      12.24993400       0.00000000       0.00000000       0.00000000       0.00000000       0.11685821       0.00032239       0.43772558       0.10123988       0.00604552       0.67205299
Cu      -0.00000000       3.85019642      12.24993400       0.00000000       0.00000000       0.00000000       0.00000000       0.11684657       0.00031594       0.43809396       0.11538062      -0.01583487       0.68980424
Cu      -0.00000000       6.41699404      12.24993400       0.00000000       0.00000000       0.00000000       0.00000000       0.11637070      -0.00031061       0.43861545       0.08575545      -0.00496998       0.71390053
Cu      -0.00000000       8.98379165      12.24993400       0.00000000       0.00000000       0.00000000       0.00000000       0.11673402      -0.00031254       0.43721357       0.10329898       0.01532547       0.71192059
O        4.50276546       6.41014241      20.82322730       0.00000000      -0.02501223       0.01715809       0.00774058       0.02069763       0.00756210       0.01450907       0.07264103      -0.01826830       0.31641284
C        4.38909128       7.27619187      19.95206641       0.00000000      -0.02267126      -0.05109732      -0.04861276       0.01633350      -0.00604967       0.01891232       0.11983925      -0.31041656       0.82099139
H        4.58503834       4.74757668      20.44412509       0.00000000       0.08078372       0.01318711       0.00237304       0.01719925      -0.00814079       0.02172860      -0.03689506      -0.02399091       0.21463593
O        4.42706841       8.54423584      19.96759725       0.00000000       0.01108576      -0.02638911       0.04568371       0.01531341      -0.00417773      -0.01208765      -0.16684985      -0.20426971      -0.72521180
O        4.73398540       3.84065490      20.04219002       0.50000000      -0.00017827      -0.02742847       0.03911341       0.01649050      -0.00924390       0.04317735       0.06814552       0.20857935       0.04412475
H        4.23081885       3.19179759      20.56291769       0.50000000      -0.04765732       0.00256466       0.00396778       0.01745568      -0.00418209       0.01812716      -0.00591347       0.04114573       0.14188443
42
Lattice="6.2873444314750255 0.0 0.0 0.0 10.26719046282867 0.0 0.0 0.0 28.249757996450562" Properties=species:S:1:pos:R:3:initial_magmoms:R:1:MACE_forces:R:3:forces:R:3:DFT_forces:R:3 adsorbate_info="_JSON {\"top layer atom index\": 0, \"sites\": {}}" MACE_energy=-172.9328827138417 energy=-172.68390777786715 stress="0.007113738132670693 1.792224612788411e-05 -0.0002868335116124752 1.792224612788411e-05 0.008088443376786384 5.6695896194413424e-05 -0.0002868335116124752 5.6695896194413424e-05 0.0015478057087840054" free_energy=-172.68390777786715 DFT_energy=-174.43082699 pbc="T T T"
Cu       4.06460874       1.28288447      18.05451766       0.00000000      -0.00421945       0.06180194       0.14238071      -0.00824550       0.00143202       0.13805761       0.05573562       0.03668117      -0.12775927
Cu       4.13125323       3.84759530      18.14874835       0.00000000       0.03207448      -0.03818368       0.12530781      -0.00549469      -0.00866168       0.14278076       0.02407975       0.00595949      -0.39430886
Cu       4.10637986       6.46256862      18.11322401       0.00000000       0.00095405      -0.01244328       0.15572610      -0.00648078       0.00262689       0.13715718       0.07327304       0.04773059       0.09453515
Cu       4.11520291       9.05426599      18.12563233       0.00000000       0.00869782      -0.09620162       0.21162267      -0.00028127       0.00555582       0.16027484       0.01257000       0.07282386      -0.37238969
Cu       2.03271060      10.25731507      17.39179077       0.00000000      -0.03072053       0.04504665       0.12077273       0.00638148       0.00375340       0.12663823      -0.04742702       0.10505196      -0.03753380
Cu       2.03988239       2.57816456      17.39416405       0.00000000       0.01513049       0.01418435       0.13149380       0.00626380      -0.00357783       0.12541429       0.02018121      -0.02409962      -0.00393245
Cu       2.06016510       5.13954965      17.39602854       0.00000000      -0.02648146      -0.04472596       0.11606100       0.00484510      -0.00102018       0.11980361      -0.01548940       0.01718873      -0.02293875
Cu       2.03322205       7.70697060      17.38935702       0.00000000      -0.00874400       0.00920765       0.11602099       0.00481382       0.00139180       0.11785705      -0.03156988      -0.06764354      -0.01849225
Cu       6.26326320       1.28674134      16.72794742       0.00000000      -0.00297815       0.00515850       0.10496799       0.00027657      -0.00082288       0.09896256       0.01639363      -0.01237083      -0.05327801
Cu       6.27058639       3.85360244      16.70521495       0.00000000      -0.00116345      -0.00324999       0.10369656       0.00230185      -0.00184984       0.09219005       0.03610636       0.00248658      -0.07849987
Cu       6.26411403       6.41164402      16.72053662       0.00000000       0.03956109       0.00085327       0.07656851       0.00301628      -0.00049501       0.08956144       0.03746448       0.00605018      -0.00545110
Cu       6.25550089       8.98421430      16.71874522       0.00000000       0.02886485       0.00145223       0.07493429       0.00209651       0.00335821       0.09219009       0.11005338       0.01472874      -0.12375956
Cu       4.19156295       0.00000000      15.99982400       0.00000000       0.00000000       0.00000000       0.00000000       0.06192391      -0.07112350      -0.44141036       0.08462964      -0.15467120      -0.37241206
Cu       4.19156295       2.56679762      15.99982400       0.00000000       0.00000000       0.00000000       0.00000000       0.05297905       0.11419804      -0.35384648       0.09392935       0.19775221      -0.30891203
Cu       4.19156295       5.13359523      15.99982400       0.00000000       0.00000000       0.00000000       0.00000000       0.05900986      -0.13311331      -0.33770242       0.06787111      -0.04537191      -0.17600502
Cu       4.19156295       7.70039285      15.99982400       0.00000000       0.00000000       0.00000000       0.00000000       0.05801479       0.10742465      -0.38893962       0.06155417       0.09423327      -0.39419114
Cu       2.09578148       1.28339881      15.24984600       0.00000000       0.00000000       0.00000000       0.00000000       0.00048632      -0.00343857      -0.28218406      -0.03178621       0.00997968      -0.30911581
Cu       2.09578148       3.85019642      15.24984600       0.00000000       0.00000000       0.00000000       0.00000000      -0.00061921       0.00804541      -0.30329918       0.02636515       0.01562006      -0.27743988
Cu       2.09578148       6.41699404      15.24984600       0.00000000       0.00000000       0.00000000       0.00000000      -0.00074309      -0.00037610      -0.27205576       0.03484144       0.00066269      -0.29727821
Cu       2.09578148       8.98379165      15.24984600       0.00000000       0.00000000       0.00000000       0.00000000      -0.01600991       0.00012319      -0.30421989       0.01650919      -0.01397731      -0.25235744
Cu       0.00000000       0.00000000      14.49986800       0.00000000       0.00000000       0.00000000       0.00000000      -0.07594327       0.00144020      -0.19559528      -0.10717036       0.01653489      -0.22757815
Cu       0.00000000       2.56679762      14.49986800       0.00000000       0.00000000       0.00000000       0.00000000      -0.07373253      -0.00637915      -0.20418353      -0.12188958      -0.02523181      -0.22030948
Cu       0.00000000       5.13359523      14.49986800       0.00000000       0.00000000       0.00000000       0.00000000      -0.07379209       0.00687789      -0.21152136      -0.11836020       0.03169295      -0.24934660
Cu       0.00000000       7.70039285      14.49986800       0.00000000       0.00000000       0.00000000       0.00000000      -0.07529689      -0.00121401      -0.20111048      -0.12615023      -0.01665652      -0.22132380
Cu       4.19156295       1.28339881      13.74989000       0.00000000       0.00000000       0.00000000       0.00000000      -0.04484377      -0.00191267      -0.12686417      -0.08409754       0.00791019       0.00819137
Cu       4.19156295       3.85019642      13.74989000       0.00000000       0.00000000       0.00000000       0.00000000      -0.04401882       0.00090609      -0.12265299      -0.08099736      -0.02827182      -0.07440222
Cu       4.19156295       6.41699404      13.74989000       0.00000000       0.00000000       0.00000000       0.00000000      -0.04595061       0.00160258      -0.12485833      -0.07165885      -0.00762997       0.01681873
Cu       4.19156295       8.98379165      13.74989000       0.00000000       0.00000000       0.00000000       0.00000000      -0.04511383      -0.00058981      -0.11901290      -0.07544484       0.02249398      -0.04941412
Cu       2.09578148       0.00000000      12.99991200       0.00000000       0.00000000       0.00000000       0.00000000      -0.07891370       0.00131338       0.17298813      -0.07638450       0.01955118       0.25567345
Cu       2.09578148       2.56679762      12.99991200       0.00000000       0.00000000       0.00000000       0.00000000      -0.07904428      -0.00088023       0.17157620      -0.05755577      -0.01492999       0.21566787
Cu       2.09578148       5.13359523      12.99991200       0.00000000       0.00000000       0.00000000       0.00000000      -0.07936235       0.00117273       0.17317221      -0.09040969       0.01019570       0.25652495
Cu       2.09578148       7.70039285      12.99991200       0.00000000       0.00000000       0.00000000       0.00000000      -0.07882221      -0.00155063       0.17481711      -0.09176140      -0.01287340       0.28473101
Cu      -0.00000000       1.28339881      12.24993400       0.00000000       0.00000000       0.00000000       0.00000000       0.11685821       0.00032239       0.43772558       0.10127016       0.00660831       0.67247519
Cu      -0.00000000       3.85019642      12.24993400       0.00000000       0.00000000       0.00000000       0.00000000       0.11684657       0.00031594       0.43809396       0.11571836      -0.01599080       0.68989694
Cu      -0.00000000       6.41699404      12.24993400       0.00000000       0.00000000       0.00000000       0.00000000       0.11637070      -0.00031061       0.43861545       0.08603587      -0.00520640       0.71440191
Cu      -0.00000000       8.98379165      12.24993400       0.00000000       0.00000000       0.00000000       0.00000000       0.11673402      -0.00031254       0.43721357       0.10327672       0.01488298       0.71214032
O        4.53324748       6.42334033      20.82500558       0.00000000      -0.03418262      -0.00542669       0.00215138       0.02069763       0.00756210       0.01450907       0.06334550      -0.04436006       0.31140197
C        4.40742429       7.28801350      19.95491782       0.00000000      -0.03588811      -0.02357352      -0.05859682       0.01633350      -0.00604967       0.01891232       0.12277932      -0.32593695       0.76846777
H        4.59301211       4.75285352      20.44917323       0.00000000       0.09647013       0.01012145      -0.00170438       0.01719925      -0.00814079       0.02172860      -0.02872209      -0.02757271       0.21344595
O        4.43808468       8.55641147      19.96956841       0.00000000       0.00820629      -0.04274569       0.00468782       0.01531341      -0.00417773      -0.01208765      -0.18729463      -0.16511940      -0.73698570
O        4.76453296       3.85805665      20.03087079       0.50000000       0.00925891      -0.02305095       0.04241452       0.01649050      -0.00924390       0.04317735       0.09640150       0.20294991       0.04123034
H        4.32227743       3.17512807      20.56253090       0.50000000      -0.06288045       0.00534449       0.00768771       0.01745568      -0.00418209       0.01812716      -0.01621537       0.04814496       0.14981237
42
Lattice="6.2873444314750255 0.0 0.0 0.0 10.26719046282867 0.0 0.0 0.0 28.249757996450562" Properties=species:S:1:pos:R:3:initial_magmoms:R:1:MACE_forces:R:3:forces:R:3:DFT_forces:R:3 adsorbate_info="_JSON {\"top layer atom index\": 0, \"sites\": {}}" MACE_energy=-172.92439788814698 energy=-172.68390777786715 stress="0.007113738132670693 1.792224612788411e-05 -0.0002868335116124752 1.792224612788411e-05 0.008088443376786384 5.6695896194413424e-05 -0.0002868335116124752 5.6695896194413424e-05 0.0015478057087840054" free_energy=-172.68390777786715 DFT_energy=-174.41709489 pbc="T T T"
Cu       4.06345021       1.28213775      18.05425637       0.00000000      -0.00374886       0.07728018       0.14332694      -0.00824550       0.00143202       0.13805761       0.05518675       0.05099242      -0.12960881
Cu       4.12574766       3.85000841      18.14944955       0.00000000       0.03862809      -0.03925447       0.12752292      -0.00549469      -0.00866168       0.14278076       0.02199938       0.00351225      -0.40049026
Cu       4.10772530       6.47218380      18.12323966       0.00000000      -0.00268091      -0.03176734       0.11776463      -0.00648078       0.00262689       0.13715718       0.07568014       0.02452853       0.06258032
Cu       4.11554344       9.05641876      18.13113346       0.00000000       0.00731885      -0.09403540       0.18367854      -0.00028127       0.00555582       0.16027484       0.00541354       0.07255872      -0.41100835
Cu       2.03333942      10.25572714      17.39202000       0.00000000      -0.03659039       0.05043843       0.11861426       0.00638148       0.00375340       0.12663823      -0.05399166       0.11065507      -0.03990188
Cu       2.03829353       2.57774340      17.39349607       0.00000000       0.01906901       0.01862606       0.13331047       0.00626380      -0.00357783       0.12541429       0.02549782      -0.01989122      -0.00316953
Cu       2.06060502       5.14312307      17.39592515       0.00000000      -0.02454110      -0.04961074       0.11737564       0.00484510      -0.00102018       0.11980361      -0.01342846       0.01117353      -0.02241122
Cu       2.03363399       7.70763492      17.38968470       0.00000000      -0.01024465       0.00958733       0.11500684       0.00481382       0.00139180       0.11785705      -0.03345051      -0.06725377      -0.01933203
Cu       6.26297890       1.28603065      16.72774257       0.00000000      -0.00192530       0.00563500       0.10541251       0.00027657      -0.00082288       0.09896256       0.01701537      -0.01104516      -0.05070874
Cu       6.27019895       3.85390708      16.70480639       0.00000000      -0.00125261      -0.00268155       0.10590171       0.00230185      -0.00184984       0.09219005       0.03473646       0.00241091      -0.07542862
Cu       6.26213712       6.41205122      16.72134058       0.00000000       0.04501549       0.00057268       0.07639270       0.00301628      -0.00049501       0.08956144       0.04635869       0.00706365      -0.00521285
Cu       6.25416844       8.98407690      16.71973839       0.00000000       0.03363375       0.00066031       0.07271439       0.00209651       0.00335821       0.09219009       0.11527582       0.01332804      -0.12424522
Cu       4.19156295       0.00000000      15.99982400       0.00000000       0.00000000       0.00000000       0.00000000       0.06192391      -0.07112350      -0.44141036       0.08284500      -0.16099487      -0.36753652
Cu       4.19156295       2.56679762      15.99982400       0.00000000       0.00000000       0.00000000       0.00000000       0.05297905       0.11419804      -0.35384648       0.09287887       0.19945968      -0.30298341
Cu       4.19156295       5.13359523      15.99982400       0.00000000       0.00000000       0.00000000       0.00000000       0.05900986      -0.13311331      -0.33770242       0.06439626      -0.02803321      -0.15155277
Cu       4.19156295       7.70039285      15.99982400       0.00000000       0.00000000       0.00000000       0.00000000       0.05801479       0.10742465      -0.38893962       0.05609584       0.09345602      -0.37241702
Cu       2.09578148       1.28339881      15.24984600       0.00000000       0.00000000       0.00000000       0.00000000       0.00048632      -0.00343857      -0.28218406      -0.03201955       0.00769117      -0.30907597
Cu       2.09578148       3.85019642      15.24984600       0.00000000       0.00000000       0.00000000       0.00000000      -0.00061921       0.00804541      -0.30329918       0.02632879       0.01756745      -0.27470875
Cu       2.09578148       6.41699404      15.24984600       0.00000000       0.00000000       0.00000000       0.00000000      -0.00074309      -0.00037610      -0.27205576       0.03154028       0.00320023      -0.29906233
Cu       2.09578148       8.98379165      15.24984600       0.00000000       0.00000000       0.00000000       0.00000000      -0.01600991       0.00012319      -0.30421989       0.01402090      -0.01459140      -0.25369103
Cu       0.00000000       0.00000000      14.49986800       0.00000000       0.00000000       0.00000000       0.00000000      -0.07594327       0.00144020      -0.19559528      -0.10742705       0.01532308      -0.22676374
Cu       0.00000000       2.56679762      14.49986800       0.00000000       0.00000000       0.00000000       0.00000000      -0.07373253      -0.00637915      -0.20418353      -0.12220744      -0.02602370      -0.22046974
Cu       0.00000000       5.13359523      14.49986800       0.00000000       0.00000000       0.00000000       0.00000000      -0.07379209       0.00687789      -0.21152136      -0.11909664       0.03251981      -0.24767115
Cu       0.00000000       7.70039285      14.49986800       0.00000000       0.00000000       0.00000000       0.00000000      -0.07529689      -0.00121401      -0.20111048      -0.12615407      -0.01582886      -0.21969356
Cu       4.19156295       1.28339881      13.74989000       0.00000000       0.00000000       0.00000000       0.00000000      -0.04484377      -0.00191267      -0.12686417      -0.08410772       0.00814379       0.00875826
Cu       4.19156295       3.85019642      13.74989000       0.00000000       0.00000000       0.00000000       0.00000000      -0.04401882       0.00090609      -0.12265299      -0.08145909      -0.02816145      -0.07438671
Cu       4.19156295       6.41699404      13.74989000       0.00000000       0.00000000       0.00000000       0.00000000      -0.04595061       0.00160258      -0.12485833      -0.07241043      -0.00718254       0.01648672
Cu       4.19156295       8.98379165      13.74989000       0.00000000       0.00000000       0.00000000       0.00000000      -0.04511383      -0.00058981      -0.11901290      -0.07559381       0.02157085      -0.04859347
Cu       2.09578148       0.00000000      12.99991200       0.00000000       0.00000000       0.00000000       0.00000000      -0.07891370       0.00131338       0.17298813      -0.07636083       0.01953097       0.25655000
Cu       2.09578148       2.56679762      12.99991200       0.00000000       0.00000000       0.00000000       0.00000000      -0.07904428      -0.00088023       0.17157620      -0.05764884      -0.01478464       0.21551813
Cu       2.09578148       5.13359523      12.99991200       0.00000000       0.00000000       0.00000000       0.00000000      -0.07936235       0.00117273       0.17317221      -0.09001230       0.01076814       0.25597857
Cu       2.09578148       7.70039285      12.99991200       0.00000000       0.00000000       0.00000000       0.00000000      -0.07882221      -0.00155063       0.17481711      -0.09145544      -0.01359113       0.28451258
Cu      -0.00000000       1.28339881      12.24993400       0.00000000       0.00000000       0.00000000       0.00000000       0.11685821       0.00032239       0.43772558       0.10133058       0.00720977       0.67303061
Cu      -0.00000000       3.85019642      12.24993400       0.00000000       0.00000000       0.00000000       0.00000000       0.11684657       0.00031594       0.43809396       0.11610980      -0.01585037       0.68958917
Cu      -0.00000000       6.41699404      12.24993400       0.00000000       0.00000000       0.00000000       0.00000000       0.11637070      -0.00031061       0.43861545       0.08631908      -0.00549194       0.71399750
Cu      -0.00000000       8.98379165      12.24993400       0.00000000       0.00000000       0.00000000       0.00000000       0.11673402      -0.00031254       0.43721357       0.10318234       0.01407637       0.71240840
O        4.55865359       6.43686089      20.83040247       0.00000000      -0.04375186      -0.00096273       0.00139790       0.02069763       0.00756210       0.01450907       0.04736187      -0.03663483       0.32530147
C        4.42178267       7.30258843      19.96376379       0.00000000      -0.04048373      -0.04145721      -0.06336212       0.01633350      -0.00604967       0.01891232       0.13519920      -0.32988553       0.80200903
H        4.59122886       4.75505441      20.46039077       0.00000000       0.10185427       0.01417501      -0.00720072       0.01719925      -0.00814079       0.02172860       0.00118634      -0.04411912       0.21395522
O        4.44551825       8.57088483      19.97556953       0.00000000       0.01316590      -0.04756192       0.01767192       0.01531341      -0.00417773      -0.01208765      -0.20166295      -0.16676021      -0.76460495
O        4.77526699       3.87368504      20.02276568       0.50000000       0.03612796      -0.02701362       0.04714527       0.01649050      -0.00924390       0.04317735       0.11368409       0.20265185       0.03618460
H        4.40419575       3.15983878      20.56735424       0.50000000      -0.08166371       0.00957756       0.00327827       0.01745568      -0.00418209       0.01812716      -0.03115643       0.05673167       0.14786807
42
Lattice="6.2873444314750255 0.0 0.0 0.0 10.26719046282867 0.0 0.0 0.0 28.249757996450562" Properties=species:S:1:pos:R:3:initial_magmoms:R:1:MACE_forces:R:3:forces:R:3:DFT_forces:R:3 adsorbate_info="_JSON {\"top layer atom index\": 0, \"sites\": {}}" MACE_energy=-172.9117251047358 energy=-172.68390777786715 stress="0.007113738132670693 1.792224612788411e-05 -0.0002868335116124752 1.792224612788411e-05 0.008088443376786384 5.6695896194413424e-05 -0.0002868335116124752 5.6695896194413424e-05 0.0015478057087840054" free_energy=-172.68390777786715 DFT_energy=-174.40315506 pbc="T T T"
Cu       4.06256565       1.28236330      18.05366011       0.00000000      -0.00443560       0.07413350       0.14388910      -0.00824550       0.00143202       0.13805761       0.05338258       0.04721558      -0.13078552
Cu       4.12003171       3.85071938      18.14824997       0.00000000       0.03837078      -0.03514176       0.13772928      -0.00549469      -0.00866168       0.14278076       0.01356525       0.00530042      -0.39670940
Cu       4.10969338       6.48124476      18.13300470       0.00000000      -0.00988865      -0.05388749       0.07143892      -0.00648078       0.00262689       0.13715718       0.07113843      -0.00452178       0.02673224
Cu       4.11617760       9.05577016      18.13790551       0.00000000       0.00128702      -0.06831969       0.13923467      -0.00028127       0.00555582       0.16027484      -0.00585211       0.09731270      -0.46783626
Cu       2.03300170      10.25506543      17.39213970       0.00000000      -0.03117720       0.05033746       0.11900812       0.00638148       0.00375340       0.12663823      -0.04939081       0.11033213      -0.03912834
Cu       2.03664041       2.57744389      17.39263794       0.00000000       0.01928658       0.02014097       0.13410618       0.00626380      -0.00357783       0.12541429       0.02592364      -0.01793489      -0.00396607
Cu       2.05996565       5.14562038      17.39552352       0.00000000      -0.01762540      -0.04867702       0.11917253       0.00484510      -0.00102018       0.11980361      -0.00585723       0.01211244      -0.02320758
Cu       2.03375375       7.70835230      17.38997962       0.00000000      -0.00742537       0.00876174       0.11525725       0.00481382       0.00139180       0.11785705      -0.03112755      -0.06822920      -0.01961256
Cu       6.26257101       1.28536322      16.72761346       0.00000000      -0.00164630       0.00707169       0.10482838       0.00027657      -0.00082288       0.09896256       0.01704057      -0.00868734      -0.04861940
Cu       6.26945678       3.85419048      16.70513607       0.00000000      -0.00117620      -0.00269144       0.10541701       0.00230185      -0.00184984       0.09219005       0.03262344       0.00197310      -0.07526284
Cu       6.26110803       6.41260875      16.72171904       0.00000000       0.04444911      -0.00025547       0.07673448       0.00301628      -0.00049501       0.08956144       0.04798620       0.00771646      -0.00487464
Cu       6.25352818       8.98384925      16.72025661       0.00000000       0.03195087       0.00076150       0.07244694       0.00209651       0.00335821       0.09219009       0.11460124       0.01252737      -0.12343312
Cu       4.19156295       0.00000000      15.99982400       0.00000000       0.00000000       0.00000000       0.00000000       0.06192391      -0.07112350      -0.44141036       0.08009698      -0.17134919      -0.35525871
Cu       4.19156295       2.56679762      15.99982400       0.00000000       0.00000000       0.00000000       0.00000000       0.05297905       0.11419804      -0.35384648       0.09183945       0.19966846      -0.30423900
Cu       4.19156295       5.13359523      15.99982400       0.00000000       0.00000000       0.00000000       0.00000000       0.05900986      -0.13311331      -0.33770242       0.06098198      -0.01061746      -0.12974095
Cu       4.19156295       7.70039285      15.99982400       0.00000000       0.00000000       0.00000000       0.00000000       0.05801479       0.10742465      -0.38893962       0.05139963       0.09278960      -0.35093099
Cu       2.09578148       1.28339881      15.24984600       0.00000000       0.00000000       0.00000000       0.00000000       0.00048632      -0.00343857      -0.28218406      -0.03199928       0.00537913      -0.30947195
Cu       2.09578148       3.85019642      15.24984600       0.00000000       0.00000000       0.00000000       0.00000000      -0.00061921       0.00804541      -0.30329918       0.02534857       0.01883046      -0.27322614
Cu       2.09578148       6.41699404      15.24984600       0.00000000       0.00000000       0.00000000       0.00000000      -0.00074309      -0.00037610      -0.27205576       0.03013210       0.00514671      -0.30007628
Cu       2.09578148       8.98379165      15.24984600       0.00000000       0.00000000       0.00000000       0.00000000      -0.01600991       0.00012319      -0.30421989       0.01305654      -0.01495544      -0.25439731
Cu       0.00000000       0.00000000      14.49986800       0.00000000       0.00000000       0.00000000       0.00000000      -0.07594327       0.00144020      -0.19559528      -0.10772849       0.01450144      -0.22586539
Cu       0.00000000       2.56679762      14.49986800       0.00000000       0.00000000       0.00000000       0.00000000      -0.07373253      -0.00637915      -0.20418353      -0.12239611      -0.02643421      -0.21985095
Cu       0.00000000       5.13359523      14.49986800       0.00000000       0.00000000       0.00000000       0.00000000      -0.07379209       0.00687789      -0.21152136      -0.11973890       0.03199624      -0.24551148
Cu       0.00000000       7.70039285      14.49986800       0.00000000       0.00000000       0.00000000       0.00000000      -0.07529689      -0.00121401      -0.20111048      -0.12619159      -0.01549789      -0.21911306
Cu       4.19156295       1.28339881      13.74989000       0.00000000       0.00000000       0.00000000       0.00000000      -0.04484377      -0.00191267      -0.12686417      -0.08398971       0.00828283       0.00879371
Cu       4.19156295       3.85019642      13.74989000       0.00000000       0.00000000       0.00000000       0.00000000      -0.04401882       0.00090609      -0.12265299      -0.08186297      -0.02841084      -0.07438574
Cu       4.19156295       6.41699404      13.74989000       0.00000000       0.00000000       0.00000000       0.00000000      -0.04595061       0.00160258      -0.12485833      -0.07302315      -0.00705621       0.01650942
Cu       4.19156295       8.98379165      13.74989000       0.00000000       0.00000000       0.00000000       0.00000000      -0.04511383      -0.00058981      -0.11901290      -0.07585979       0.02030008      -0.04822544
Cu       2.09578148       0.00000000      12.99991200       0.00000000       0.00000000       0.00000000       0.00000000      -0.07891370       0.00131338       0.17298813      -0.07599382       0.01898333       0.25750430
Cu       2.09578148       2.56679762      12.99991200       0.00000000       0.00000000       0.00000000       0.00000000      -0.07904428      -0.00088023       0.17157620      -0.05756987      -0.01465978       0.21566889
Cu       2.09578148       5.13359523      12.99991200       0.00000000       0.00000000       0.00000000       0.00000000      -0.07936235       0.00117273       0.17317221      -0.08943984       0.01068999       0.25568071
Cu       2.09578148       7.70039285      12.99991200       0.00000000       0.00000000       0.00000000       0.00000000      -0.07882221      -0.00155063       0.17481711      -0.09108654      -0.01414735       0.28466796
Cu      -0.00000000       1.28339881      12.24993400       0.00000000       0.00000000       0.00000000       0.00000000       0.11685821       0.00032239       0.43772558       0.10107823       0.00732520       0.67374079
Cu      -0.00000000       3.85019642      12.24993400       0.00000000       0.00000000       0.00000000       0.00000000       0.11684657       0.00031594       0.43809396       0.11632582      -0.01583336       0.68970976
Cu      -0.00000000       6.41699404      12.24993400       0.00000000       0.00000000       0.00000000       0.00000000       0.11637070      -0.00031061       0.43861545       0.08660324      -0.00587958       0.71402004
Cu      -0.00000000       8.98379165      12.24993400       0.00000000       0.00000000       0.00000000       0.00000000       0.11673402      -0.00031254       0.43721357       0.10308023       0.01289213       0.71320083
O        4.58459497       6.45118186      20.83494739       0.00000000      -0.05036193      -0.01765017       0.00166374       0.02069763       0.00756210       0.01450907       0.03998352      -0.04687197       0.33698909
C        4.43559619       7.31592016      19.96981974       0.00000000      -0.03631628      -0.04575332      -0.03821152       0.01633350      -0.00604967       0.01891232       0.14833723      -0.33064800       0.82335511
H        4.59071264       4.75713653      20.47625487       0.00000000       0.08841925       0.01267336      -0.01339717       0.01719925      -0.00814079       0.02172860       0.05784879      -0.05189778       0.21343118
O        4.45268700       8.58466127      19.98170573       0.00000000       0.01428561      -0.05124996       0.01736504       0.01531341      -0.00417773      -0.01208765      -0.21121745      -0.15834235      -0.77116010
O        4.77025978       3.88913704      20.01442101       0.50000000       0.09151289      -0.02225831       0.04883944       0.01649050      -0.00924390       0.04317735       0.11095993       0.19868859       0.03370247
H        4.49700255       3.14498841      20.57487557       0.50000000      -0.10764722       0.01758996       0.00471342       0.01745568      -0.00418209       0.01812716      -0.05300838       0.07201022       0.15118271
42
Lattice="6.2873444314750255 0.0 0.0 0.0 10.26719046282867 0.0 0.0 0.0 28.249757996450562" Properties=species:S:1:pos:R:3:initial_magmoms:R:1:MACE_forces:R:3:forces:R:3:DFT_forces:R:3 adsorbate_info="_JSON {\"top layer atom index\": 0, \"sites\": {}}" MACE_energy=-172.89175873945837 energy=-172.68390777786715 stress="0.007113738132670693 1.792224612788411e-05 -0.0002868335116124752 1.792224612788411e-05 0.008088443376786384 5.6695896194413424e-05 -0.0002868335116124752 5.6695896194413424e-05 0.0015478057087840054" free_energy=-172.68390777786715 DFT_energy=-174.39352664 pbc="T T T"
Cu       4.06245260       1.28567591      18.05262877       0.00000000      -0.00682536       0.03664968       0.14391667      -0.00824550       0.00143202       0.13805761       0.04989941       0.01271750      -0.13125155
Cu       4.11661633       3.84873178      18.14357083       0.00000000       0.02705118      -0.02505939       0.15628682      -0.00549469      -0.00866168       0.14278076      -0.00144548       0.01500256      -0.37908079
Cu       4.11191203       6.48491180      18.13424649       0.00000000      -0.01312436      -0.05507798       0.07226629      -0.00648078       0.00262689       0.13715718       0.06875704      -0.01155595       0.03868706
Cu       4.11663938       9.05250014      18.14066711       0.00000000      -0.00496118      -0.03215619       0.12088586      -0.00028127       0.00555582       0.16027484      -0.01472733       0.12969957      -0.48799533
Cu       2.03076730      10.25679277      17.39186644       0.00000000      -0.00959140       0.04174703       0.12426739       0.00638148       0.00375340       0.12663823      -0.02722384       0.10074913      -0.03365579
Cu       2.03561942       2.57801688      17.39172391       0.00000000       0.01109577       0.01498296       0.13274877       0.00626380      -0.00357783       0.12541429       0.01670021      -0.02272028      -0.00826328
Cu       2.05828382       5.14555199      17.39474706       0.00000000      -0.00981232      -0.03915691       0.12012290       0.00484510      -0.00102018       0.11980361       0.00272704       0.02261456      -0.02393824
Cu       2.03347717       7.70912980      17.39012584       0.00000000      -0.00010702       0.00697188       0.11717994       0.00481382       0.00139180       0.11785705      -0.02434726      -0.06898723      -0.01852375
Cu       6.26220304       1.28509701      16.72768282       0.00000000      -0.00393425       0.00978831       0.10284650       0.00027657      -0.00082288       0.09896256       0.01441118      -0.00482740      -0.04765658
Cu       6.26840817       3.85448163      16.70705766       0.00000000      -0.00049624      -0.00369671       0.09997871       0.00230185      -0.00184984       0.09219005       0.03260602       0.00030562      -0.07976119
Cu       6.26258132       6.41322083      16.72128215       0.00000000       0.03439263      -0.00189883       0.07639185       0.00301628      -0.00049501       0.08956144       0.03732932       0.00684004      -0.00590782
Cu       6.25462346       8.98342783      16.71959542       0.00000000       0.02056348       0.00276978       0.07471695       0.00209651       0.00335821       0.09219009       0.10318694       0.01446571      -0.12168845
Cu       4.19156295       0.00000000      15.99982400       0.00000000       0.00000000       0.00000000       0.00000000       0.06192391      -0.07112350      -0.44141036       0.07771432      -0.17696488      -0.34246218
Cu       4.19156295       2.56679762      15.99982400       0.00000000       0.00000000       0.00000000       0.00000000       0.05297905       0.11419804      -0.35384648       0.09238583       0.19901225      -0.32007173
Cu       4.19156295       5.13359523      15.99982400       0.00000000       0.00000000       0.00000000       0.00000000       0.05900986      -0.13311331      -0.33770242       0.06077106      -0.00124181      -0.12765171
Cu       4.19156295       7.70039285      15.99982400       0.00000000       0.00000000       0.00000000       0.00000000       0.05801479       0.10742465      -0.38893962       0.05182944       0.09602347      -0.34827176
Cu       2.09578148       1.28339881      15.24984600       0.00000000       0.00000000       0.00000000       0.00000000       0.00048632      -0.00343857      -0.28218406      -0.03166362       0.00554695      -0.31117898
Cu       2.09578148       3.85019642      15.24984600       0.00000000       0.00000000       0.00000000       0.00000000      -0.00061921       0.00804541      -0.30329918       0.02259164       0.01977227      -0.27475807
Cu       2.09578148       6.41699404      15.24984600       0.00000000       0.00000000       0.00000000       0.00000000      -0.00074309      -0.00037610      -0.27205576       0.03233091       0.00639243      -0.30052289
Cu       2.09578148       8.98379165      15.24984600       0.00000000       0.00000000       0.00000000       0.00000000      -0.01600991       0.00012319      -0.30421989       0.01538202      -0.01373146      -0.25437257
Cu       0.00000000       0.00000000      14.49986800       0.00000000       0.00000000       0.00000000       0.00000000      -0.07594327       0.00144020      -0.19559528      -0.10808182       0.01571249      -0.22572844
Cu       0.00000000       2.56679762      14.49986800       0.00000000       0.00000000       0.00000000       0.00000000      -0.07373253      -0.00637915      -0.20418353      -0.12227475      -0.02488256      -0.21825126
Cu       0.00000000       5.13359523      14.49986800       0.00000000       0.00000000       0.00000000       0.00000000      -0.07379209       0.00687789      -0.21152136      -0.11992998       0.03005867      -0.24326977
Cu       0.00000000       7.70039285      14.49986800       0.00000000       0.00000000       0.00000000       0.00000000      -0.07529689      -0.00121401      -0.20111048      -0.12613723      -0.01547661      -0.22134379
Cu       4.19156295       1.28339881      13.74989000       0.00000000       0.00000000       0.00000000       0.00000000      -0.04484377      -0.00191267      -0.12686417      -0.08366060       0.00939948       0.00927484
Cu       4.19156295       3.85019642      13.74989000       0.00000000       0.00000000       0.00000000       0.00000000      -0.04401882       0.00090609      -0.12265299      -0.08187849      -0.02845388      -0.07438470
Cu       4.19156295       6.41699404      13.74989000       0.00000000       0.00000000       0.00000000       0.00000000      -0.04595061       0.00160258      -0.12485833      -0.07337776      -0.00669820       0.01698613
Cu       4.19156295       8.98379165      13.74989000       0.00000000       0.00000000       0.00000000       0.00000000      -0.04511383      -0.00058981      -0.11901290      -0.07632989       0.01968516      -0.04768087
Cu       2.09578148       0.00000000      12.99991200       0.00000000       0.00000000       0.00000000       0.00000000      -0.07891370       0.00131338       0.17298813      -0.07550760       0.01893079       0.25829143
Cu       2.09578148       2.56679762      12.99991200       0.00000000       0.00000000       0.00000000       0.00000000      -0.07904428      -0.00088023       0.17157620      -0.05729820      -0.01413717       0.21615877
Cu       2.09578148       5.13359523      12.99991200       0.00000000       0.00000000       0.00000000       0.00000000      -0.07936235       0.00117273       0.17317221      -0.08888385       0.01074268       0.25610370
Cu       2.09578148       7.70039285      12.99991200       0.00000000       0.00000000       0.00000000       0.00000000      -0.07882221      -0.00155063       0.17481711      -0.09117358      -0.01372173       0.28505165
Cu      -0.00000000       1.28339881      12.24993400       0.00000000       0.00000000       0.00000000       0.00000000       0.11685821       0.00032239       0.43772558       0.10082170       0.00760646       0.67462695
Cu      -0.00000000       3.85019642      12.24993400       0.00000000       0.00000000       0.00000000       0.00000000       0.11684657       0.00031594       0.43809396       0.11646818      -0.01541768       0.69062394
Cu      -0.00000000       6.41699404      12.24993400       0.00000000       0.00000000       0.00000000       0.00000000       0.11637070      -0.00031061       0.43861545       0.08686914      -0.00535175       0.71420284
Cu      -0.00000000       8.98379165      12.24993400       0.00000000       0.00000000       0.00000000       0.00000000       0.11673402      -0.00031254       0.43721357       0.10333987       0.01234059       0.71411466
O        4.60872785       6.46259758      20.83695731       0.00000000      -0.05002704      -0.05001044      -0.00443070       0.02069763       0.00756210       0.01450907       0.03573311      -0.08220999       0.32809093
C        4.44727112       7.32380019      19.97050423       0.00000000      -0.02286647      -0.03618139       0.00347432       0.01633350      -0.00604967       0.01891232       0.14634936      -0.33715285       0.78821016
H        4.59612944       4.76120382      20.49576997       0.00000000       0.05206974       0.00818024      -0.01369953       0.01719925      -0.00814079       0.02172860       0.12786403      -0.05797367       0.19137657
O        4.45859387       8.59332847      19.98614394       0.00000000       0.00477438      -0.05280939      -0.02236410       0.01531341      -0.00417773      -0.01208765      -0.20594613      -0.14181365      -0.74194382
O        4.73459048       3.90114836      20.00930785       0.50000000       0.15871867      -0.00739916       0.03782847       0.01649050      -0.00924390       0.04317735       0.08183584       0.20037650       0.04148201
H        4.59682131       3.13380665      20.58600074       0.50000000      -0.12562845       0.02219926       0.02189806       0.01745568      -0.00418209       0.01812716      -0.06801624       0.08932386       0.16633365
42
Lattice="6.2873444314750255 0.0 0.0 0.0 10.26719046282867 0.0 0.0 0.0 28.249757996450562" Properties=species:S:1:pos:R:3:initial_magmoms:R:1:MACE_forces:R:3:forces:R:3:DFT_forces:R:3 adsorbate_info="_JSON {\"top layer atom index\": 0, \"sites\": {}}" MACE_energy=-172.8680882306522 energy=-172.68390777786715 stress="0.007113738132670693 1.792224612788411e-05 -0.0002868335116124752 1.792224612788411e-05 0.008088443376786384 5.6695896194413424e-05 -0.0002868335116124752 5.6695896194413424e-05 0.0015478057087840054" free_energy=-172.68390777786715 DFT_energy=-174.38253484 pbc="T T T"
Cu       4.06318333       1.28537025      18.05141213       0.00000000      -0.00705301       0.02925538       0.14333224      -0.00824550       0.00143202       0.13805761       0.04789876       0.00785140      -0.12923171
Cu       4.11579963       3.84737861      18.13761286       0.00000000       0.01737476      -0.02607129       0.15511001      -0.00549469      -0.00866168       0.14278076      -0.00990599       0.01523658      -0.37200566
Cu       4.11425935       6.48718141      18.13396005       0.00000000      -0.01083457      -0.04959258       0.08316093      -0.00648078       0.00262689       0.13715718       0.06839060      -0.01154839       0.05718395
Cu       4.11651979       9.05262669      18.14088722       0.00000000      -0.00449298      -0.03298258       0.12936319      -0.00028127       0.00555582       0.16027484      -0.01498600       0.12670850      -0.47789164
Cu       2.03038177      10.25683502      17.39187537       0.00000000      -0.00726641       0.04101150       0.12515532       0.00638148       0.00375340       0.12663823      -0.02487683       0.10010024      -0.03382949
Cu       2.03482452       2.57747939      17.39042612       0.00000000       0.00720489       0.01273750       0.13172497       0.00626380      -0.00357783       0.12541429       0.01253991      -0.02481388      -0.01115120
Cu       2.05791133       5.14652179      17.39364147       0.00000000      -0.01109083      -0.03705420       0.11919411       0.00484510      -0.00102018       0.11980361       0.00254247       0.02528267      -0.02505831
Cu       2.03387735       7.70924837      17.39028447       0.00000000       0.00008526       0.00711632       0.11718004       0.00481382       0.00139180       0.11785705      -0.02416547      -0.06809932      -0.01887401
Cu       6.26222813       1.28479351      16.72755727       0.00000000      -0.00485404       0.01019131       0.10235199       0.00027657      -0.00082288       0.09896256       0.01306648      -0.00339427      -0.04575436
Cu       6.26793311       3.85465286      16.70885672       0.00000000      -0.00056048      -0.00361556       0.10007014       0.00230185      -0.00184984       0.09219005       0.03289576      -0.00129283      -0.08201225
Cu       6.26292781       6.41354185      16.72108924       0.00000000       0.03401836      -0.00219239       0.07560360       0.00301628      -0.00049501       0.08956144       0.03695762       0.00721423      -0.00689594
Cu       6.25474312       8.98327180      16.71966490       0.00000000       0.01930698       0.00281611       0.07480264       0.00209651       0.00335821       0.09219009       0.10242189       0.01400336      -0.12210674
Cu       4.19156295       0.00000000      15.99982400       0.00000000       0.00000000       0.00000000       0.00000000       0.06192391      -0.07112350      -0.44141036       0.07716137      -0.17943066      -0.34618002
Cu       4.19156295       2.56679762      15.99982400       0.00000000       0.00000000       0.00000000       0.00000000       0.05297905       0.11419804      -0.35384648       0.09370733       0.19568579      -0.33345039
Cu       4.19156295       5.13359523      15.99982400       0.00000000       0.00000000       0.00000000       0.00000000       0.05900986      -0.13311331      -0.33770242       0.06209391       0.00395322      -0.13309641
Cu       4.19156295       7.70039285      15.99982400       0.00000000       0.00000000       0.00000000       0.00000000       0.05801479       0.10742465      -0.38893962       0.05181648       0.09858452      -0.35086837
Cu       2.09578148       1.28339881      15.24984600       0.00000000       0.00000000       0.00000000       0.00000000       0.00048632      -0.00343857      -0.28218406      -0.03134499       0.00391843      -0.31334882
Cu       2.09578148       3.85019642      15.24984600       0.00000000       0.00000000       0.00000000       0.00000000      -0.00061921       0.00804541      -0.30329918       0.02055702       0.02063422      -0.27501348
Cu       2.09578148       6.41699404      15.24984600       0.00000000       0.00000000       0.00000000       0.00000000      -0.00074309      -0.00037610      -0.27205576       0.03288067       0.00834640      -0.30332076
Cu       2.09578148       8.98379165      15.24984600       0.00000000       0.00000000       0.00000000       0.00000000      -0.01600991       0.00012319      -0.30421989       0.01532326      -0.01388755      -0.25515807
Cu       0.00000000       0.00000000      14.49986800       0.00000000       0.00000000       0.00000000       0.00000000      -0.07594327       0.00144020      -0.19559528      -0.10826052       0.01624456      -0.22573508
Cu       0.00000000       2.56679762      14.49986800       0.00000000       0.00000000       0.00000000       0.00000000      -0.07373253      -0.00637915      -0.20418353      -0.12173479      -0.02352261      -0.21814221
Cu       0.00000000       5.13359523      14.49986800       0.00000000       0.00000000       0.00000000       0.00000000      -0.07379209       0.00687789      -0.21152136      -0.11998470       0.02873981      -0.24222561
Cu       0.00000000       7.70039285      14.49986800       0.00000000       0.00000000       0.00000000       0.00000000      -0.07529689      -0.00121401      -0.20111048      -0.12591517      -0.01565245      -0.22175066
Cu       4.19156295       1.28339881      13.74989000       0.00000000       0.00000000       0.00000000       0.00000000      -0.04484377      -0.00191267      -0.12686417      -0.08354770       0.00968819       0.00895782
Cu       4.19156295       3.85019642      13.74989000       0.00000000       0.00000000       0.00000000       0.00000000      -0.04401882       0.00090609      -0.12265299      -0.08150846      -0.02829040      -0.07501072
Cu       4.19156295       6.41699404      13.74989000       0.00000000       0.00000000       0.00000000       0.00000000      -0.04595061       0.00160258      -0.12485833      -0.07333226      -0.00664794       0.01748101
Cu       4.19156295       8.98379165      13.74989000       0.00000000       0.00000000       0.00000000       0.00000000      -0.04511383      -0.00058981      -0.11901290      -0.07722915       0.01966028      -0.04753566
Cu       2.09578148       0.00000000      12.99991200       0.00000000       0.00000000       0.00000000       0.00000000      -0.07891370       0.00131338       0.17298813      -0.07535103       0.01886148       0.25882299
Cu       2.09578148       2.56679762      12.99991200       0.00000000       0.00000000       0.00000000       0.00000000      -0.07904428      -0.00088023       0.17157620      -0.05741264      -0.01392770       0.21633718
Cu       2.09578148       5.13359523      12.99991200       0.00000000       0.00000000       0.00000000       0.00000000      -0.07936235       0.00117273       0.17317221      -0.08895806       0.01051998       0.25625849
Cu       2.09578148       7.70039285      12.99991200       0.00000000       0.00000000       0.00000000       0.00000000      -0.07882221      -0.00155063       0.17481711      -0.09144352      -0.01333866       0.28518228
Cu      -0.00000000       1.28339881      12.24993400       0.00000000       0.00000000       0.00000000       0.00000000       0.11685821       0.00032239       0.43772558       0.10045593       0.00779214       0.67468176
Cu      -0.00000000       3.85019642      12.24993400       0.00000000       0.00000000       0.00000000       0.00000000       0.11684657       0.00031594       0.43809396       0.11665824      -0.01538732       0.69154247
Cu      -0.00000000       6.41699404      12.24993400       0.00000000       0.00000000       0.00000000       0.00000000       0.11637070      -0.00031061       0.43861545       0.08673334      -0.00504200       0.71407171
Cu      -0.00000000       8.98379165      12.24993400       0.00000000       0.00000000       0.00000000       0.00000000       0.11673402      -0.00031254       0.43721357       0.10328220       0.01217353       0.71441855
O        4.62741515       6.46822369      20.83801775       0.00000000      -0.03626602      -0.04953407      -0.00376653       0.02069763       0.00756210       0.01450907       0.04555103      -0.08476016       0.32826428
C        4.45559929       7.32826598      19.97233700       0.00000000      -0.01644452      -0.04110790       0.00167731       0.01633350      -0.00604967       0.01891232       0.14582710      -0.34141889       0.77170622
H        4.60307691       4.76547233      20.51107727       0.00000000       0.02641984       0.01417068       0.00135395       0.01719925      -0.00814079       0.02172860       0.12694400      -0.06401868       0.17337813
O        4.45998377       8.59789322      19.98874365       0.00000000      -0.00018359      -0.05660418      -0.03777564       0.01531341      -0.00417773      -0.01208765      -0.20127456      -0.14511949      -0.74817616
O        4.66404997       3.90469113      20.01377247       0.50000000       0.14635668       0.00582237       0.02648037       0.01649050      -0.00924390       0.04317735       0.05707894       0.21382596       0.06246095
H        4.67906206       3.12934908      20.59400069       0.50000000      -0.09293805       0.01383785       0.04703571       0.01745568      -0.00418209       0.01812716      -0.04155249       0.09456770       0.18307593
42
Lattice="6.2873444314750255 0.0 0.0 0.0 10.26719046282867 0.0 0.0 0.0 28.249757996450562" Properties=species:S:1:pos:R:3:initial_magmoms:R:1:MACE_forces:R:3:forces:R:3:DFT_forces:R:3 adsorbate_info="_JSON {\"top layer atom index\": 0, \"sites\": {}}" MACE_energy=-172.85575757533368 energy=-172.68390777786715 stress="0.007113738132670693 1.792224612788411e-05 -0.0002868335116124752 1.792224612788411e-05 0.008088443376786384 5.6695896194413424e-05 -0.0002868335116124752 5.6695896194413424e-05 0.0015478057087840054" free_energy=-172.68390777786715 DFT_energy=-174.37923361 pbc="T T T"
Cu       4.06443472       1.28421031      18.05052610       0.00000000      -0.00477667       0.03340899       0.14251056      -0.00824550       0.00143202       0.13805761       0.04692961       0.01297797      -0.12595679
Cu       4.11931671       3.84717621      18.13383507       0.00000000       0.02123846      -0.02812886       0.14899902      -0.00549469      -0.00866168       0.14278076      -0.00236232       0.01492278      -0.36635799
Cu       4.11661429       6.48846718      18.13436468       0.00000000      -0.00713669      -0.04760355       0.08567378      -0.00648078       0.00262689       0.13715718       0.06624751      -0.01192119       0.06327632
Cu       4.11630205       9.05346646      18.14094485       0.00000000      -0.00342309      -0.04056968       0.13619926      -0.00028127       0.00555582       0.16027484      -0.01413700       0.11702720      -0.46958705
Cu       2.03078061      10.25634464      17.39200304       0.00000000      -0.01040284       0.04315402       0.12459564       0.00638148       0.00375340       0.12663823      -0.02832112       0.10181436      -0.03590395
Cu       2.03469056       2.57682607      17.38923584       0.00000000       0.00678808       0.01235472       0.13043251       0.00626380      -0.00357783       0.12541429       0.01269713      -0.02444704      -0.01261619
Cu       2.05827869       5.14751993      17.39261074       0.00000000      -0.01305186      -0.03755345       0.11752813       0.00484510      -0.00102018       0.11980361       0.00121362       0.02366850      -0.02433147
Cu       2.03448643       7.70906261      17.39043568       0.00000000      -0.00110776       0.00741227       0.11683538       0.00481382       0.00139180       0.11785705      -0.02492220      -0.06716272      -0.01937639
Cu       6.26244777       1.28457973      16.72743667       0.00000000      -0.00465816       0.01015555       0.10250171       0.00027657      -0.00082288       0.09896256       0.01342308      -0.00229981      -0.04342245
Cu       6.26779039       3.85472939      16.71047423       0.00000000      -0.00049393      -0.00327396       0.10331355       0.00230185      -0.00184984       0.09219005       0.03453473      -0.00188198      -0.08105100
Cu       6.26281488       6.41366972      16.72105277       0.00000000       0.03693538      -0.00215078       0.07520367       0.00301628      -0.00049501       0.08956144       0.04044958       0.00762919      -0.00655874
Cu       6.25453883       8.98325763      16.71997962       0.00000000       0.02133284       0.00214112       0.07435674       0.00209651       0.00335821       0.09219009       0.10468604       0.01288819      -0.12237312
Cu       4.19156295       0.00000000      15.99982400       0.00000000       0.00000000       0.00000000       0.00000000       0.06192391      -0.07112350      -0.44141036       0.07734538      -0.18109063      -0.35150848
Cu       4.19156295       2.56679762      15.99982400       0.00000000       0.00000000       0.00000000       0.00000000       0.05297905       0.11419804      -0.35384648       0.09530417       0.19376258      -0.33979622
Cu       4.19156295       5.13359523      15.99982400       0.00000000       0.00000000       0.00000000       0.00000000       0.05900986      -0.13311331      -0.33770242       0.06379831       0.00608190      -0.13607992
Cu       4.19156295       7.70039285      15.99982400       0.00000000       0.00000000       0.00000000       0.00000000       0.05801479       0.10742465      -0.38893962       0.05167208       0.09961084      -0.35109606
Cu       2.09578148       1.28339881      15.24984600       0.00000000       0.00000000       0.00000000       0.00000000       0.00048632      -0.00343857      -0.28218406      -0.03089503       0.00212557      -0.31438819
Cu       2.09578148       3.85019642      15.24984600       0.00000000       0.00000000       0.00000000       0.00000000      -0.00061921       0.00804541      -0.30329918       0.01912410       0.02130432      -0.27465202
Cu       2.09578148       6.41699404      15.24984600       0.00000000       0.00000000       0.00000000       0.00000000      -0.00074309      -0.00037610      -0.27205576       0.03291532       0.00997483      -0.30589992
Cu       2.09578148       8.98379165      15.24984600       0.00000000       0.00000000       0.00000000       0.00000000      -0.01600991       0.00012319      -0.30421989       0.01464448      -0.01457673      -0.25535627
Cu       0.00000000       0.00000000      14.49986800       0.00000000       0.00000000       0.00000000       0.00000000      -0.07594327       0.00144020      -0.19559528      -0.10847046       0.01666053      -0.22527440
Cu       0.00000000       2.56679762      14.49986800       0.00000000       0.00000000       0.00000000       0.00000000      -0.07373253      -0.00637915      -0.20418353      -0.12106659      -0.02241666      -0.21811043
Cu       0.00000000       5.13359523      14.49986800       0.00000000       0.00000000       0.00000000       0.00000000      -0.07379209       0.00687789      -0.21152136      -0.11993762       0.02773620      -0.24135891
Cu       0.00000000       7.70039285      14.49986800       0.00000000       0.00000000       0.00000000       0.00000000      -0.07529689      -0.00121401      -0.20111048      -0.12578957      -0.01611773      -0.22075007
Cu       4.19156295       1.28339881      13.74989000       0.00000000       0.00000000       0.00000000       0.00000000      -0.04484377      -0.00191267      -0.12686417      -0.08338058       0.00966333       0.00902865
Cu       4.19156295       3.85019642      13.74989000       0.00000000       0.00000000       0.00000000       0.00000000      -0.04401882       0.00090609      -0.12265299      -0.08115272      -0.02810369      -0.07543850
Cu       4.19156295       6.41699404      13.74989000       0.00000000       0.00000000       0.00000000       0.00000000      -0.04595061       0.00160258      -0.12485833      -0.07330855      -0.00687893       0.01845767
Cu       4.19156295       8.98379165      13.74989000       0.00000000       0.00000000       0.00000000       0.00000000      -0.04511383      -0.00058981      -0.11901290      -0.07815465       0.01972819      -0.04709153
Cu       2.09578148       0.00000000      12.99991200       0.00000000       0.00000000       0.00000000       0.00000000      -0.07891370       0.00131338       0.17298813      -0.07514685       0.01886084       0.25931306
Cu       2.09578148       2.56679762      12.99991200       0.00000000       0.00000000       0.00000000       0.00000000      -0.07904428      -0.00088023       0.17157620      -0.05737334      -0.01392521       0.21640488
Cu       2.09578148       5.13359523      12.99991200       0.00000000       0.00000000       0.00000000       0.00000000      -0.07936235       0.00117273       0.17317221      -0.08887192       0.01037324       0.25644068
Cu       2.09578148       7.70039285      12.99991200       0.00000000       0.00000000       0.00000000       0.00000000      -0.07882221      -0.00155063       0.17481711      -0.09160078      -0.01308011       0.28547527
Cu      -0.00000000       1.28339881      12.24993400       0.00000000       0.00000000       0.00000000       0.00000000       0.11685821       0.00032239       0.43772558       0.10016294       0.00769639       0.67504181
Cu      -0.00000000       3.85019642      12.24993400       0.00000000       0.00000000       0.00000000       0.00000000       0.11684657       0.00031594       0.43809396       0.11671883      -0.01544148       0.69263133
Cu      -0.00000000       6.41699404      12.24993400       0.00000000       0.00000000       0.00000000       0.00000000       0.11637070      -0.00031061       0.43861545       0.08648943      -0.00473202       0.71416521
Cu      -0.00000000       8.98379165      12.24993400       0.00000000       0.00000000       0.00000000       0.00000000       0.11673402      -0.00031254       0.43721357       0.10343562       0.01208468       0.71492674
O        4.64109601       6.47049944      20.83731678       0.00000000      -0.01370695      -0.04245577      -0.00422125       0.02069763       0.00756210       0.01450907       0.06899137      -0.07968902       0.32286782
C        4.46111094       7.33086068      19.97353715       0.00000000      -0.00985701      -0.04855701      -0.00849515       0.01633350      -0.00604967       0.01891232       0.14525691      -0.34725496       0.77059053
H        4.61378938       4.76814912      20.51694128       0.00000000       0.02544050       0.02075581       0.00812561       0.01719925      -0.00814079       0.02172860       0.02302804      -0.07475865       0.18164831
O        4.45931958       8.60037039      19.99036717       0.00000000      -0.00327066      -0.06095990      -0.03812119       0.01531341      -0.00417773      -0.01208765      -0.19301417      -0.14617022      -0.76107908
O        4.57775390       3.90129399      20.02947615       0.50000000       0.02267904       0.00443159       0.04692817       0.01649050      -0.00924390       0.04317735       0.04894357       0.22092993       0.07131701
H        4.74493141       3.13076987      20.59118077       0.50000000      -0.00600946       0.01582824       0.04477587       0.01745568      -0.00418209       0.01812716       0.02989362       0.10442720       0.17382986
42
Lattice="6.2873444314750255 0.0 0.0 0.0 10.26719046282867 0.0 0.0 0.0 28.249757996450562" Properties=species:S:1:pos:R:3:initial_magmoms:R:1:MACE_forces:R:3:forces:R:3:DFT_forces:R:3 adsorbate_info="_JSON {\"top layer atom index\": 0, \"sites\": {}}" MACE_energy=-172.86470311432657 energy=-172.68390777786715 stress="0.007113738132670693 1.792224612788411e-05 -0.0002868335116124752 1.792224612788411e-05 0.008088443376786384 5.6695896194413424e-05 -0.0002868335116124752 5.6695896194413424e-05 0.0015478057087840054" free_energy=-172.68390777786715 DFT_energy=-174.40318516 pbc="T T T"
Cu       4.06725219       1.29723137      18.05110189       0.00000000      -0.00630170      -0.07175887       0.14163099      -0.00824550       0.00143202       0.13805761       0.04138896      -0.09215956      -0.12375739
Cu       4.13690411       3.84064005      18.13755214       0.00000000       0.00540961      -0.01083676       0.16210501      -0.00549469      -0.00866168       0.14278076      -0.01652609       0.03678811      -0.34744053
Cu       4.11665894       6.46294140      18.10306075       0.00000000       0.00885697       0.01689580       0.23349609      -0.00648078       0.00262689       0.13715718       0.07064426       0.06137165       0.20839059
Cu       4.11410960       9.04335776      18.12374677       0.00000000      -0.01324250       0.01614202       0.16167416      -0.00028127       0.00555582       0.16027484      -0.02048565       0.17943074      -0.44381797
Cu       2.02469815      10.27044915      17.39121422       0.00000000       0.03969176      -0.00743017       0.13636692       0.00638148       0.00375340       0.12663823       0.02545069       0.04396101      -0.02663356
Cu       2.03597494       2.58269243      17.39032115       0.00000000      -0.00019837      -0.01293019       0.12483089       0.00626380      -0.00357783       0.12541429       0.00622099      -0.05031425      -0.01628949
Cu       2.05343101       5.13518047      17.39222484       0.00000000       0.00948915       0.00324343       0.11694086       0.00484510      -0.00102018       0.11980361       0.03147900       0.06767688      -0.02033939
Cu       2.03303444       7.71057864      17.39001346       0.00000000       0.01629388      -0.00090501       0.11938311       0.00481382       0.00139180       0.11785705      -0.00518736      -0.07493917      -0.01940328
Cu       6.26093271       1.28853664      16.72844041       0.00000000      -0.00679697       0.00570093       0.09717316       0.00027657      -0.00082288       0.09896256       0.01235543      -0.00605317      -0.04765547
Cu       6.26603121       3.85480379      16.71654784       0.00000000      -0.00270359      -0.00470303       0.08375616       0.00230185      -0.00184984       0.09219005       0.03545613      -0.00437485      -0.09794472
Cu       6.27515132       6.41342686      16.71623619       0.00000000      -0.01795791      -0.00266914       0.08132724       0.00301628      -0.00049501       0.08956144      -0.02355837       0.00272008      -0.00529273
Cu       6.26197682       8.98266435      16.71286178       0.00000000      -0.01508005       0.01598071       0.09224074       0.00209651       0.00335821       0.09219009       0.06068871       0.02831332      -0.11166706
Cu       4.19156295       0.00000000      15.99982400       0.00000000       0.00000000       0.00000000       0.00000000       0.06192391      -0.07112350      -0.44141036       0.07744202      -0.15970988      -0.34680460
Cu       4.19156295       2.56679762      15.99982400       0.00000000       0.00000000       0.00000000       0.00000000       0.05297905       0.11419804      -0.35384648       0.09145274       0.20645826      -0.35971816
Cu       4.19156295       5.13359523      15.99982400       0.00000000       0.00000000       0.00000000       0.00000000       0.05900986      -0.13311331      -0.33770242       0.07257363      -0.04402795      -0.19416531
Cu       4.19156295       7.70039285      15.99982400       0.00000000       0.00000000       0.00000000       0.00000000       0.05801479       0.10742465      -0.38893962       0.07315227       0.10365666      -0.42552456
Cu       2.09578148       1.28339881      15.24984600       0.00000000       0.00000000       0.00000000       0.00000000       0.00048632      -0.00343857      -0.28218406      -0.03107112       0.01471492      -0.31901242
Cu       2.09578148       3.85019642      15.24984600       0.00000000       0.00000000       0.00000000       0.00000000      -0.00061921       0.00804541      -0.30329918       0.01309780       0.01754496      -0.28866938
Cu       2.09578148       6.41699404      15.24984600       0.00000000       0.00000000       0.00000000       0.00000000      -0.00074309      -0.00037610      -0.27205576       0.05196529       0.00375657      -0.30121617
Cu       2.09578148       8.98379165      15.24984600       0.00000000       0.00000000       0.00000000       0.00000000      -0.01600991       0.00012319      -0.30421989       0.03022916      -0.00666297      -0.24917486
Cu       0.00000000       0.00000000      14.49986800       0.00000000       0.00000000       0.00000000       0.00000000      -0.07594327       0.00144020      -0.19559528      -0.10887416       0.02467190      -0.22973226
Cu       0.00000000       2.56679762      14.49986800       0.00000000       0.00000000       0.00000000       0.00000000      -0.07373253      -0.00637915      -0.20418353      -0.12003164      -0.01672694      -0.21620041
Cu       0.00000000       5.13359523      14.49986800       0.00000000       0.00000000       0.00000000       0.00000000      -0.07379209       0.00687789      -0.21152136      -0.11931080       0.01959233      -0.24357002
Cu       0.00000000       7.70039285      14.49986800       0.00000000       0.00000000       0.00000000       0.00000000      -0.07529689      -0.00121401      -0.20111048      -0.12544094      -0.02073692      -0.23675347
Cu       4.19156295       1.28339881      13.74989000       0.00000000       0.00000000       0.00000000       0.00000000      -0.04484377      -0.00191267      -0.12686417      -0.08265294       0.01061111       0.00758873
Cu       4.19156295       3.85019642      13.74989000       0.00000000       0.00000000       0.00000000       0.00000000      -0.04401882       0.00090609      -0.12265299      -0.08021821      -0.02905487      -0.07638804
Cu       4.19156295       6.41699404      13.74989000       0.00000000       0.00000000       0.00000000       0.00000000      -0.04595061       0.00160258      -0.12485833      -0.07177399      -0.00821358       0.01833722
Cu       4.19156295       8.98379165      13.74989000       0.00000000       0.00000000       0.00000000       0.00000000      -0.04511383      -0.00058981      -0.11901290      -0.07855971       0.02030773      -0.05012031
Cu       2.09578148       0.00000000      12.99991200       0.00000000       0.00000000       0.00000000       0.00000000      -0.07891370       0.00131338       0.17298813      -0.07417733       0.01903568       0.25595065
Cu       2.09578148       2.56679762      12.99991200       0.00000000       0.00000000       0.00000000       0.00000000      -0.07904428      -0.00088023       0.17157620      -0.05695492      -0.01524081       0.21617204
Cu       2.09578148       5.13359523      12.99991200       0.00000000       0.00000000       0.00000000       0.00000000      -0.07936235       0.00117273       0.17317221      -0.08821134       0.00907781       0.25779728
Cu       2.09578148       7.70039285      12.99991200       0.00000000       0.00000000       0.00000000       0.00000000      -0.07882221      -0.00155063       0.17481711      -0.09354170      -0.01169296       0.28558163
Cu      -0.00000000       1.28339881      12.24993400       0.00000000       0.00000000       0.00000000       0.00000000       0.11685821       0.00032239       0.43772558       0.09997284       0.00587378       0.67287063
Cu      -0.00000000       3.85019642      12.24993400       0.00000000       0.00000000       0.00000000       0.00000000       0.11684657       0.00031594       0.43809396       0.11534383      -0.01663805       0.69412527
Cu      -0.00000000       6.41699404      12.24993400       0.00000000       0.00000000       0.00000000       0.00000000       0.11637070      -0.00031061       0.43861545       0.08601615      -0.00288125       0.71413441
Cu      -0.00000000       8.98379165      12.24993400       0.00000000       0.00000000       0.00000000       0.00000000       0.11673402      -0.00031254       0.43721357       0.10524045       0.01290832       0.71336542
O        4.64961840       6.45211851      20.81894457       0.00000000       0.02080295      -0.01613508      -0.00006560       0.02069763       0.00756210       0.01450907       0.09912790      -0.06994702       0.30427469
C        4.46295262       7.30385776      19.94725186       0.00000000      -0.00843821      -0.03514099      -0.03004616       0.01633350      -0.00604967       0.01891232       0.14300526      -0.32856423       0.77682919
H        4.62928201       4.77750748      20.50545223       0.00000000       0.00582862      -0.00070585      -0.01525273       0.01719925      -0.00814079       0.02172860      -0.08596885      -0.09497996       0.23703973
O        4.45667233       8.57384664      19.96361112       0.00000000      -0.00395035      -0.04942503      -0.02396893       0.01531341      -0.00417773      -0.01208765      -0.17793842      -0.15813077      -0.72955933
O        4.48255307       3.89656011      20.05958834       0.50000000      -0.11136969      -0.03084316       0.10408092       0.01649050      -0.00924390       0.04317735       0.01262582       0.21398370       0.04184677
H        4.80470773       3.14673059      20.58119160       0.50000000       0.08523588       0.01945362      -0.00943004       0.01745568      -0.00418209       0.01812716       0.10555419       0.10859365       0.12254662
42
Lattice="6.2873444314750255 0.0 0.0 0.0 10.26719046282867 0.0 0.0 0.0 28.249757996450562" Properties=species:S:1:pos:R:3:initial_magmoms:R:1:MACE_forces:R:3:forces:R:3:DFT_forces:R:3 adsorbate_info="_JSON {\"top layer atom index\": 0, \"sites\": {}}" MACE_energy=-172.8975775627967 energy=-172.68390777786715 stress="0.007113738132670693 1.792224612788411e-05 -0.0002868335116124752 1.792224612788411e-05 0.008088443376786384 5.6695896194413424e-05 -0.0002868335116124752 5.6695896194413424e-05 0.0015478057087840054" free_energy=-172.68390777786715 DFT_energy=-174.43242768 pbc="T T T"
Cu       4.07160550       1.30080947      18.05219507       0.00000000      -0.00435917      -0.07775163       0.14214225      -0.00824550       0.00143202       0.13805761       0.03918435      -0.10039540      -0.12218566
Cu       4.14631365       3.84208507      18.15090102       0.00000000      -0.01727721      -0.01048909       0.16005764      -0.00549469      -0.00866168       0.14278076      -0.03187274       0.03292974      -0.34900856
Cu       4.12081611       6.45607346      18.09979597       0.00000000       0.00367046       0.00293871       0.20360504      -0.00648078       0.00262689       0.13715718       0.05911577       0.05964921       0.16922964
Cu       4.11328472       9.04342491      18.11986276       0.00000000      -0.01812677       0.03100331       0.14457874      -0.00028127       0.00555582       0.16027484      -0.02441294       0.19897616      -0.46093077
Cu       2.02513711      10.27391150      17.39131116       0.00000000       0.04463857      -0.01590560       0.13661151       0.00638148       0.00375340       0.12663823       0.03071875       0.03369210      -0.02881067
Cu       2.03807161       2.58398988      17.38986882       0.00000000       0.00181005      -0.01639128       0.12432234       0.00626380      -0.00357783       0.12541429       0.00686752      -0.05117343      -0.01376112
Cu       2.05450062       5.13282341      17.39152392       0.00000000       0.01276396       0.00995532       0.11741370       0.00484510      -0.00102018       0.11980361       0.03472059       0.07516840      -0.01452803
Cu       2.03423223       7.71045686      17.38998811       0.00000000       0.01861674      -0.00288029       0.11925670       0.00481382       0.00139180       0.11785705      -0.00333491      -0.07539858      -0.02070909
Cu       6.26116585       1.28987455      16.72858456       0.00000000      -0.00392510       0.00348608       0.09628714       0.00027657      -0.00082288       0.09896256       0.01551737      -0.00711139      -0.04582439
Cu       6.26507085       3.85475108      16.72035543       0.00000000      -0.00654309      -0.00459049       0.08520686       0.00230185      -0.00184984       0.09219005       0.03210227      -0.00425823      -0.09214475
Cu       6.27822583       6.41306132      16.71489721       0.00000000      -0.02659820      -0.00209923       0.08469189       0.00301628      -0.00049501       0.08956144      -0.03330713       0.00373075      -0.00310972
Cu       6.26374312       8.98282143      16.71133534       0.00000000      -0.01921500       0.01858075       0.09694894       0.00209651       0.00335821       0.09219009       0.05588331       0.03081014      -0.10953896
Cu       4.19156295       0.00000000      15.99982400       0.00000000       0.00000000       0.00000000       0.00000000       0.06192391      -0.07112350      -0.44141036       0.07827313      -0.15117012      -0.34622677
Cu       4.19156295       2.56679762      15.99982400       0.00000000       0.00000000       0.00000000       0.00000000       0.05297905       0.11419804      -0.35384648       0.09274514       0.22582162      -0.33530171
Cu       4.19156295       5.13359523      15.99982400       0.00000000       0.00000000       0.00000000       0.00000000       0.05900986      -0.13311331      -0.33770242       0.07754430      -0.06824116      -0.18408221
Cu       4.19156295       7.70039285      15.99982400       0.00000000       0.00000000       0.00000000       0.00000000       0.05801479       0.10742465      -0.38893962       0.07907971       0.09998309      -0.43564769
Cu       2.09578148       1.28339881      15.24984600       0.00000000       0.00000000       0.00000000       0.00000000       0.00048632      -0.00343857      -0.28218406      -0.03010840       0.01845374      -0.31903720
Cu       2.09578148       3.85019642      15.24984600       0.00000000       0.00000000       0.00000000       0.00000000      -0.00061921       0.00804541      -0.30329918       0.01001757       0.01756062      -0.29047858
Cu       2.09578148       6.41699404      15.24984600       0.00000000       0.00000000       0.00000000       0.00000000      -0.00074309      -0.00037610      -0.27205576       0.05797048       0.00325617      -0.30058771
Cu       2.09578148       8.98379165      15.24984600       0.00000000       0.00000000       0.00000000       0.00000000      -0.01600991       0.00012319      -0.30421989       0.03413420      -0.00488939      -0.24548966
Cu       0.00000000       0.00000000      14.49986800       0.00000000       0.00000000       0.00000000       0.00000000      -0.07594327       0.00144020      -0.19559528      -0.10945620       0.02792194      -0.23024083
Cu       0.00000000       2.56679762      14.49986800       0.00000000       0.00000000       0.00000000       0.00000000      -0.07373253      -0.00637915      -0.20418353      -0.11888809      -0.01262631      -0.21517890
Cu       0.00000000       5.13359523      14.49986800       0.00000000       0.00000000       0.00000000       0.00000000      -0.07379209       0.00687789      -0.21152136      -0.11926614       0.01636562      -0.24281147
Cu       0.00000000       7.70039285      14.49986800       0.00000000       0.00000000       0.00000000       0.00000000      -0.07529689      -0.00121401      -0.20111048      -0.12580028      -0.02242039      -0.23888342
Cu       4.19156295       1.28339881      13.74989000       0.00000000       0.00000000       0.00000000       0.00000000      -0.04484377      -0.00191267      -0.12686417      -0.08226168       0.01141518       0.00635584
Cu       4.19156295       3.85019642      13.74989000       0.00000000       0.00000000       0.00000000       0.00000000      -0.04401882       0.00090609      -0.12265299      -0.07953878      -0.02920474      -0.07712111
Cu       4.19156295       6.41699404      13.74989000       0.00000000       0.00000000       0.00000000       0.00000000      -0.04595061       0.00160258      -0.12485833      -0.07123544      -0.00826493       0.01877156
Cu       4.19156295       8.98379165      13.74989000       0.00000000       0.00000000       0.00000000       0.00000000      -0.04511383      -0.00058981      -0.11901290      -0.07924789       0.02108064      -0.05087370
Cu       2.09578148       0.00000000      12.99991200       0.00000000       0.00000000       0.00000000       0.00000000      -0.07891370       0.00131338       0.17298813      -0.07373249       0.01913201       0.25429660
Cu       2.09578148       2.56679762      12.99991200       0.00000000       0.00000000       0.00000000       0.00000000      -0.07904428      -0.00088023       0.17157620      -0.05673582      -0.01532245       0.21559859
Cu       2.09578148       5.13359523      12.99991200       0.00000000       0.00000000       0.00000000       0.00000000      -0.07936235       0.00117273       0.17317221      -0.08785592       0.00889543       0.25834917
Cu       2.09578148       7.70039285      12.99991200       0.00000000       0.00000000       0.00000000       0.00000000      -0.07882221      -0.00155063       0.17481711      -0.09475055      -0.00979714       0.28522127
Cu      -0.00000000       1.28339881      12.24993400       0.00000000       0.00000000       0.00000000       0.00000000       0.11685821       0.00032239       0.43772558       0.09963731       0.00520370       0.67216217
Cu      -0.00000000       3.85019642      12.24993400       0.00000000       0.00000000       0.00000000       0.00000000       0.11684657       0.00031594       0.43809396       0.11419836      -0.01698721       0.69560257
Cu      -0.00000000       6.41699404      12.24993400       0.00000000       0.00000000       0.00000000       0.00000000       0.11637070      -0.00031061       0.43861545       0.08556391      -0.00086033       0.71444897
Cu      -0.00000000       8.98379165      12.24993400       0.00000000       0.00000000       0.00000000       0.00000000       0.11673402      -0.00031254       0.43721357       0.10687842       0.01390136       0.71333460
O        4.66920401       6.44369402      20.80312582       0.00000000       0.04438255      -0.02861724      -0.01240541       0.02069763       0.00756210       0.01450907       0.11690493      -0.07009942       0.27612941
C        4.46809365       7.29172695      19.93006870       0.00000000       0.00979123      -0.01813461       0.02401552       0.01633350      -0.00604967       0.01891232       0.14707408      -0.32934507       0.78823592
H        4.61968955       4.77488609      20.48665213       0.00000000      -0.05701330      -0.01407926      -0.01393857       0.01719925      -0.00814079       0.02172860      -0.05047459      -0.08437716       0.23988262
O        4.45146006       8.56238989      19.95139335       0.00000000       0.00003316      -0.03506276      -0.00154944       0.01531341      -0.00417773      -0.01208765      -0.16079405      -0.15629818      -0.64339108
O        4.36885915       3.88151997      20.10912396       0.50000000      -0.09095028      -0.04896763       0.10326280       0.01649050      -0.00924390       0.04317735      -0.05801777       0.18514920       0.03010901
H        4.87036381       3.16811925      20.53512827       0.50000000       0.09980289       0.03862595      -0.05836823       0.01745568      -0.00418209       0.01812716       0.11696031       0.10914423       0.07817581
42
Lattice="6.2873444314750255 0.0 0.0 0.0 10.26719046282867 0.0 0.0 0.0 28.249757996450562" Properties=species:S:1:pos:R:3:initial_magmoms:R:1:MACE_forces:R:3:forces:R:3:DFT_forces:R:3 adsorbate_info="_JSON {\"top layer atom index\": 0, \"sites\": {}}" MACE_energy=-172.92698973938846 energy=-172.68390777786715 stress="0.007113738132670693 1.792224612788411e-05 -0.0002868335116124752 1.792224612788411e-05 0.008088443376786384 5.6695896194413424e-05 -0.0002868335116124752 5.6695896194413424e-05 0.0015478057087840054" free_energy=-172.68390777786715 DFT_energy=-174.44654429 pbc="T T T"
Cu       4.07681106       1.30288628      18.05306524       0.00000000      -0.00962453      -0.06961781       0.13785614      -0.00824550       0.00143202       0.13805761       0.03377559      -0.09748404      -0.12220261
Cu       4.13210218       3.85039704      18.15789228       0.00000000      -0.01951807      -0.01282244       0.12422434      -0.00549469      -0.00866168       0.14278076      -0.03606500       0.03067511      -0.38191114
Cu       4.12746214       6.45919588      18.10790967       0.00000000      -0.00969411      -0.01648905       0.13353924      -0.00648078       0.00262689       0.13715718       0.04686987       0.04396126       0.08171034
Cu       4.11357591       9.04321667      18.12396332       0.00000000      -0.01631534       0.04557338       0.12515069      -0.00028127       0.00555582       0.16027484      -0.02276987       0.19980825      -0.46945352
Cu       2.02843606      10.27564951      17.39201837       0.00000000       0.03925646      -0.02110428       0.13446985       0.00638148       0.00375340       0.12663823       0.02493203       0.02540600      -0.03126777
Cu       2.03906403       2.58485248      17.39009908       0.00000000      -0.00461385      -0.02032667       0.12162217       0.00626380      -0.00357783       0.12541429      -0.00640297      -0.05441065      -0.01834220
Cu       2.05616017       5.13421586      17.39282627       0.00000000       0.00279285       0.01644741       0.11233742       0.00484510      -0.00102018       0.11980361       0.01578015       0.08029301      -0.02319567
Cu       2.03772853       7.70977295      17.39109880       0.00000000       0.01402724       0.00223120       0.11688652       0.00481382       0.00139180       0.11785705      -0.00927142      -0.07084473      -0.02308585
Cu       6.26292014       1.29091333      16.72851208       0.00000000      -0.00415604      -0.00261312       0.09356503       0.00027657      -0.00082288       0.09896256       0.01430266      -0.01268010      -0.04513261
Cu       6.26134280       3.85496228      16.72714869       0.00000000      -0.00350150      -0.00366942       0.07690811       0.00230185      -0.00184984       0.09219005       0.03816867      -0.00345768      -0.09235869
Cu       6.27959264       6.41264363      16.71542365       0.00000000      -0.02832659       0.00192620       0.08367867       0.00301628      -0.00049501       0.08956144      -0.03260054       0.00991823      -0.00484162
Cu       6.26500141       8.98296460      16.71180520       0.00000000      -0.01891286       0.01891972       0.09845731       0.00209651       0.00335821       0.09219009       0.05786388       0.02958317      -0.10689513
Cu       4.19156295       0.00000000      15.99982400       0.00000000       0.00000000       0.00000000       0.00000000       0.06192391      -0.07112350      -0.44141036       0.08421074      -0.15296810      -0.33270063
Cu       4.19156295       2.56679762      15.99982400       0.00000000       0.00000000       0.00000000       0.00000000       0.05297905       0.11419804      -0.35384648       0.09363713       0.23325453      -0.31883179
Cu       4.19156295       5.13359523      15.99982400       0.00000000       0.00000000       0.00000000       0.00000000       0.05900986      -0.13311331      -0.33770242       0.07815789      -0.06264605      -0.16181347
Cu       4.19156295       7.70039285      15.99982400       0.00000000       0.00000000       0.00000000       0.00000000       0.05801479       0.10742465      -0.38893962       0.08422636       0.09764695      -0.41315154
Cu       2.09578148       1.28339881      15.24984600       0.00000000       0.00000000       0.00000000       0.00000000       0.00048632      -0.00343857      -0.28218406      -0.02863685       0.01940147      -0.31773279
Cu       2.09578148       3.85019642      15.24984600       0.00000000       0.00000000       0.00000000       0.00000000      -0.00061921       0.00804541      -0.30329918       0.00109580       0.01929637      -0.28270624
Cu       2.09578148       6.41699404      15.24984600       0.00000000       0.00000000       0.00000000       0.00000000      -0.00074309      -0.00037610      -0.27205576       0.05692715       0.00349482      -0.30112844
Cu       2.09578148       8.98379165      15.24984600       0.00000000       0.00000000       0.00000000       0.00000000      -0.01600991       0.00012319      -0.30421989       0.03423785      -0.00628833      -0.24000576
Cu       0.00000000       0.00000000      14.49986800       0.00000000       0.00000000       0.00000000       0.00000000      -0.07594327       0.00144020      -0.19559528      -0.11091640       0.02744819      -0.22850151
Cu       0.00000000       2.56679762      14.49986800       0.00000000       0.00000000       0.00000000       0.00000000      -0.07373253      -0.00637915      -0.20418353      -0.11927557      -0.00638567      -0.20826693
Cu       0.00000000       5.13359523      14.49986800       0.00000000       0.00000000       0.00000000       0.00000000      -0.07379209       0.00687789      -0.21152136      -0.12049591       0.00990932      -0.23207032
Cu       0.00000000       7.70039285      14.49986800       0.00000000       0.00000000       0.00000000       0.00000000      -0.07529689      -0.00121401      -0.20111048      -0.12711979      -0.02267116      -0.23678373
Cu       4.19156295       1.28339881      13.74989000       0.00000000       0.00000000       0.00000000       0.00000000      -0.04484377      -0.00191267      -0.12686417      -0.08187963       0.01139589       0.00585977
Cu       4.19156295       3.85019642      13.74989000       0.00000000       0.00000000       0.00000000       0.00000000      -0.04401882       0.00090609      -0.12265299      -0.07981495      -0.02958653      -0.07625227
Cu       4.19156295       6.41699404      13.74989000       0.00000000       0.00000000       0.00000000       0.00000000      -0.04595061       0.00160258      -0.12485833      -0.07253163      -0.00822085       0.02143780
Cu       4.19156295       8.98379165      13.74989000       0.00000000       0.00000000       0.00000000       0.00000000      -0.04511383      -0.00058981      -0.11901290      -0.08001484       0.01928926      -0.04788384
Cu       2.09578148       0.00000000      12.99991200       0.00000000       0.00000000       0.00000000       0.00000000      -0.07891370       0.00131338       0.17298813      -0.07338677       0.01812337       0.25500059
Cu       2.09578148       2.56679762      12.99991200       0.00000000       0.00000000       0.00000000       0.00000000      -0.07904428      -0.00088023       0.17157620      -0.05678758      -0.01543402       0.21559474
Cu       2.09578148       5.13359523      12.99991200       0.00000000       0.00000000       0.00000000       0.00000000      -0.07936235       0.00117273       0.17317221      -0.08695338       0.00812372       0.25873509
Cu       2.09578148       7.70039285      12.99991200       0.00000000       0.00000000       0.00000000       0.00000000      -0.07882221      -0.00155063       0.17481711      -0.09454082      -0.00924645       0.28551292
Cu      -0.00000000       1.28339881      12.24993400       0.00000000       0.00000000       0.00000000       0.00000000       0.11685821       0.00032239       0.43772558       0.09939158       0.00518938       0.67304870
Cu      -0.00000000       3.85019642      12.24993400       0.00000000       0.00000000       0.00000000       0.00000000       0.11684657       0.00031594       0.43809396       0.11313859      -0.01788446       0.69664997
Cu      -0.00000000       6.41699404      12.24993400       0.00000000       0.00000000       0.00000000       0.00000000       0.11637070      -0.00031061       0.43861545       0.08541892      -0.00047859       0.71391594
Cu      -0.00000000       8.98379165      12.24993400       0.00000000       0.00000000       0.00000000       0.00000000       0.11673402      -0.00031254       0.43721357       0.10692894       0.01252120       0.71524569
O        4.71967876       6.44228985      20.78038332       0.00000000       0.02234305      -0.06072252       0.00494302       0.02069763       0.00756210       0.01450907       0.08062832      -0.09794313       0.29461078
C        4.49177332       7.30013236      19.92367027       0.00000000       0.01018253      -0.02055078       0.05579469       0.01633350      -0.00604967       0.01891232       0.16699505      -0.34748782       0.76765895
H        4.57619905       4.76706247      20.47326837       0.00000000      -0.04259225      -0.01037697      -0.01323613       0.01719925      -0.00814079       0.02172860       0.03863576      -0.04352437       0.20443849
O        4.45754849       8.56976297      19.95916255       0.00000000       0.00718111      -0.04456067      -0.01422456       0.01531341      -0.00417773      -0.01208765      -0.17693657      -0.10914517      -0.60632719
O        4.33209960       3.85537312      20.13256208       0.50000000      -0.00894325      -0.03564986       0.05415041       0.01649050      -0.00924390       0.04317735      -0.01695591       0.16354338       0.01768242
H        4.99756405       3.21263083      20.43136458       0.50000000       0.05955609       0.04842200      -0.00336374       0.01745568      -0.00418209       0.01812716       0.07803347       0.10050501       0.11574104
42
Lattice="6.2873444314750255 0.0 0.0 0.0 10.26719046282867 0.0 0.0 0.0 28.249757996450562" Properties=species:S:1:pos:R:3:initial_magmoms:R:1:MACE_forces:R:3:forces:R:3:DFT_forces:R:3 adsorbate_info="_JSON {\"top layer atom index\": 0, \"sites\": {}}" MACE_energy=-172.93462911512063 energy=-172.68390777786715 stress="0.007113738132670693 1.792224612788411e-05 -0.0002868335116124752 1.792224612788411e-05 0.008088443376786384 5.6695896194413424e-05 -0.0002868335116124752 5.6695896194413424e-05 0.0015478057087840054" free_energy=-172.68390777786715 DFT_energy=-174.44542924 pbc="T T T"
Cu       4.07210700       1.29019204      18.05082719       0.00000000      -0.00621794       0.01316115       0.14317059      -0.00824550       0.00143202       0.13805761       0.04167184      -0.01652267      -0.10921640
Cu       4.12015155       3.85593982      18.14604824       0.00000000       0.00089183      -0.02745840       0.14869994      -0.00549469      -0.00866168       0.14278076      -0.02940254       0.01336968      -0.34499623
Cu       4.12788823       6.47270160      18.12606240       0.00000000      -0.00553670      -0.00690511       0.13403750      -0.00648078       0.00262689       0.13715718       0.05253534       0.05509060       0.07413571
Cu       4.11513249       9.04345841      18.13669635       0.00000000      -0.00014525       0.00030449       0.14906188      -0.00028127       0.00555582       0.16027484      -0.01134120       0.12427094      -0.41351897
Cu       2.03331033      10.26589257      17.39388453       0.00000000      -0.00216372       0.00916095       0.12297989       0.00638148       0.00375340       0.12663823      -0.02120602       0.05864922      -0.04262931
Cu       2.03470015       2.58082405      17.38960545       0.00000000       0.00904795      -0.00346847       0.12403119       0.00626380      -0.00357783       0.12541429       0.00177719      -0.03414769      -0.01945292
Cu       2.05486442       5.14303548      17.39399631       0.00000000       0.00269855      -0.00850517       0.11262834       0.00484510      -0.00102018       0.11980361       0.00927786       0.04769042      -0.02980622
Cu       2.03935868       7.70967366      17.39246107       0.00000000       0.00155014       0.00309744       0.11438550       0.00481382       0.00139180       0.11785705      -0.02358250      -0.07029849      -0.02454546
Cu       6.26250617       1.28824097      16.72749739       0.00000000       0.00252559       0.00011995       0.09997176       0.00027657      -0.00082288       0.09896256       0.02345981      -0.00951095      -0.03757794
Cu       6.26071781       3.85563389      16.72231206       0.00000000       0.00697421      -0.00319940       0.08858466       0.00230185      -0.00184984       0.09219005       0.05208314      -0.00573666      -0.07732013
Cu       6.27046602       6.41477718      16.71742314       0.00000000       0.01194541       0.00060128       0.08336830       0.00301628      -0.00049501       0.08956144       0.01678193       0.01117428      -0.00264664
Cu       6.26023426       8.98462458      16.71582195       0.00000000       0.00781012       0.00580912       0.08832775       0.00209651       0.00335821       0.09219009       0.09237313       0.01585659      -0.11001899
Cu       4.19156295       0.00000000      15.99982400       0.00000000       0.00000000       0.00000000       0.00000000       0.06192391      -0.07112350      -0.44141036       0.08302257      -0.17342311      -0.33637310
Cu       4.19156295       2.56679762      15.99982400       0.00000000       0.00000000       0.00000000       0.00000000       0.05297905       0.11419804      -0.35384648       0.08784587       0.21263393      -0.32022442
Cu       4.19156295       5.13359523      15.99982400       0.00000000       0.00000000       0.00000000       0.00000000       0.05900986      -0.13311331      -0.33770242       0.06272975      -0.02604163      -0.14275644
Cu       4.19156295       7.70039285      15.99982400       0.00000000       0.00000000       0.00000000       0.00000000       0.05801479       0.10742465      -0.38893962       0.06803292       0.10063178      -0.35907249
Cu       2.09578148       1.28339881      15.24984600       0.00000000       0.00000000       0.00000000       0.00000000       0.00048632      -0.00343857      -0.28218406      -0.02893914       0.00935429      -0.31111877
Cu       2.09578148       3.85019642      15.24984600       0.00000000       0.00000000       0.00000000       0.00000000      -0.00061921       0.00804541      -0.30329918       0.00432469       0.02269506      -0.27194016
Cu       2.09578148       6.41699404      15.24984600       0.00000000       0.00000000       0.00000000       0.00000000      -0.00074309      -0.00037610      -0.27205576       0.04157667       0.00915348      -0.30392490
Cu       2.09578148       8.98379165      15.24984600       0.00000000       0.00000000       0.00000000       0.00000000      -0.01600991       0.00012319      -0.30421989       0.02306704      -0.01160347      -0.24501450
Cu       0.00000000       0.00000000      14.49986800       0.00000000       0.00000000       0.00000000       0.00000000      -0.07594327       0.00144020      -0.19559528      -0.11164116       0.02323619      -0.22766915
Cu       0.00000000       2.56679762      14.49986800       0.00000000       0.00000000       0.00000000       0.00000000      -0.07373253      -0.00637915      -0.20418353      -0.11925730      -0.00959060      -0.21236317
Cu       0.00000000       5.13359523      14.49986800       0.00000000       0.00000000       0.00000000       0.00000000      -0.07379209       0.00687789      -0.21152136      -0.12123807       0.01469989      -0.23184682
Cu       0.00000000       7.70039285      14.49986800       0.00000000       0.00000000       0.00000000       0.00000000      -0.07529689      -0.00121401      -0.20111048      -0.12741430      -0.01698796      -0.22978793
Cu       4.19156295       1.28339881      13.74989000       0.00000000       0.00000000       0.00000000       0.00000000      -0.04484377      -0.00191267      -0.12686417      -0.08173221       0.00983011       0.00587894
Cu       4.19156295       3.85019642      13.74989000       0.00000000       0.00000000       0.00000000       0.00000000      -0.04401882       0.00090609      -0.12265299      -0.08051351      -0.02795440      -0.07647722
Cu       4.19156295       6.41699404      13.74989000       0.00000000       0.00000000       0.00000000       0.00000000      -0.04595061       0.00160258      -0.12485833      -0.07471838      -0.00633634       0.02396648
Cu       4.19156295       8.98379165      13.74989000       0.00000000       0.00000000       0.00000000       0.00000000      -0.04511383      -0.00058981      -0.11901290      -0.08116037       0.01821018      -0.04225199
Cu       2.09578148       0.00000000      12.99991200       0.00000000       0.00000000       0.00000000       0.00000000      -0.07891370       0.00131338       0.17298813      -0.07286896       0.01814846       0.25883600
Cu       2.09578148       2.56679762      12.99991200       0.00000000       0.00000000       0.00000000       0.00000000      -0.07904428      -0.00088023       0.17157620      -0.05667100      -0.01423378       0.21559690
Cu       2.09578148       5.13359523      12.99991200       0.00000000       0.00000000       0.00000000       0.00000000      -0.07936235       0.00117273       0.17317221      -0.08557624       0.00909183       0.25681994
Cu       2.09578148       7.70039285      12.99991200       0.00000000       0.00000000       0.00000000       0.00000000      -0.07882221      -0.00155063       0.17481711      -0.09132828      -0.01017785       0.28589150
Cu      -0.00000000       1.28339881      12.24993400       0.00000000       0.00000000       0.00000000       0.00000000       0.11685821       0.00032239       0.43772558       0.09989716       0.00757426       0.67543171
Cu      -0.00000000       3.85019642      12.24993400       0.00000000       0.00000000       0.00000000       0.00000000       0.11684657       0.00031594       0.43809396       0.11481038      -0.01700997       0.69537549
Cu      -0.00000000       6.41699404      12.24993400       0.00000000       0.00000000       0.00000000       0.00000000       0.11637070      -0.00031061       0.43861545       0.08611957      -0.00217155       0.71241250
Cu      -0.00000000       8.98379165      12.24993400       0.00000000       0.00000000       0.00000000       0.00000000       0.11673402      -0.00031254       0.43721357       0.10528544       0.01123167       0.71814305
O        4.77713919       6.45377838      20.77718013       0.00000000      -0.00405729      -0.03896100       0.00707077       0.02069763       0.00756210       0.01450907       0.05608005      -0.08214272       0.30908955
C        4.53021136       7.33465459      19.95194239       0.00000000      -0.01759079      -0.08140442      -0.05622162       0.01633350      -0.00604967       0.01891232       0.17248283      -0.40016667       0.70147111
H        4.58818152       4.76048532      20.45442152       0.00000000      -0.01091307       0.01892785      -0.00865792       0.01719925      -0.00814079       0.02172860       0.05556133       0.00095455       0.21569817
O        4.48804336       8.60060336      19.99337647       0.00000000       0.00016358      -0.08407492      -0.05201423       0.01531341      -0.00417773      -0.01208765      -0.22364386      -0.08635653      -0.74553556
O        4.39897472       3.83621802      20.11888495       0.50000000       0.00910627      -0.00621049       0.04699472       0.01649050      -0.00924390       0.04317735       0.03384965       0.15372610       0.01533917
H        5.15998663       3.27295613      20.34321010       0.50000000       0.03516225       0.03302303       0.01215409       0.01745568      -0.00418209       0.01812716       0.05758887       0.07313951       0.10399962
42
Lattice="6.2873444314750255 0.0 0.0 0.0 10.26719046282867 0.0 0.0 0.0 28.249757996450562" Properties=species:S:1:pos:R:3:initial_magmoms:R:1:MACE_forces:R:3:forces:R:3:DFT_forces:R:3 adsorbate_info="_JSON {\"top layer atom index\": 0, \"sites\": {}}" MACE_energy=-172.89887509271136 energy=-172.68390777786715 stress="0.007113738132670693 1.792224612788411e-05 -0.0002868335116124752 1.792224612788411e-05 0.008088443376786384 5.6695896194413424e-05 -0.0002868335116124752 5.6695896194413424e-05 0.0015478057087840054" free_energy=-172.68390777786715 DFT_energy=-174.39573502 pbc="T T T"
Cu       4.06722643       1.28315763      18.04914459       0.00000000      -0.00167496       0.01446018       0.14436257      -0.00824550       0.00143202       0.13805761       0.05041767      -0.03228351      -0.10782253
Cu       4.11593138       3.85892804      18.14266399       0.00000000       0.01043787      -0.01292597       0.15403970      -0.00549469      -0.00866168       0.14278076      -0.02636984       0.01864267      -0.35195969
Cu       4.12327985       6.48576613      18.14734532       0.00000000       0.02624219       0.03505530       0.18575460      -0.00648078       0.00262689       0.13715718       0.08523055       0.11286129       0.12532220
Cu       4.11625337       9.02241231      18.15977717       0.00000000       0.00785357       0.04645040       0.14899180      -0.00028127       0.00555582       0.16027484      -0.00186637       0.10260720      -0.34814326
Cu       2.03256520      10.26047646      17.39532438       0.00000000       0.01055506       0.00678670       0.12302011       0.00638148       0.00375340       0.12663823      -0.00679519       0.05579493      -0.03457488
Cu       2.03271362       2.57895569      17.39002420       0.00000000       0.01558398       0.00048359       0.12389407       0.00626380      -0.00357783       0.12541429       0.00556993      -0.02712414      -0.01949140
Cu       2.05260786       5.14427022      17.39690873       0.00000000       0.02484285       0.00333530       0.11323989       0.00484510      -0.00102018       0.11980361       0.02694091       0.04710307      -0.03765783
Cu       2.03687865       7.70763656      17.39430924       0.00000000       0.01483255       0.00442747       0.11490430       0.00481382       0.00139180       0.11785705      -0.00276152      -0.06455203      -0.01405939
Cu       6.26153212       1.28675578      16.72838184       0.00000000       0.00567111       0.00045748       0.09831126       0.00027657      -0.00082288       0.09896256       0.02626610      -0.01164087      -0.03515370
Cu       6.26022919       3.85536086      16.72133983       0.00000000       0.01140009      -0.00210793       0.08794373       0.00230185      -0.00184984       0.09219005       0.05623361      -0.00666929      -0.07333543
Cu       6.26501617       6.41476164      16.72167305       0.00000000       0.01196603      -0.00223360       0.08210374       0.00301628      -0.00049501       0.08956144       0.03210257       0.01214924       0.00025020
Cu       6.25659098       8.98286144      16.71960312       0.00000000       0.00806248       0.00663653       0.08773314       0.00209651       0.00335821       0.09219009       0.10034637       0.01618124      -0.10105687
Cu       4.19156295       0.00000000      15.99982400       0.00000000       0.00000000       0.00000000       0.00000000       0.06192391      -0.07112350      -0.44141036       0.08135674      -0.20702799      -0.28633346
Cu       4.19156295       2.56679762      15.99982400       0.00000000       0.00000000       0.00000000       0.00000000       0.05297905       0.11419804      -0.35384648       0.08686228       0.20321199      -0.31679794
Cu       4.19156295       5.13359523      15.99982400       0.00000000       0.00000000       0.00000000       0.00000000       0.05900986      -0.13311331      -0.33770242       0.05254908       0.00025274      -0.10029458
Cu       4.19156295       7.70039285      15.99982400       0.00000000       0.00000000       0.00000000       0.00000000       0.05801479       0.10742465      -0.38893962       0.05421708       0.09911997      -0.26771709
Cu       2.09578148       1.28339881      15.24984600       0.00000000       0.00000000       0.00000000       0.00000000       0.00048632      -0.00343857      -0.28218406      -0.02887247       0.00086435      -0.30298151
Cu       2.09578148       3.85019642      15.24984600       0.00000000       0.00000000       0.00000000       0.00000000      -0.00061921       0.00804541      -0.30329918       0.00329545       0.02316912      -0.26712056
Cu       2.09578148       6.41699404      15.24984600       0.00000000       0.00000000       0.00000000       0.00000000      -0.00074309      -0.00037610      -0.27205576       0.02608470       0.00646273      -0.29920487
Cu       2.09578148       8.98379165      15.24984600       0.00000000       0.00000000       0.00000000       0.00000000      -0.01600991       0.00012319      -0.30421989       0.01190370      -0.01571622      -0.24816658
Cu       0.00000000       0.00000000      14.49986800       0.00000000       0.00000000       0.00000000       0.00000000      -0.07594327       0.00144020      -0.19559528      -0.11258362       0.02174564      -0.21975870
Cu       0.00000000       2.56679762      14.49986800       0.00000000       0.00000000       0.00000000       0.00000000      -0.07373253      -0.00637915      -0.20418353      -0.12093294      -0.01038011      -0.21212824
Cu       0.00000000       5.13359523      14.49986800       0.00000000       0.00000000       0.00000000       0.00000000      -0.07379209       0.00687789      -0.21152136      -0.12364732       0.01477742      -0.22507626
Cu       0.00000000       7.70039285      14.49986800       0.00000000       0.00000000       0.00000000       0.00000000      -0.07529689      -0.00121401      -0.20111048      -0.12819444      -0.01601868      -0.22352100
Cu       4.19156295       1.28339881      13.74989000       0.00000000       0.00000000       0.00000000       0.00000000      -0.04484377      -0.00191267      -0.12686417      -0.08325906       0.00911269       0.00973754
Cu       4.19156295       3.85019642      13.74989000       0.00000000       0.00000000       0.00000000       0.00000000      -0.04401882       0.00090609      -0.12265299      -0.08122518      -0.02681776      -0.07544166
Cu       4.19156295       6.41699404      13.74989000       0.00000000       0.00000000       0.00000000       0.00000000      -0.04595061       0.00160258      -0.12485833      -0.07822620      -0.00155805       0.03071641
Cu       4.19156295       8.98379165      13.74989000       0.00000000       0.00000000       0.00000000       0.00000000      -0.04511383      -0.00058981      -0.11901290      -0.08398890       0.01219242      -0.03288168
Cu       2.09578148       0.00000000      12.99991200       0.00000000       0.00000000       0.00000000       0.00000000      -0.07891370       0.00131338       0.17298813      -0.07339438       0.01847847       0.26419915
Cu       2.09578148       2.56679762      12.99991200       0.00000000       0.00000000       0.00000000       0.00000000      -0.07904428      -0.00088023       0.17157620      -0.05929743      -0.01089301       0.21615482
Cu       2.09578148       5.13359523      12.99991200       0.00000000       0.00000000       0.00000000       0.00000000      -0.07936235       0.00117273       0.17317221      -0.08538893       0.00865774       0.25186486
Cu       2.09578148       7.70039285      12.99991200       0.00000000       0.00000000       0.00000000       0.00000000      -0.07882221      -0.00155063       0.17481711      -0.08770163      -0.01146700       0.28684836
Cu      -0.00000000       1.28339881      12.24993400       0.00000000       0.00000000       0.00000000       0.00000000       0.11685821       0.00032239       0.43772558       0.09985701       0.00944175       0.68027544
Cu      -0.00000000       3.85019642      12.24993400       0.00000000       0.00000000       0.00000000       0.00000000       0.11684657       0.00031594       0.43809396       0.11723717      -0.01557113       0.69593499
Cu      -0.00000000       6.41699404      12.24993400       0.00000000       0.00000000       0.00000000       0.00000000       0.11637070      -0.00031061       0.43861545       0.08805520      -0.00517872       0.71271000
Cu      -0.00000000       8.98379165      12.24993400       0.00000000       0.00000000       0.00000000       0.00000000       0.11673402      -0.00031254       0.43721357       0.10237628       0.00903740       0.72369288
O        4.80730329       6.48969475      20.80068534       0.00000000      -0.01332045      -0.03833541      -0.01701701       0.02069763       0.00756210       0.01450907       0.06643369      -0.08103766       0.33759488
C        4.55962825       7.41471763      20.03431796       0.00000000      -0.05845664      -0.16984426      -0.21592529       0.01633350      -0.00604967       0.01891232       0.15135762      -0.44892187       0.54364924
H        4.61866709       4.74541087      20.46206346       0.00000000       0.00502516       0.04725209      -0.01600785       0.01719925      -0.00814079       0.02172860       0.05351501       0.01793964       0.24680316
O        4.51098869       8.67144850      20.07913139       0.00000000      -0.02269108      -0.13563137      -0.15394064       0.01531341      -0.00417773      -0.01208765      -0.29212063      -0.02704509      -1.01918231
O        4.43732548       3.82918484      20.11536513       0.50000000       0.00496759       0.01345470       0.05669395       0.01649050      -0.00924390       0.04317735       0.04599598       0.11498519       0.00318906
H        5.20962588       3.27239807      20.31812121       0.50000000       0.02663290       0.04421544       0.01820022       0.01745568      -0.00418209       0.01812716       0.05242136       0.08511422       0.09091826
42
Lattice="6.2873444314750255 0.0 0.0 0.0 10.26719046282867 0.0 0.0 0.0 28.249757996450562" Properties=species:S:1:pos:R:3:initial_magmoms:R:1:MACE_forces:R:3:forces:R:3:DFT_forces:R:3 adsorbate_info="_JSON {\"top layer atom index\": 0, \"sites\": {}}" MACE_energy=-172.8351902412087 energy=-172.68390777786715 stress="0.007113738132670693 1.792224612788411e-05 -0.0002868335116124752 1.792224612788411e-05 0.008088443376786384 5.6695896194413424e-05 -0.0002868335116124752 5.6695896194413424e-05 0.0015478057087840054" free_energy=-172.68390777786715 DFT_energy=-174.29857154 pbc="T T T"
Cu       4.06388014       1.27865908      18.04806772       0.00000000      -0.00035944       0.00899968       0.14388716      -0.00824550       0.00143202       0.13805761       0.05255181      -0.04689713      -0.10844686
Cu       4.11247514       3.85778213      18.14163238       0.00000000       0.00958061      -0.00633987       0.15258030      -0.00549469      -0.00866168       0.14278076      -0.03209205       0.02107656      -0.37572598
Cu       4.11202077       6.47818486      18.13899833       0.00000000       0.04846579       0.06708232       0.24584399      -0.00648078       0.00262689       0.13715718       0.09445298       0.15580474       0.13935677
Cu       4.11304421       9.00591435      18.16517457       0.00000000       0.02279415       0.03536642       0.19732027      -0.00028127       0.00555582       0.16027484       0.00251475       0.06635485      -0.29638254
Cu       2.03021550      10.25804942      17.39628714       0.00000000       0.01770385       0.00319942       0.12384067       0.00638148       0.00375340       0.12663823       0.00641475       0.05460723      -0.02348499
Cu       2.03084118       2.57747344      17.39029608       0.00000000       0.01623740       0.00055072       0.12374336       0.00626380      -0.00357783       0.12541429       0.00614971      -0.02824131      -0.01733196
Cu       2.04702703       5.14257091      17.39853986       0.00000000       0.03300259       0.00918274       0.11449651       0.00484510      -0.00102018       0.11980361       0.03705373       0.04540110      -0.04026800
Cu       2.03246662       7.70643482      17.39510734       0.00000000       0.02006332       0.00294488       0.11421565       0.00481382       0.00139180       0.11785705       0.01937762      -0.06302629       0.00631471
Cu       6.26028345       1.28592276      16.72907838       0.00000000       0.00665106       0.00058155       0.09769216       0.00027657      -0.00082288       0.09896256       0.02685887      -0.00892735      -0.03279457
Cu       6.25867428       3.85491875      16.72103821       0.00000000       0.01215643      -0.00162450       0.08938626       0.00230185      -0.00184984       0.09219005       0.05832866      -0.00912841      -0.06896878
Cu       6.26130896       6.41512872      16.72441927       0.00000000       0.01097266      -0.00391186       0.08154546       0.00301628      -0.00049501       0.08956144       0.04127125       0.01289942       0.00217226
Cu       6.25375683       8.98200097      16.72176710       0.00000000       0.00783171       0.00609647       0.08798974       0.00209651       0.00335821       0.09219009       0.10298768       0.01447550      -0.08917925
Cu       4.19156295       0.00000000      15.99982400       0.00000000       0.00000000       0.00000000       0.00000000       0.06192391      -0.07112350      -0.44141036       0.07858647      -0.20994024      -0.27214550
Cu       4.19156295       2.56679762      15.99982400       0.00000000       0.00000000       0.00000000       0.00000000       0.05297905       0.11419804      -0.35384648       0.08268679       0.19616379      -0.31823019
Cu       4.19156295       5.13359523      15.99982400       0.00000000       0.00000000       0.00000000       0.00000000       0.05900986      -0.13311331      -0.33770242       0.04574930      -0.02049073      -0.11535496
Cu       4.19156295       7.70039285      15.99982400       0.00000000       0.00000000       0.00000000       0.00000000       0.05801479       0.10742465      -0.38893962       0.04842514       0.10264013      -0.24161021
Cu       2.09578148       1.28339881      15.24984600       0.00000000       0.00000000       0.00000000       0.00000000       0.00048632      -0.00343857      -0.28218406      -0.02922538      -0.00378298      -0.29960607
Cu       2.09578148       3.85019642      15.24984600       0.00000000       0.00000000       0.00000000       0.00000000      -0.00061921       0.00804541      -0.30329918       0.00273365       0.02287743      -0.26472269
Cu       2.09578148       6.41699404      15.24984600       0.00000000       0.00000000       0.00000000       0.00000000      -0.00074309      -0.00037610      -0.27205576       0.01464708       0.00465845      -0.29957829
Cu       2.09578148       8.98379165      15.24984600       0.00000000       0.00000000       0.00000000       0.00000000      -0.01600991       0.00012319      -0.30421989       0.00243130      -0.01694731      -0.25578255
Cu       0.00000000       0.00000000      14.49986800       0.00000000       0.00000000       0.00000000       0.00000000      -0.07594327       0.00144020      -0.19559528      -0.11364511       0.02183438      -0.21460790
Cu       0.00000000       2.56679762      14.49986800       0.00000000       0.00000000       0.00000000       0.00000000      -0.07373253      -0.00637915      -0.20418353      -0.12170721      -0.01288385      -0.21279684
Cu       0.00000000       5.13359523      14.49986800       0.00000000       0.00000000       0.00000000       0.00000000      -0.07379209       0.00687789      -0.21152136      -0.12450714       0.01640953      -0.22079783
Cu       0.00000000       7.70039285      14.49986800       0.00000000       0.00000000       0.00000000       0.00000000      -0.07529689      -0.00121401      -0.20111048      -0.12830476      -0.01643069      -0.22052837
Cu       4.19156295       1.28339881      13.74989000       0.00000000       0.00000000       0.00000000       0.00000000      -0.04484377      -0.00191267      -0.12686417      -0.08494104       0.00944696       0.01255453
Cu       4.19156295       3.85019642      13.74989000       0.00000000       0.00000000       0.00000000       0.00000000      -0.04401882       0.00090609      -0.12265299      -0.08161547      -0.02652937      -0.07339085
Cu       4.19156295       6.41699404      13.74989000       0.00000000       0.00000000       0.00000000       0.00000000      -0.04595061       0.00160258      -0.12485833      -0.08231743       0.00257802       0.03904664
Cu       4.19156295       8.98379165      13.74989000       0.00000000       0.00000000       0.00000000       0.00000000      -0.04511383      -0.00058981      -0.11901290      -0.08696364       0.00710904      -0.02150790
Cu       2.09578148       0.00000000      12.99991200       0.00000000       0.00000000       0.00000000       0.00000000      -0.07891370       0.00131338       0.17298813      -0.07394609       0.02121115       0.26541085
Cu       2.09578148       2.56679762      12.99991200       0.00000000       0.00000000       0.00000000       0.00000000      -0.07904428      -0.00088023       0.17157620      -0.06238928      -0.01105210       0.21447609
Cu       2.09578148       5.13359523      12.99991200       0.00000000       0.00000000       0.00000000       0.00000000      -0.07936235       0.00117273       0.17317221      -0.08567129       0.00960051       0.24880792
Cu       2.09578148       7.70039285      12.99991200       0.00000000       0.00000000       0.00000000       0.00000000      -0.07882221      -0.00155063       0.17481711      -0.08582754      -0.01451927       0.28572501
Cu      -0.00000000       1.28339881      12.24993400       0.00000000       0.00000000       0.00000000       0.00000000       0.11685821       0.00032239       0.43772558       0.10165843       0.01236149       0.68195756
Cu      -0.00000000       3.85019642      12.24993400       0.00000000       0.00000000       0.00000000       0.00000000       0.11684657       0.00031594       0.43809396       0.11982924      -0.01555859       0.69556524
Cu      -0.00000000       6.41699404      12.24993400       0.00000000       0.00000000       0.00000000       0.00000000       0.11637070      -0.00031061       0.43861545       0.09006469      -0.00691638       0.71122692
Cu      -0.00000000       8.98379165      12.24993400       0.00000000       0.00000000       0.00000000       0.00000000       0.11673402      -0.00031254       0.43721357       0.10099175       0.00770213       0.72532915
O        4.82542701       6.50615136      20.81865549       0.00000000      -0.01032171      -0.01298216      -0.02498558       0.02069763       0.00756210       0.01450907       0.09325229      -0.05023083       0.42196930
C        4.58741651       7.47886622      20.12605396       0.00000000      -0.09019147      -0.18997420      -0.34217282       0.01633350      -0.00604967       0.01891232       0.15813728      -0.38806800       0.54679318
H        4.63194838       4.73006322      20.46715421       0.00000000       0.00729070       0.04648320      -0.00811787       0.01719925      -0.00814079       0.02172860       0.05660306       0.02823568       0.27563844
O        4.52736201       8.72056259      20.14625603       0.00000000      -0.02709934      -0.11530401      -0.16916407       0.01531341      -0.00417773      -0.01208765      -0.34647535      -0.02336633      -1.25922358
O        4.44904212       3.81939299      20.11867878       0.50000000       0.00992746       0.01453128       0.05055518       0.01649050      -0.00924390       0.04317735       0.04238139       0.06255152      -0.00539844
H        5.22736727       3.26607718      20.30854609       0.50000000       0.02212948       0.03409304       0.01957130       0.01745568      -0.00418209       0.01812716       0.05348910       0.07693756       0.07552052
42
Lattice="6.2873444314750255 0.0 0.0 0.0 10.26719046282867 0.0 0.0 0.0 28.249757996450562" Properties=species:S:1:pos:R:3:initial_magmoms:R:1:MACE_forces:R:3:forces:R:3:DFT_forces:R:3 adsorbate_info="_JSON {\"top layer atom index\": 0, \"sites\": {}}" MACE_energy=-172.77669381575905 energy=-172.68390777786715 stress="0.007113738132670693 1.792224612788411e-05 -0.0002868335116124752 1.792224612788411e-05 0.008088443376786384 5.6695896194413424e-05 -0.0002868335116124752 5.6695896194413424e-05 0.0015478057087840054" free_energy=-172.68390777786715 DFT_energy=-174.2025521 pbc="T T T"
Cu       4.06183369       1.27700772      18.04727813       0.00000000      -0.00180757       0.00582331       0.14241138      -0.00824550       0.00143202       0.13805761       0.05115085      -0.05289523      -0.10739503
Cu       4.10997846       3.85660130      18.14060355       0.00000000       0.00671147      -0.00551893       0.15000658      -0.00549469      -0.00866168       0.14278076      -0.04197333       0.02035622      -0.40743068
Cu       4.10067484       6.46638873      18.11967930       0.00000000       0.04904711       0.06592650       0.25528311      -0.00648078       0.00262689       0.13715718       0.06656899       0.13460817       0.03329737
Cu       4.10792216       8.99887314      18.15872259       0.00000000       0.03181997       0.00904808       0.23530944      -0.00028127       0.00555582       0.16027484      -0.00925212       0.03878732      -0.31971488
Cu       2.02759275      10.25785404      17.39681557       0.00000000       0.01789802       0.00130149       0.12480318       0.00638148       0.00375340       0.12663823       0.01478967       0.05366612      -0.01069793
Cu       2.02928409       2.57674141      17.39054090       0.00000000       0.01454560      -0.00039819       0.12396451       0.00626380      -0.00357783       0.12541429       0.00747914      -0.03244291      -0.01482731
Cu       2.04177798       5.14043217      17.39947808       0.00000000       0.02869529       0.00898887       0.11585770       0.00484510      -0.00102018       0.11980361       0.03755115       0.04404647      -0.03724690
Cu       2.02893818       7.70613263      17.39588153       0.00000000       0.01732241       0.00247048       0.11344062       0.00481382       0.00139180       0.11785705       0.03429370      -0.06186337       0.02652828
Cu       6.25920759       1.28555901      16.72955803       0.00000000       0.00575358       0.00005895       0.09776338       0.00027657      -0.00082288       0.09896256       0.02578080      -0.00426116      -0.03050706
Cu       6.25731953       3.85463726      16.72111089       0.00000000       0.01071331      -0.00145129       0.08996986       0.00230185      -0.00184984       0.09219005       0.05973572      -0.01280951      -0.06769985
Cu       6.25948446       6.41558557      16.72627463       0.00000000       0.00942291      -0.00364757       0.08193509       0.00301628      -0.00049501       0.08956144       0.04218006       0.01375973       0.00389971
Cu       6.25218809       8.98143426      16.72296802       0.00000000       0.00637625       0.00531571       0.08859029       0.00209651       0.00335821       0.09219009       0.10225709       0.01267254      -0.07712644
Cu       4.19156295       0.00000000      15.99982400       0.00000000       0.00000000       0.00000000       0.00000000       0.06192391      -0.07112350      -0.44141036       0.07660520      -0.19384187      -0.28460887
Cu       4.19156295       2.56679762      15.99982400       0.00000000       0.00000000       0.00000000       0.00000000       0.05297905       0.11419804      -0.35384648       0.07897586       0.19254152      -0.32397065
Cu       4.19156295       5.13359523      15.99982400       0.00000000       0.00000000       0.00000000       0.00000000       0.05900986      -0.13311331      -0.33770242       0.04410030      -0.05496771      -0.15780374
Cu       4.19156295       7.70039285      15.99982400       0.00000000       0.00000000       0.00000000       0.00000000       0.05801479       0.10742465      -0.38893962       0.04906471       0.10648403      -0.25747469
Cu       2.09578148       1.28339881      15.24984600       0.00000000       0.00000000       0.00000000       0.00000000       0.00048632      -0.00343857      -0.28218406      -0.02962262      -0.00595814      -0.29948611
Cu       2.09578148       3.85019642      15.24984600       0.00000000       0.00000000       0.00000000       0.00000000      -0.00061921       0.00804541      -0.30329918       0.00270945       0.02240201      -0.26422016
Cu       2.09578148       6.41699404      15.24984600       0.00000000       0.00000000       0.00000000       0.00000000      -0.00074309      -0.00037610      -0.27205576       0.00715102       0.00510199      -0.30206006
Cu       2.09578148       8.98379165      15.24984600       0.00000000       0.00000000       0.00000000       0.00000000      -0.01600991       0.00012319      -0.30421989      -0.00427065      -0.01686728      -0.26535888
Cu       0.00000000       0.00000000      14.49986800       0.00000000       0.00000000       0.00000000       0.00000000      -0.07594327       0.00144020      -0.19559528      -0.11469976       0.02179854      -0.21122607
Cu       0.00000000       2.56679762      14.49986800       0.00000000       0.00000000       0.00000000       0.00000000      -0.07373253      -0.00637915      -0.20418353      -0.12123247      -0.01628458      -0.21424913
Cu       0.00000000       5.13359523      14.49986800       0.00000000       0.00000000       0.00000000       0.00000000      -0.07379209       0.00687789      -0.21152136      -0.12418298       0.01827542      -0.21851958
Cu       0.00000000       7.70039285      14.49986800       0.00000000       0.00000000       0.00000000       0.00000000      -0.07529689      -0.00121401      -0.20111048      -0.12730923      -0.01741949      -0.21914328
Cu       4.19156295       1.28339881      13.74989000       0.00000000       0.00000000       0.00000000       0.00000000      -0.04484377      -0.00191267      -0.12686417      -0.08607540       0.01027849       0.01433226
Cu       4.19156295       3.85019642      13.74989000       0.00000000       0.00000000       0.00000000       0.00000000      -0.04401882       0.00090609      -0.12265299      -0.08124271      -0.02637873      -0.07210158
Cu       4.19156295       6.41699404      13.74989000       0.00000000       0.00000000       0.00000000       0.00000000      -0.04595061       0.00160258      -0.12485833      -0.08628658       0.00552434       0.04528545
Cu       4.19156295       8.98379165      13.74989000       0.00000000       0.00000000       0.00000000       0.00000000      -0.04511383      -0.00058981      -0.11901290      -0.08976703       0.00305389      -0.01235542
Cu       2.09578148       0.00000000      12.99991200       0.00000000       0.00000000       0.00000000       0.00000000      -0.07891370       0.00131338       0.17298813      -0.07479012       0.02398890       0.26495219
Cu       2.09578148       2.56679762      12.99991200       0.00000000       0.00000000       0.00000000       0.00000000      -0.07904428      -0.00088023       0.17157620      -0.06724136      -0.01272247       0.21208834
Cu       2.09578148       5.13359523      12.99991200       0.00000000       0.00000000       0.00000000       0.00000000      -0.07936235       0.00117273       0.17317221      -0.08667442       0.01063979       0.24612273
Cu       2.09578148       7.70039285      12.99991200       0.00000000       0.00000000       0.00000000       0.00000000      -0.07882221      -0.00155063       0.17481711      -0.08523689      -0.01754502       0.28364549
Cu      -0.00000000       1.28339881      12.24993400       0.00000000       0.00000000       0.00000000       0.00000000       0.11685821       0.00032239       0.43772558       0.10408951       0.01663394       0.68139868
Cu      -0.00000000       3.85019642      12.24993400       0.00000000       0.00000000       0.00000000       0.00000000       0.11684657       0.00031594       0.43809396       0.12253563      -0.01672302       0.69353556
Cu      -0.00000000       6.41699404      12.24993400       0.00000000       0.00000000       0.00000000       0.00000000       0.11637070      -0.00031061       0.43861545       0.09214463      -0.00865316       0.70803404
Cu      -0.00000000       8.98379165      12.24993400       0.00000000       0.00000000       0.00000000       0.00000000       0.11673402      -0.00031254       0.43721357       0.09987222       0.00638265       0.72350845
O        4.83703203       6.51152631      20.83146356       0.00000000      -0.00355431      -0.00574673      -0.02602367       0.02069763       0.00756210       0.01450907       0.12774648      -0.08006887       0.51358394
C        4.61278828       7.52350697      20.21279217       0.00000000      -0.08776726      -0.14638354      -0.34173574       0.01633350      -0.00604967       0.01891232       0.17587951      -0.24915396       0.63069934
H        4.63786481       4.72004959      20.47048194       0.00000000       0.00942295       0.02992971      -0.00125061       0.01719925      -0.00814079       0.02172860       0.05650882       0.03219576       0.31963724
O        4.53789853       8.74776486      20.19052087       0.00000000      -0.02411077      -0.07146132      -0.14962544       0.01531341      -0.00417773      -0.01208765      -0.34813349       0.02106187      -1.26210550
O        4.45538358       3.81320695      20.12066805       0.50000000       0.01141716       0.00452206       0.04902005       0.01649050      -0.00924390       0.04317735       0.03980862       0.00299324      -0.02131550
H        5.23840590       3.26381773      20.30280518       0.50000000       0.02107462       0.02053656       0.01905701       0.01745568      -0.00418209       0.01812716       0.05901205       0.06360354       0.05809624
42
Lattice="6.2873444314750255 0.0 0.0 0.0 10.26719046282867 0.0 0.0 0.0 28.249757996450562" Properties=species:S:1:pos:R:3:initial_magmoms:R:1:MACE_forces:R:3:forces:R:3:DFT_forces:R:3 adsorbate_info="_JSON {\"top layer atom index\": 0, \"sites\": {}}" MACE_energy=-172.73574028782124 energy=-172.68390777786715 stress="0.007113738132670693 1.792224612788411e-05 -0.0002868335116124752 1.792224612788411e-05 0.008088443376786384 5.6695896194413424e-05 -0.0002868335116124752 5.6695896194413424e-05 0.0015478057087840054" free_energy=-172.68390777786715 DFT_energy=-174.14250341 pbc="T T T"
Cu       4.06049759       1.27625669      18.04675986       0.00000000      -0.00370286       0.00429149       0.14097325      -0.00824550       0.00143202       0.13805761       0.04898696      -0.05499086      -0.09997636
Cu       4.10843421       3.85557079      18.13973532       0.00000000       0.00363187      -0.00599637       0.14738890      -0.00549469      -0.00866168       0.14278076      -0.05202580       0.01923810      -0.43387543
Cu       4.09135512       6.45722311      18.10255916       0.00000000       0.03835665       0.05100334       0.23228617      -0.00648078       0.00262689       0.13715718       0.04297688       0.10665644      -0.05002561
Cu       4.10258924       8.99638735      18.14872564       0.00000000       0.03061160      -0.00048073       0.24064517      -0.00028127       0.00555582       0.16027484      -0.01804660       0.02003206      -0.34685383
Cu       2.02536470      10.25825864      17.39714355       0.00000000       0.01544800       0.00135276       0.12548389       0.00638148       0.00375340       0.12663823       0.01921748       0.05242305       0.00092187
Cu       2.02818861       2.57629725      17.39077163       0.00000000       0.01242561      -0.00115513       0.12424837       0.00626380      -0.00357783       0.12541429       0.00912246      -0.03539968      -0.01216067
Cu       2.03768181       5.13851330      17.40007166       0.00000000       0.02266839       0.00706009       0.11730460       0.00484510      -0.00102018       0.11980361       0.03740544       0.04277609      -0.03197235
Cu       2.02643716       7.70613628      17.39672774       0.00000000       0.01356126       0.00220217       0.11379153       0.00481382       0.00139180       0.11785705       0.04157603      -0.05966001       0.04310985
Cu       6.25839263       1.28534124      16.72990150       0.00000000       0.00438392      -0.00029036       0.09803383       0.00027657      -0.00082288       0.09896256       0.02376043       0.00226313      -0.02873052
Cu       6.25635849       3.85441239      16.72109882       0.00000000       0.00876436      -0.00145839       0.09040945       0.00230185      -0.00184984       0.09219005       0.06102343      -0.01642370      -0.06623931
Cu       6.25843445       6.41601005      16.72764514       0.00000000       0.00774963      -0.00288566       0.08331528       0.00301628      -0.00049501       0.08956144       0.04002299       0.01395630       0.00452277
Cu       6.25123728       8.98107455      16.72381433       0.00000000       0.00500307       0.00460430       0.08924986       0.00209651       0.00335821       0.09219009       0.10018108       0.01039361      -0.06534291
Cu       4.19156295       0.00000000      15.99982400       0.00000000       0.00000000       0.00000000       0.00000000       0.06192391      -0.07112350      -0.44141036       0.07461981      -0.17311511      -0.30722558
Cu       4.19156295       2.56679762      15.99982400       0.00000000       0.00000000       0.00000000       0.00000000       0.05297905       0.11419804      -0.35384648       0.07510953       0.19045145      -0.32921133
Cu       4.19156295       5.13359523      15.99982400       0.00000000       0.00000000       0.00000000       0.00000000       0.05900986      -0.13311331      -0.33770242       0.04387958      -0.08506690      -0.19826131
Cu       4.19156295       7.70039285      15.99982400       0.00000000       0.00000000       0.00000000       0.00000000       0.05801479       0.10742465      -0.38893962       0.05085388       0.10763114      -0.28428166
Cu       2.09578148       1.28339881      15.24984600       0.00000000       0.00000000       0.00000000       0.00000000       0.00048632      -0.00343857      -0.28218406      -0.03019742      -0.00703401      -0.29917325
Cu       2.09578148       3.85019642      15.24984600       0.00000000       0.00000000       0.00000000       0.00000000      -0.00061921       0.00804541      -0.30329918       0.00261227       0.02187793      -0.26414088
Cu       2.09578148       6.41699404      15.24984600       0.00000000       0.00000000       0.00000000       0.00000000      -0.00074309      -0.00037610      -0.27205576       0.00230434       0.00681386      -0.30318380
Cu       2.09578148       8.98379165      15.24984600       0.00000000       0.00000000       0.00000000       0.00000000      -0.01600991       0.00012319      -0.30421989      -0.00886506      -0.01633997      -0.27314191
Cu       0.00000000       0.00000000      14.49986800       0.00000000       0.00000000       0.00000000       0.00000000      -0.07594327       0.00144020      -0.19559528      -0.11535607       0.02142046      -0.20812234
Cu       0.00000000       2.56679762      14.49986800       0.00000000       0.00000000       0.00000000       0.00000000      -0.07373253      -0.00637915      -0.20418353      -0.12009616      -0.01926311      -0.21565750
Cu       0.00000000       5.13359523      14.49986800       0.00000000       0.00000000       0.00000000       0.00000000      -0.07379209       0.00687789      -0.21152136      -0.12307157       0.02000766      -0.21695052
Cu       0.00000000       7.70039285      14.49986800       0.00000000       0.00000000       0.00000000       0.00000000      -0.07529689      -0.00121401      -0.20111048      -0.12561339      -0.01735916      -0.21720384
Cu       4.19156295       1.28339881      13.74989000       0.00000000       0.00000000       0.00000000       0.00000000      -0.04484377      -0.00191267      -0.12686417      -0.08600113       0.01152195       0.01591161
Cu       4.19156295       3.85019642      13.74989000       0.00000000       0.00000000       0.00000000       0.00000000      -0.04401882       0.00090609      -0.12265299      -0.08023149      -0.02568462      -0.07131682
Cu       4.19156295       6.41699404      13.74989000       0.00000000       0.00000000       0.00000000       0.00000000      -0.04595061       0.00160258      -0.12485833      -0.08917541       0.00771074       0.04824938
Cu       4.19156295       8.98379165      13.74989000       0.00000000       0.00000000       0.00000000       0.00000000      -0.04511383      -0.00058981      -0.11901290      -0.09178858      -0.00015702      -0.00453947
Cu       2.09578148       0.00000000      12.99991200       0.00000000       0.00000000       0.00000000       0.00000000      -0.07891370       0.00131338       0.17298813      -0.07640956       0.02541167       0.26395952
Cu       2.09578148       2.56679762      12.99991200       0.00000000       0.00000000       0.00000000       0.00000000      -0.07904428      -0.00088023       0.17157620      -0.07282041      -0.01343299       0.20969363
Cu       2.09578148       5.13359523      12.99991200       0.00000000       0.00000000       0.00000000       0.00000000      -0.07936235       0.00117273       0.17317221      -0.08840308       0.01088971       0.24332854
Cu       2.09578148       7.70039285      12.99991200       0.00000000       0.00000000       0.00000000       0.00000000      -0.07882221      -0.00155063       0.17481711      -0.08581853      -0.01881312       0.28083899
Cu      -0.00000000       1.28339881      12.24993400       0.00000000       0.00000000       0.00000000       0.00000000       0.11685821       0.00032239       0.43772558       0.10606212       0.02138502       0.67975148
Cu      -0.00000000       3.85019642      12.24993400       0.00000000       0.00000000       0.00000000       0.00000000       0.11684657       0.00031594       0.43809396       0.12484301      -0.01743906       0.69077795
Cu      -0.00000000       6.41699404      12.24993400       0.00000000       0.00000000       0.00000000       0.00000000       0.11637070      -0.00031061       0.43861545       0.09364448      -0.01001359       0.70242831
Cu      -0.00000000       8.98379165      12.24993400       0.00000000       0.00000000       0.00000000       0.00000000       0.11673402      -0.00031254       0.43721357       0.09864044       0.00481723       0.71994215
O        4.84543756       6.51473087      20.84321746       0.00000000       0.00283099      -0.00402091      -0.02446487       0.02069763       0.00756210       0.01450907       0.14669632      -0.14555692       0.53176119
C        4.63330587       7.55346888      20.28430408       0.00000000      -0.06520194      -0.10267492      -0.26432922       0.01633350      -0.00604967       0.01891232       0.17361943      -0.16673315       0.64596211
H        4.64168526       4.71468339      20.47207217       0.00000000       0.01081328       0.01395660       0.00424429       0.01719925      -0.00814079       0.02172860       0.05593213       0.03324875       0.35822003
O        4.54559473       8.76302468      20.22294272       0.00000000      -0.01972814      -0.03972969      -0.12597615       0.01531341      -0.00417773      -0.01208765      -0.31182960       0.12245434      -1.12152537
O        4.46068219       3.81011837      20.12155590       0.50000000       0.01221406      -0.00479767       0.04866852       0.01649050      -0.00924390       0.04317735       0.03822999      -0.04262829      -0.03390285
H        5.24772361       3.26476139      20.29861110       0.50000000       0.02057337       0.01004791       0.01800961       0.01745568      -0.00418209       0.01812716       0.06442934       0.05173057       0.04363604
42
Lattice="6.2873444314750255 0.0 0.0 0.0 10.26719046282867 0.0 0.0 0.0 28.249757996450562" Properties=species:S:1:pos:R:3:initial_magmoms:R:1:MACE_forces:R:3:forces:R:3:DFT_forces:R:3 adsorbate_info="_JSON {\"top layer atom index\": 0, \"sites\": {}}" MACE_energy=-172.71212949986824 energy=-172.68390777786715 stress="0.007113738132670693 1.792224612788411e-05 -0.0002868335116124752 1.792224612788411e-05 0.008088443376786384 5.6695896194413424e-05 -0.0002868335116124752 5.6695896194413424e-05 0.0015478057087840054" free_energy=-172.68390777786715 DFT_energy=-174.11057308 pbc="T T T"
Cu       4.05968258       1.27570895      18.04647316       0.00000000      -0.00532492       0.00360007       0.13989689      -0.00824550       0.00143202       0.13805761       0.04756746      -0.05551725      -0.09077588
Cu       4.10738142       3.85460909      18.13910041       0.00000000       0.00115960      -0.00621403       0.14524292      -0.00549469      -0.00866168       0.14278076      -0.05886924       0.01909524      -0.45443758
Cu       4.08405755       6.45053497      18.08932723       0.00000000       0.02611844       0.03573851       0.20368332      -0.00648078       0.00262689       0.13715718       0.03075083       0.08909061      -0.08420701
Cu       4.09804403       8.99559735      18.13980042       0.00000000       0.02432885       0.00031814       0.22759011      -0.00028127       0.00555582       0.16027484      -0.02573395       0.00788008      -0.37316685
Cu       2.02368489      10.25879837      17.39733481       0.00000000       0.01281422       0.00172609       0.12600045       0.00638148       0.00375340       0.12663823       0.02069948       0.05027698       0.01022688
Cu       2.02740327       2.57593389      17.39095628       0.00000000       0.01073158      -0.00168693       0.12442704       0.00626380      -0.00357783       0.12541429       0.01104459      -0.03628163      -0.01148989
Cu       2.03456651       5.13684357      17.40035012       0.00000000       0.01819653       0.00567640       0.11858582       0.00484510      -0.00102018       0.11980361       0.03629939       0.04079796      -0.02813488
Cu       2.02468274       7.70618955      17.39744442       0.00000000       0.01080859       0.00186788       0.11468653       0.00481382       0.00139180       0.11785705       0.04454066      -0.05561562       0.05342545
Cu       6.25778887       1.28522561      16.73012327       0.00000000       0.00319823      -0.00062700       0.09830374       0.00027657      -0.00082288       0.09896256       0.02137970       0.00767368      -0.02838057
Cu       6.25559280       3.85418019      16.72106746       0.00000000       0.00727725      -0.00146643       0.09064813       0.00230185      -0.00184984       0.09219005       0.06180015      -0.01882043      -0.06545561
Cu       6.25775488       6.41632949      16.72856352       0.00000000       0.00597681      -0.00214224       0.08507935       0.00301628      -0.00049501       0.08956144       0.03661936       0.01264029       0.00343411
Cu       6.25064282       8.98091026      16.72441344       0.00000000       0.00376199       0.00397874       0.09003319       0.00209651       0.00335821       0.09219009       0.09723892       0.00829744      -0.05577498
Cu       4.19156295       0.00000000      15.99982400       0.00000000       0.00000000       0.00000000       0.00000000       0.06192391      -0.07112350      -0.44141036       0.07301039      -0.15516061      -0.32965373
Cu       4.19156295       2.56679762      15.99982400       0.00000000       0.00000000       0.00000000       0.00000000       0.05297905       0.11419804      -0.35384648       0.07159581       0.18880878      -0.33319179
Cu       4.19156295       5.13359523      15.99982400       0.00000000       0.00000000       0.00000000       0.00000000       0.05900986      -0.13311331      -0.33770242       0.04407897      -0.10933662      -0.23166090
Cu       4.19156295       7.70039285      15.99982400       0.00000000       0.00000000       0.00000000       0.00000000       0.05801479       0.10742465      -0.38893962       0.05267804       0.10777151      -0.31091544
Cu       2.09578148       1.28339881      15.24984600       0.00000000       0.00000000       0.00000000       0.00000000       0.00048632      -0.00343857      -0.28218406      -0.03045145      -0.00811498      -0.29915495
Cu       2.09578148       3.85019642      15.24984600       0.00000000       0.00000000       0.00000000       0.00000000      -0.00061921       0.00804541      -0.30329918       0.00249334       0.02071962      -0.26459007
Cu       2.09578148       6.41699404      15.24984600       0.00000000       0.00000000       0.00000000       0.00000000      -0.00074309      -0.00037610      -0.27205576      -0.00055459       0.00819626      -0.30360652
Cu       2.09578148       8.98379165      15.24984600       0.00000000       0.00000000       0.00000000       0.00000000      -0.01600991       0.00012319      -0.30421989      -0.01150673      -0.01570131      -0.27919246
Cu       0.00000000       0.00000000      14.49986800       0.00000000       0.00000000       0.00000000       0.00000000      -0.07594327       0.00144020      -0.19559528      -0.11573543       0.02058082      -0.20560140
Cu       0.00000000       2.56679762      14.49986800       0.00000000       0.00000000       0.00000000       0.00000000      -0.07373253      -0.00637915      -0.20418353      -0.11894942      -0.02172263      -0.21671285
Cu       0.00000000       5.13359523      14.49986800       0.00000000       0.00000000       0.00000000       0.00000000      -0.07379209       0.00687789      -0.21152136      -0.12172455       0.02080557      -0.21588520
Cu       0.00000000       7.70039285      14.49986800       0.00000000       0.00000000       0.00000000       0.00000000      -0.07529689      -0.00121401      -0.20111048      -0.12384433      -0.01686812      -0.21514230
Cu       4.19156295       1.28339881      13.74989000       0.00000000       0.00000000       0.00000000       0.00000000      -0.04484377      -0.00191267      -0.12686417      -0.08516890       0.01197051       0.01704527
Cu       4.19156295       3.85019642      13.74989000       0.00000000       0.00000000       0.00000000       0.00000000      -0.04401882       0.00090609      -0.12265299      -0.07869528      -0.02444639      -0.07079599
Cu       4.19156295       6.41699404      13.74989000       0.00000000       0.00000000       0.00000000       0.00000000      -0.04595061       0.00160258      -0.12485833      -0.09086496       0.00825654       0.04982715
Cu       4.19156295       8.98379165      13.74989000       0.00000000       0.00000000       0.00000000       0.00000000      -0.04511383      -0.00058981      -0.11901290      -0.09308958      -0.00237572       0.00134793
Cu       2.09578148       0.00000000      12.99991200       0.00000000       0.00000000       0.00000000       0.00000000      -0.07891370       0.00131338       0.17298813      -0.07798836       0.02507380       0.26255560
Cu       2.09578148       2.56679762      12.99991200       0.00000000       0.00000000       0.00000000       0.00000000      -0.07904428      -0.00088023       0.17157620      -0.07755745      -0.01326600       0.20722757
Cu       2.09578148       5.13359523      12.99991200       0.00000000       0.00000000       0.00000000       0.00000000      -0.07936235       0.00117273       0.17317221      -0.09001478       0.00977272       0.24006305
Cu       2.09578148       7.70039285      12.99991200       0.00000000       0.00000000       0.00000000       0.00000000      -0.07882221      -0.00155063       0.17481711      -0.08679556      -0.01865016       0.27812261
Cu      -0.00000000       1.28339881      12.24993400       0.00000000       0.00000000       0.00000000       0.00000000       0.11685821       0.00032239       0.43772558       0.10731897       0.02514931       0.67789803
Cu      -0.00000000       3.85019642      12.24993400       0.00000000       0.00000000       0.00000000       0.00000000       0.11684657       0.00031594       0.43809396       0.12687130      -0.01773181       0.68849787
Cu      -0.00000000       6.41699404      12.24993400       0.00000000       0.00000000       0.00000000       0.00000000       0.11637070      -0.00031061       0.43861545       0.09512893      -0.01150111       0.69680787
Cu      -0.00000000       8.98379165      12.24993400       0.00000000       0.00000000       0.00000000       0.00000000       0.11673402      -0.00031254       0.43721357       0.09783608       0.00303496       0.71606971
O        4.85036652       6.51741720      20.85451908       0.00000000       0.00943138      -0.01391917      -0.01716189       0.02069763       0.00756210       0.01450907       0.14238561      -0.19344011       0.49129758
C        4.64781291       7.57394041      20.33966897       0.00000000      -0.04145388      -0.06041769      -0.17889577       0.01633350      -0.00604967       0.01891232       0.16116364      -0.06774104       0.61220754
H        4.64363118       4.71218359      20.47317466       0.00000000       0.01191863       0.00273648       0.00708475       0.01719925      -0.00814079       0.02172860       0.05333715       0.03409794       0.38955834
O        4.55072022       8.77135984      20.24743969       0.00000000      -0.01502311      -0.02234690      -0.10402789       0.01531341      -0.00417773      -0.01208765      -0.25503117       0.15301677      -0.91687331
O        4.46393445       3.80914187      20.12179487       0.50000000       0.01252979      -0.01135839       0.04964715       0.01649050      -0.00924390       0.04317735       0.03766083      -0.07415028      -0.04395156
H        5.25315872       3.26613117      20.29647538       0.50000000       0.02012569       0.00395653       0.01709788       0.01745568      -0.00418209       0.01812716       0.06907614       0.04343443       0.03313913
42
Lattice="6.2873444314750255 0.0 0.0 0.0 10.26719046282867 0.0 0.0 0.0 28.249757996450562" Properties=species:S:1:pos:R:3:initial_magmoms:R:1:MACE_forces:R:3:forces:R:3:DFT_forces:R:3 adsorbate_info="_JSON {\"top layer atom index\": 0, \"sites\": {}}" MACE_energy=-172.6916590432176 energy=-172.68390777786715 stress="0.007113738132670693 1.792224612788411e-05 -0.0002868335116124752 1.792224612788411e-05 0.008088443376786384 5.6695896194413424e-05 -0.0002868335116124752 5.6695896194413424e-05 0.0015478057087840054" free_energy=-172.68390777786715 DFT_energy=-174.08954551 pbc="T T T"
Cu       4.05857069       1.27471641      18.04625864       0.00000000      -0.00705193       0.00276031       0.13865251      -0.00824550       0.00143202       0.13805761       0.04897070      -0.05700519      -0.07120686
Cu       4.10638335       3.85301673      18.13849305       0.00000000      -0.00241037      -0.00795355       0.14300140      -0.00549469      -0.00866168       0.14278076      -0.06919577       0.01636120      -0.47972889
Cu       4.07305692       6.44092584      18.06959134       0.00000000       0.00659494       0.01393261       0.15911883      -0.00648078       0.00262689       0.13715718       0.01166993       0.06956892      -0.11406023
Cu       4.09158561       8.99488686      18.12795273       0.00000000       0.01254188       0.00309641       0.19936799      -0.00028127       0.00555582       0.16027484      -0.03556873       0.00368071      -0.40873016
Cu       2.02151784      10.25947618      17.39762373       0.00000000       0.00894042       0.00296011       0.12638873       0.00638148       0.00375340       0.12663823       0.02243778       0.04442369       0.02548447
Cu       2.02654587       2.57541940      17.39127030       0.00000000       0.00838796      -0.00261624       0.12486752       0.00626380      -0.00357783       0.12541429       0.01262830      -0.03657444      -0.00860171
Cu       2.03031947       5.13432042      17.40058459       0.00000000       0.01097018       0.00220144       0.11952913       0.00484510      -0.00102018       0.11980361       0.03044634       0.03635050      -0.01904891
Cu       2.02223615       7.70640880      17.39858341       0.00000000       0.00763608       0.00174910       0.11641065       0.00481382       0.00139180       0.11785705       0.04314388      -0.04748031       0.06764395
Cu       6.25699460       1.28503789      16.73046334       0.00000000       0.00169098      -0.00086126       0.09864810       0.00027657      -0.00082288       0.09896256       0.01788660       0.01409483      -0.02648549
Cu       6.25467042       3.85371714      16.72074647       0.00000000       0.00491379      -0.00156291       0.09135141       0.00230185      -0.00184984       0.09219005       0.06234587      -0.02003599      -0.06229339
Cu       6.25675943       6.41673322      16.72982658       0.00000000       0.00463181      -0.00124394       0.08724562       0.00301628      -0.00049501       0.08956144       0.03126361       0.00797999       0.00100654
Cu       6.24969419       8.98079844      16.72538167       0.00000000       0.00276412       0.00347924       0.09113158       0.00209651       0.00335821       0.09219009       0.09235119       0.00742822      -0.03961682
Cu       4.19156295       0.00000000      15.99982400       0.00000000       0.00000000       0.00000000       0.00000000       0.06192391      -0.07112350      -0.44141036       0.07098294      -0.12912479      -0.36243126
Cu       4.19156295       2.56679762      15.99982400       0.00000000       0.00000000       0.00000000       0.00000000       0.05297905       0.11419804      -0.35384648       0.06769962       0.18594620      -0.33761762
Cu       4.19156295       5.13359523      15.99982400       0.00000000       0.00000000       0.00000000       0.00000000       0.05900986      -0.13311331      -0.33770242       0.04548943      -0.14633678      -0.28500281
Cu       4.19156295       7.70039285      15.99982400       0.00000000       0.00000000       0.00000000       0.00000000       0.05801479       0.10742465      -0.38893962       0.05583939       0.11092933      -0.35393265
Cu       2.09578148       1.28339881      15.24984600       0.00000000       0.00000000       0.00000000       0.00000000       0.00048632      -0.00343857      -0.28218406      -0.02977660      -0.01085747      -0.29791896
Cu       2.09578148       3.85019642      15.24984600       0.00000000       0.00000000       0.00000000       0.00000000      -0.00061921       0.00804541      -0.30329918       0.00198170       0.01873829      -0.26603462
Cu       2.09578148       6.41699404      15.24984600       0.00000000       0.00000000       0.00000000       0.00000000      -0.00074309      -0.00037610      -0.27205576      -0.00489477       0.01004197      -0.30056517
Cu       2.09578148       8.98379165      15.24984600       0.00000000       0.00000000       0.00000000       0.00000000      -0.01600991       0.00012319      -0.30421989      -0.01455391      -0.01308652      -0.28684829
Cu       0.00000000       0.00000000      14.49986800       0.00000000       0.00000000       0.00000000       0.00000000      -0.07594327       0.00144020      -0.19559528      -0.11671340       0.01796812      -0.19947601
Cu       0.00000000       2.56679762      14.49986800       0.00000000       0.00000000       0.00000000       0.00000000      -0.07373253      -0.00637915      -0.20418353      -0.11742109      -0.02515789      -0.21647464
Cu       0.00000000       5.13359523      14.49986800       0.00000000       0.00000000       0.00000000       0.00000000      -0.07379209       0.00687789      -0.21152136      -0.12000945       0.02284769      -0.21269475
Cu       0.00000000       7.70039285      14.49986800       0.00000000       0.00000000       0.00000000       0.00000000      -0.07529689      -0.00121401      -0.20111048      -0.12120684      -0.01534030      -0.20879295
Cu       4.19156295       1.28339881      13.74989000       0.00000000       0.00000000       0.00000000       0.00000000      -0.04484377      -0.00191267      -0.12686417      -0.08394975       0.01105447       0.01682159
Cu       4.19156295       3.85019642      13.74989000       0.00000000       0.00000000       0.00000000       0.00000000      -0.04401882       0.00090609      -0.12265299      -0.07486440      -0.02001419      -0.07192257
Cu       4.19156295       6.41699404      13.74989000       0.00000000       0.00000000       0.00000000       0.00000000      -0.04595061       0.00160258      -0.12485833      -0.09011687       0.00620536       0.04860771
Cu       4.19156295       8.98379165      13.74989000       0.00000000       0.00000000       0.00000000       0.00000000      -0.04511383      -0.00058981      -0.11901290      -0.09361995      -0.00376433       0.00879908
Cu       2.09578148       0.00000000      12.99991200       0.00000000       0.00000000       0.00000000       0.00000000      -0.07891370       0.00131338       0.17298813      -0.07919210       0.02500313       0.25932933
Cu       2.09578148       2.56679762      12.99991200       0.00000000       0.00000000       0.00000000       0.00000000      -0.07904428      -0.00088023       0.17157620      -0.08129547      -0.01335561       0.20195934
Cu       2.09578148       5.13359523      12.99991200       0.00000000       0.00000000       0.00000000       0.00000000      -0.07936235       0.00117273       0.17317221      -0.09013980       0.00773508       0.23161478
Cu       2.09578148       7.70039285      12.99991200       0.00000000       0.00000000       0.00000000       0.00000000      -0.07882221      -0.00155063       0.17481711      -0.08675237      -0.01749154       0.27161308
Cu      -0.00000000       1.28339881      12.24993400       0.00000000       0.00000000       0.00000000       0.00000000       0.11685821       0.00032239       0.43772558       0.10692649       0.02970957       0.67374230
Cu      -0.00000000       3.85019642      12.24993400       0.00000000       0.00000000       0.00000000       0.00000000       0.11684657       0.00031594       0.43809396       0.12889972      -0.01687333       0.68631557
Cu      -0.00000000       6.41699404      12.24993400       0.00000000       0.00000000       0.00000000       0.00000000       0.11637070      -0.00031061       0.43861545       0.09694760      -0.01384616       0.68897218
Cu      -0.00000000       8.98379165      12.24993400       0.00000000       0.00000000       0.00000000       0.00000000       0.11673402      -0.00031254       0.43721357       0.09598414       0.00098780       0.70783545
O        4.85938444       6.52296267      20.87557097       0.00000000       0.01273583       0.01964243      -0.01340176       0.02069763       0.00756210       0.01450907       0.11714027      -0.19492392       0.36841782
C        4.66962531       7.60213615      20.42169269       0.00000000      -0.00587209      -0.02265069      -0.04909414       0.01633350      -0.00604967       0.01891232       0.13454692      -0.01648663       0.52265203
H        4.64766982       4.71139482      20.47320633       0.00000000       0.01364494      -0.00821698       0.01275620       0.01719925      -0.00814079       0.02172860       0.04976169       0.03821469       0.42835294
O        4.55880847       8.78319648      20.28516713       0.00000000      -0.00124211      -0.03349426      -0.05653344       0.01531341      -0.00417773      -0.01208765      -0.15021310       0.19420479      -0.54361851
O        4.47133023       3.80906131      20.12234841       0.50000000       0.01254533      -0.01471811       0.04647649       0.01649050      -0.00924390       0.04317735       0.03723312      -0.11285246      -0.05584431
H        5.26596446       3.27222219      20.29175360       0.50000000       0.01980350      -0.00290000       0.01721974       0.01745568      -0.00418209       0.01812716       0.07690713       0.03113332       0.01977941
42
Lattice="6.2873444314750255 0.0 0.0 0.0 10.26719046282867 0.0 0.0 0.0 28.249757996450562" Properties=species:S:1:pos:R:3:initial_magmoms:R:1:MACE_forces:R:3:forces:R:3:DFT_forces:R:3 adsorbate_info="_JSON {\"top layer atom index\": 0, \"sites\": {}}" MACE_energy=-172.68536669893854 energy=-172.68390777786715 stress="0.007113738132670693 1.792224612788411e-05 -0.0002868335116124752 1.792224612788411e-05 0.008088443376786384 5.6695896194413424e-05 -0.0002868335116124752 5.6695896194413424e-05 0.0015478057087840054" free_energy=-172.68390777786715 DFT_energy=-174.13110294 pbc="T T T"
Cu       4.05729539       1.27155947      18.04710230       0.00000000      -0.00773219       0.00090804       0.13873399      -0.00824550       0.00143202       0.13805761       0.05639777      -0.05670409      -0.03890841
Cu       4.10618428       3.85098791      18.13840829       0.00000000      -0.00481997      -0.00864372       0.14310128      -0.00549469      -0.00866168       0.14278076      -0.08047427       0.01262573      -0.50181873
Cu       4.05615961       6.43038885      18.04480386       0.00000000      -0.00373848       0.00619941       0.14390189      -0.00648078       0.00262689       0.13715718       0.01617207       0.05619524      -0.10895063
Cu       4.08194526       8.99195139      18.11645820       0.00000000       0.00123130       0.00499611       0.16551946      -0.00028127       0.00555582       0.16027484      -0.02818263       0.00387050      -0.39125994
Cu       2.01892501      10.26027528      17.39818596       0.00000000       0.00694518       0.00381812       0.12653203       0.00638148       0.00375340       0.12663823       0.02089459       0.03200136       0.05264651
Cu       2.02615771       2.57436827      17.39224058       0.00000000       0.00712088      -0.00348964       0.12544216       0.00626380      -0.00357783       0.12541429       0.01254061      -0.03307508       0.00393563
Cu       2.02421488       5.12985640      17.40039217       0.00000000       0.00656240      -0.00059892       0.11971170       0.00484510      -0.00102018       0.11980361       0.01911187       0.02933728      -0.00091915
Cu       2.01854631       7.70711132      17.40109851       0.00000000       0.00513457       0.00117585       0.11775460       0.00481382       0.00139180       0.11785705       0.03160225      -0.03434528       0.08317119
Cu       6.25590435       1.28462414      16.73122388       0.00000000       0.00057582      -0.00068096       0.09886094       0.00027657      -0.00082288       0.09896256       0.01069436       0.02059671      -0.01934692
Cu       6.25368397       3.85246628      16.71945406       0.00000000       0.00272084      -0.00198664       0.09202171       0.00230185      -0.00184984       0.09219005       0.05994300      -0.01918370      -0.05400162
Cu       6.25499871       6.41721180      16.73231323       0.00000000       0.00320369      -0.00088655       0.08907483       0.00301628      -0.00049501       0.08956144       0.01966276      -0.00374720      -0.00333766
Cu       6.24769447       8.98095738      16.72862018       0.00000000       0.00225927       0.00356224       0.09202179       0.00209651       0.00335821       0.09219009       0.07947578       0.00667561      -0.01688304
Cu       4.19156295       0.00000000      15.99982400       0.00000000       0.00000000       0.00000000       0.00000000       0.06192391      -0.07112350      -0.44141036       0.06922791      -0.09849528      -0.40384185
Cu       4.19156295       2.56679762      15.99982400       0.00000000       0.00000000       0.00000000       0.00000000       0.05297905       0.11419804      -0.35384648       0.06309454       0.17707609      -0.33503547
Cu       4.19156295       5.13359523      15.99982400       0.00000000       0.00000000       0.00000000       0.00000000       0.05900986      -0.13311331      -0.33770242       0.04912404      -0.19327968      -0.35629252
Cu       4.19156295       7.70039285      15.99982400       0.00000000       0.00000000       0.00000000       0.00000000       0.05801479       0.10742465      -0.38893962       0.06247336       0.11468576      -0.41441249
Cu       2.09578148       1.28339881      15.24984600       0.00000000       0.00000000       0.00000000       0.00000000       0.00048632      -0.00343857      -0.28218406      -0.02703947      -0.01481849      -0.29370472
Cu       2.09578148       3.85019642      15.24984600       0.00000000       0.00000000       0.00000000       0.00000000      -0.00061921       0.00804541      -0.30329918      -0.00069540       0.01208285      -0.27399849
Cu       2.09578148       6.41699404      15.24984600       0.00000000       0.00000000       0.00000000       0.00000000      -0.00074309      -0.00037610      -0.27205576      -0.01369675       0.01416776      -0.28725760
Cu       2.09578148       8.98379165      15.24984600       0.00000000       0.00000000       0.00000000       0.00000000      -0.01600991       0.00012319      -0.30421989      -0.01959950      -0.01031754      -0.29304295
Cu       0.00000000       0.00000000      14.49986800       0.00000000       0.00000000       0.00000000       0.00000000      -0.07594327       0.00144020      -0.19559528      -0.12031118       0.01080226      -0.18737824
Cu       0.00000000       2.56679762      14.49986800       0.00000000       0.00000000       0.00000000       0.00000000      -0.07373253      -0.00637915      -0.20418353      -0.11592239      -0.02665104      -0.21428694
Cu       0.00000000       5.13359523      14.49986800       0.00000000       0.00000000       0.00000000       0.00000000      -0.07379209       0.00687789      -0.21152136      -0.11878546       0.02638012      -0.20561387
Cu       0.00000000       7.70039285      14.49986800       0.00000000       0.00000000       0.00000000       0.00000000      -0.07529689      -0.00121401      -0.20111048      -0.11954874      -0.00983609      -0.19433315
Cu       4.19156295       1.28339881      13.74989000       0.00000000       0.00000000       0.00000000       0.00000000      -0.04484377      -0.00191267      -0.12686417      -0.07882973       0.01079874       0.01246305
Cu       4.19156295       3.85019642      13.74989000       0.00000000       0.00000000       0.00000000       0.00000000      -0.04401882       0.00090609      -0.12265299      -0.06601436      -0.01282508      -0.07220906
Cu       4.19156295       6.41699404      13.74989000       0.00000000       0.00000000       0.00000000       0.00000000      -0.04595061       0.00160258      -0.12485833      -0.08171553       0.00134612       0.03706709
Cu       4.19156295       8.98379165      13.74989000       0.00000000       0.00000000       0.00000000       0.00000000      -0.04511383      -0.00058981      -0.11901290      -0.08747105      -0.00361766       0.02004058
Cu       2.09578148       0.00000000      12.99991200       0.00000000       0.00000000       0.00000000       0.00000000      -0.07891370       0.00131338       0.17298813      -0.07912871       0.02607945       0.25157040
Cu       2.09578148       2.56679762      12.99991200       0.00000000       0.00000000       0.00000000       0.00000000      -0.07904428      -0.00088023       0.17157620      -0.07815327      -0.01379542       0.19659419
Cu       2.09578148       5.13359523      12.99991200       0.00000000       0.00000000       0.00000000       0.00000000      -0.07936235       0.00117273       0.17317221      -0.08306331       0.00553404       0.21537723
Cu       2.09578148       7.70039285      12.99991200       0.00000000       0.00000000       0.00000000       0.00000000      -0.07882221      -0.00155063       0.17481711      -0.08398005      -0.01786968       0.25888669
Cu      -0.00000000       1.28339881      12.24993400       0.00000000       0.00000000       0.00000000       0.00000000       0.11685821       0.00032239       0.43772558       0.09820291       0.02917321       0.67328152
Cu      -0.00000000       3.85019642      12.24993400       0.00000000       0.00000000       0.00000000       0.00000000       0.11684657       0.00031594       0.43809396       0.12582717      -0.01301622       0.68746344
Cu      -0.00000000       6.41699404      12.24993400       0.00000000       0.00000000       0.00000000       0.00000000       0.11637070      -0.00031061       0.43861545       0.09554862      -0.01638555       0.68264056
Cu      -0.00000000       8.98379165      12.24993400       0.00000000       0.00000000       0.00000000       0.00000000       0.11673402      -0.00031254       0.43721357       0.09024101      -0.00136462       0.69700519
O        4.87879421       6.54259213      20.94335028       0.00000000       0.02814085      -0.04235592       0.03548840       0.02069763       0.00756210       0.01450907       0.07677903      -0.25892978       0.19593113
C        4.70541962       7.65093397      20.58299219       0.00000000       0.00071686       0.06836740      -0.01029285       0.01633350      -0.00604967       0.01891232       0.07943716      -0.02294825       0.30628048
H        4.65323071       4.72484154      20.47289047       0.00000000       0.01898362      -0.00607437       0.01977574       0.01719925      -0.00814079       0.02172860       0.05436963       0.06305505       0.46899374
O        4.57208735       8.80925933      20.38559684       0.00000000       0.01783087      -0.03361146       0.00103723       0.01531341      -0.00417773      -0.01208765      -0.03122042       0.35011794      -0.10859026
O        4.49846513       3.81990668      20.12133752       0.50000000       0.01600820      -0.00619089       0.04362310       0.01649050      -0.00924390       0.04317735       0.03827968      -0.15879473      -0.07207703
H        5.31319682       3.30948731      20.27754887       0.50000000       0.01461288      -0.00441714       0.01940978       0.01745568      -0.00418209       0.01812716       0.08473208       0.01739862       0.00415214
42
Lattice="6.2873444314750255 0.0 0.0 0.0 10.26719046282867 0.0 0.0 0.0 28.249757996450562" Properties=species:S:1:pos:R:3:initial_magmoms:R:1:MACE_forces:R:3:forces:R:3:DFT_forces:R:3 adsorbate_info="_JSON {\"top layer atom index\": 0, \"sites\": {}}" MACE_energy=-172.68390777786715 energy=-172.68390777786715 stress="0.007113738132670693 1.792224612788411e-05 -0.0002868335116124752 1.792224612788411e-05 0.008088443376786384 5.6695896194413424e-05 -0.0002868335116124752 5.6695896194413424e-05 0.0015478057087840054" free_energy=-172.68390777786715 DFT_energy=-174.12700259 pbc="T T T"
Cu       4.05940245       1.27125839      18.04757646       0.00000000      -0.00824550       0.00143202       0.13805761      -0.00824550       0.00143202       0.13805761       0.05348477      -0.05607546      -0.04208871
Cu       4.10552896       3.85139286      18.13858178       0.00000000      -0.00549469      -0.00866168       0.14278076      -0.00549469      -0.00866168       0.14278076      -0.07260815       0.01152884      -0.50647123
Cu       4.05916910       6.43188817      18.04624128       0.00000000      -0.00648078       0.00262689       0.13715718      -0.00648078       0.00262689       0.13715718       0.01338869       0.05234529      -0.11681244
Cu       4.08197825       8.99201555      18.11782172       0.00000000      -0.00028127       0.00555582       0.16027484      -0.00028127       0.00555582       0.16027484      -0.02413155       0.00341037      -0.39133477
Cu       2.01988001      10.26041354      17.39798485       0.00000000       0.00638148       0.00375340       0.12663823       0.00638148       0.00375340       0.12663823       0.01911770       0.03205573       0.05467912
Cu       2.02673384       2.57406248      17.39174035       0.00000000       0.00626380      -0.00357783       0.12541429       0.00626380      -0.00357783       0.12541429       0.01139450      -0.03343005       0.00367314
Cu       2.02545891       5.13076238      17.39961630       0.00000000       0.00484510      -0.00102018       0.11980361       0.00484510      -0.00102018       0.11980361       0.01728425       0.02950463       0.00060451
Cu       2.01946599       7.70697334      17.40082069       0.00000000       0.00481382       0.00139180       0.11785705       0.00481382       0.00139180       0.11785705       0.03178303      -0.03376517       0.08620999
Cu       6.25644956       1.28452192      16.73106933       0.00000000       0.00027657      -0.00082288       0.09896256       0.00027657      -0.00082288       0.09896256       0.00993680       0.02119699      -0.01930838
Cu       6.25370710       3.85251824      16.72066761       0.00000000       0.00230185      -0.00184984       0.09219005       0.00230185      -0.00184984       0.09219005       0.05967242      -0.01788556      -0.05452769
Cu       6.25557244       6.41718824      16.73226723       0.00000000       0.00301628      -0.00049501       0.08956144       0.00301628      -0.00049501       0.08956144       0.01978808      -0.00373526      -0.00352498
Cu       6.24763790       8.98092633      16.72992870       0.00000000       0.00209651       0.00335821       0.09219009       0.00209651       0.00335821       0.09219009       0.07972333       0.00635647      -0.01732842
Cu       4.19156295       0.00000000      15.99982400       0.00000000       0.00000000       0.00000000       0.00000000       0.06192391      -0.07112350      -0.44141036       0.07055295      -0.09944061      -0.40209509
Cu       4.19156295       2.56679762      15.99982400       0.00000000       0.00000000       0.00000000       0.00000000       0.05297905       0.11419804      -0.35384648       0.06542685       0.17841211      -0.33235351
Cu       4.19156295       5.13359523      15.99982400       0.00000000       0.00000000       0.00000000       0.00000000       0.05900986      -0.13311331      -0.33770242       0.05156677      -0.19045968      -0.35132881
Cu       4.19156295       7.70039285      15.99982400       0.00000000       0.00000000       0.00000000       0.00000000       0.05801479       0.10742465      -0.38893962       0.06424830       0.11551882      -0.41160084
Cu       2.09578148       1.28339881      15.24984600       0.00000000       0.00000000       0.00000000       0.00000000       0.00048632      -0.00343857      -0.28218406      -0.02621162      -0.01569697      -0.29539327
Cu       2.09578148       3.85019642      15.24984600       0.00000000       0.00000000       0.00000000       0.00000000      -0.00061921       0.00804541      -0.30329918      -0.00188510       0.01259317      -0.27236257
Cu       2.09578148       6.41699404      15.24984600       0.00000000       0.00000000       0.00000000       0.00000000      -0.00074309      -0.00037610      -0.27205576      -0.01338459       0.01460718      -0.29026693
Cu       2.09578148       8.98379165      15.24984600       0.00000000       0.00000000       0.00000000       0.00000000      -0.01600991       0.00012319      -0.30421989      -0.02011872      -0.00954989      -0.29322363
Cu       0.00000000       0.00000000      14.49986800       0.00000000       0.00000000       0.00000000       0.00000000      -0.07594327       0.00144020      -0.19559528      -0.12016534       0.00913461      -0.18528650
Cu       0.00000000       2.56679762      14.49986800       0.00000000       0.00000000       0.00000000       0.00000000      -0.07373253      -0.00637915      -0.20418353      -0.11612265      -0.02586088      -0.21276623
Cu       0.00000000       5.13359523      14.49986800       0.00000000       0.00000000       0.00000000       0.00000000      -0.07379209       0.00687789      -0.21152136      -0.11877246       0.02555560      -0.20439470
Cu       0.00000000       7.70039285      14.49986800       0.00000000       0.00000000       0.00000000       0.00000000      -0.07529689      -0.00121401      -0.20111048      -0.12000798      -0.00948006      -0.19184315
Cu       4.19156295       1.28339881      13.74989000       0.00000000       0.00000000       0.00000000       0.00000000      -0.04484377      -0.00191267      -0.12686417      -0.07955454       0.01069589       0.01257158
Cu       4.19156295       3.85019642      13.74989000       0.00000000       0.00000000       0.00000000       0.00000000      -0.04401882       0.00090609      -0.12265299      -0.06586312      -0.01283583      -0.07324698
Cu       4.19156295       6.41699404      13.74989000       0.00000000       0.00000000       0.00000000       0.00000000      -0.04595061       0.00160258      -0.12485833      -0.08174496       0.00119156       0.03728010
Cu       4.19156295       8.98379165      13.74989000       0.00000000       0.00000000       0.00000000       0.00000000      -0.04511383      -0.00058981      -0.11901290      -0.08778047      -0.00412390       0.02115206
Cu       2.09578148       0.00000000      12.99991200       0.00000000       0.00000000       0.00000000       0.00000000      -0.07891370       0.00131338       0.17298813      -0.07899278       0.02564249       0.25172340
Cu       2.09578148       2.56679762      12.99991200       0.00000000       0.00000000       0.00000000       0.00000000      -0.07904428      -0.00088023       0.17157620      -0.07815127      -0.01346413       0.19568498
Cu       2.09578148       5.13359523      12.99991200       0.00000000       0.00000000       0.00000000       0.00000000      -0.07936235       0.00117273       0.17317221      -0.08374255       0.00518592       0.21585738
Cu       2.09578148       7.70039285      12.99991200       0.00000000       0.00000000       0.00000000       0.00000000      -0.07882221      -0.00155063       0.17481711      -0.08435993      -0.01737169       0.25934178
Cu      -0.00000000       1.28339881      12.24993400       0.00000000       0.00000000       0.00000000       0.00000000       0.11685821       0.00032239       0.43772558       0.09888782       0.02954832       0.67310889
Cu      -0.00000000       3.85019642      12.24993400       0.00000000       0.00000000       0.00000000       0.00000000       0.11684657       0.00031594       0.43809396       0.12610557      -0.01305869       0.68778168
Cu      -0.00000000       6.41699404      12.24993400       0.00000000       0.00000000       0.00000000       0.00000000       0.11637070      -0.00031061       0.43861545       0.09531707      -0.01636641       0.68311389
Cu      -0.00000000       8.98379165      12.24993400       0.00000000       0.00000000       0.00000000       0.00000000       0.11673402      -0.00031254       0.43721357       0.09058111      -0.00094590       0.69713225
O        4.84428902       6.53947370      20.95828102       0.00000000       0.02069763       0.00756210       0.01450907       0.02069763       0.00756210       0.01450907       0.06725254      -0.21377783       0.17651390
C        4.67597607       7.64934351      20.59827977       0.00000000       0.01633350      -0.00604967       0.01891232       0.01633350      -0.00604967       0.01891232       0.07341306       0.01130624       0.29240084
H        4.63062231       4.72537708      20.47847962       0.00000000       0.01719925      -0.00814079       0.02172860       0.01719925      -0.00814079       0.02172860       0.04992260       0.05637139       0.46242789
O        4.54625575       8.80755713      20.40146420       0.00000000       0.01531341      -0.00417773      -0.01208765       0.01531341      -0.00417773      -0.01208765      -0.01857537       0.27410951      -0.08612430
O        4.46771231       3.82210274      20.12641960       0.50000000       0.01649050      -0.00924390       0.04317735       0.01649050      -0.00924390       0.04317735       0.03593343      -0.15700683      -0.06812994
H        5.26989404       3.29749907      20.29884218       0.50000000       0.01745568      -0.00418209       0.01812716       0.01745568      -0.00418209       0.01812716       0.08739152       0.01805965       0.01055568
