52
Lattice="10.26719046282867 0.0 0.0 0.0 7.700392847121503 0.0 0.0 0.0 27.347850919999996" Properties=species:S:1:pos:R:3:MACE_forces:R:3:forces:R:3:DFT_forces:R:3 method=neb MACE_energy=-207.5171689697978 energy=-207.65077670682652 stress="0.009273451154845076 -4.408335087359909e-07 -8.570739400643434e-07 -4.408335087359909e-07 0.008782818095491621 0.00016132177534819965 -8.570739400643434e-07 0.00016132177534819965 0.0011041063492616735" free_energy=-207.65077670682652 DFT_energy=-211.43323145 pbc="T T T"
Cu       1.28339881       1.28339881      11.83696273       0.00000000       0.00000000       0.00000000       0.00054538      -0.00039471       0.18436377      -0.00836681       0.00288403       0.42662400
Cu       3.85019642       1.28339881      11.83696273       0.00000000       0.00000000       0.00000000      -0.00054435      -0.00039637       0.18436194       0.00772903      -0.00344358       0.42695826
Cu       6.41699404       1.28339881      11.83696273       0.00000000       0.00000000       0.00000000      -0.00092168       0.00050522       0.18406174       0.00157437      -0.00100764       0.47764222
Cu       8.98379165       1.28339881      11.83696273       0.00000000       0.00000000       0.00000000       0.00092019       0.00050763       0.18406538      -0.00199086       0.00084652       0.47910002
Cu       1.28339881       3.85019642      11.83696273       0.00000000       0.00000000       0.00000000      -0.00021878       0.00035897       0.18264049      -0.02127847      -0.02848595       0.44435256
Cu       3.85019642       3.85019642      11.83696273       0.00000000       0.00000000       0.00000000       0.00021921       0.00036050       0.18263518       0.02524932      -0.02582923       0.44077603
Cu       6.41699404       3.85019642      11.83696273       0.00000000       0.00000000       0.00000000      -0.00125783      -0.00015504       0.18493269      -0.03812773      -0.02388209       0.45477706
Cu       8.98379165       3.85019642      11.83696273       0.00000000       0.00000000       0.00000000       0.00125715      -0.00015804       0.18493761       0.03333672      -0.02676172       0.45285325
Cu       1.28339881       6.41699404      11.83696273       0.00000000       0.00000000       0.00000000       0.00048783       0.00011282       0.18565408      -0.01971551       0.02583277       0.44679001
Cu       3.85019642       6.41699404      11.83696273       0.00000000       0.00000000       0.00000000      -0.00048421       0.00011340       0.18565294       0.02663553       0.02839737       0.43790322
Cu       6.41699404       6.41699404      11.83696273       0.00000000       0.00000000       0.00000000      -0.00130941      -0.00031184       0.18548086      -0.03932375       0.02609962       0.45482476
Cu       8.98379165       6.41699404      11.83696273       0.00000000       0.00000000       0.00000000       0.00130687      -0.00031181       0.18548192       0.03229000       0.02405820       0.45262630
Cu       7.70039285      -0.00000000      13.67392546       0.00000000       0.00000000       0.00000000      -0.00000459      -0.00045606      -0.09168766       0.00497235      -0.01596198      -0.19051184
Cu       5.13359523      -0.00000000      13.67392546       0.00000000       0.00000000       0.00000000       0.00207406       0.00029677      -0.09746935      -0.02474068      -0.02783603      -0.18119307
Cu       2.56679762      -0.00000000      13.67392546       0.00000000       0.00000000       0.00000000       0.00000433      -0.00228964      -0.10780673      -0.00530992      -0.02381894      -0.15565102
Cu       0.00000000      -0.00000000      13.67392546       0.00000000       0.00000000       0.00000000      -0.00207021       0.00027594      -0.09749658       0.02227592      -0.03074861      -0.18755786
Cu       0.00000000       2.56679762      13.67392546       0.00000000       0.00000000       0.00000000      -0.00304513      -0.00059061      -0.09536655       0.02430758       0.02890460      -0.18800468
Cu       2.56679762       2.56679762      13.67392546       0.00000000       0.00000000       0.00000000       0.00001226       0.00334251      -0.08396598      -0.00161297       0.02384197      -0.15520756
Cu       5.13359523       2.56679762      13.67392546       0.00000000       0.00000000       0.00000000       0.00304599      -0.00059093      -0.09531575      -0.02332611       0.02938856      -0.18027986
Cu       7.70039285       2.56679762      13.67392546       0.00000000       0.00000000       0.00000000      -0.00002425       0.00024596      -0.08998245      -0.00023225       0.01592351      -0.19052345
Cu       0.00000000       5.13359523      13.67392546       0.00000000       0.00000000       0.00000000      -0.00080031       0.00090274      -0.09244471       0.01437557       0.00107987      -0.15906493
Cu       2.56679762       5.13359523      13.67392546       0.00000000       0.00000000       0.00000000       0.00001242      -0.00204136      -0.09676406      -0.00373649      -0.00033369      -0.14524008
Cu       5.13359523       5.13359523      13.67392546       0.00000000       0.00000000       0.00000000       0.00079202       0.00088929      -0.09239408      -0.01381034      -0.00140052      -0.16214170
Cu       7.70039285       5.13359523      13.67392546       0.00000000       0.00000000       0.00000000       0.00000348       0.00040959      -0.09684921       0.00529411      -0.00028887      -0.17264536
Cu       1.28339881       1.28339881      15.51088819       0.00000000       0.00000000       0.00000000      -0.01469815       0.02191425      -0.29773629       0.11827953       0.00297285      -0.19779179
Cu       3.85019642       1.28339881      15.51088819       0.00000000       0.00000000       0.00000000       0.01499254       0.02181485      -0.29807164      -0.13920913       0.00022431      -0.17337803
Cu       6.41699404       1.28339881      15.51088819       0.00000000       0.00000000       0.00000000      -0.01079831       0.02366442      -0.24307168      -0.00354853      -0.00069096      -0.30887539
Cu       8.98379165       1.28339881      15.51088819       0.00000000       0.00000000       0.00000000       0.01038163       0.02338985      -0.24330219       0.01852483       0.00051906      -0.29286734
Cu       1.28339881       3.85019642      15.51088819       0.00000000       0.00000000       0.00000000       0.08024732       0.04114655      -0.17708143       0.16435677      -0.08221014      -0.19484972
Cu       3.85019642       3.85019642      15.51088819       0.00000000       0.00000000       0.00000000      -0.08001170       0.04148323      -0.17723043      -0.15428916      -0.07622812      -0.20873911
Cu       6.41699404       3.85019642      15.51088819       0.00000000       0.00000000       0.00000000      -0.00735056      -0.04009830      -0.26373072      -0.03167503       0.06491020      -0.21150711
Cu       8.98379165       3.85019642      15.51088819       0.00000000       0.00000000       0.00000000       0.00703189      -0.03992705      -0.26404419       0.01040183       0.06160820      -0.22260348
Cu       1.28339881       6.41699404      15.51088819       0.00000000       0.00000000       0.00000000       0.02105574      -0.03744787      -0.23010730       0.16653497       0.08254407      -0.19532292
Cu       3.85019642       6.41699404      15.51088819       0.00000000       0.00000000       0.00000000      -0.02090402      -0.03753925      -0.22991127      -0.15318212       0.08468650      -0.20737261
Cu       6.41699404       6.41699404      15.51088819       0.00000000       0.00000000       0.00000000       0.02873606       0.03701477      -0.30287250      -0.03186999      -0.06612318      -0.21054034
Cu       8.98379165       6.41699404      15.51088819       0.00000000       0.00000000       0.00000000      -0.02833957       0.03686325      -0.30281928       0.00978791      -0.06217839      -0.22324382
Cu       7.70035586       7.70167705      17.24108548      -0.00310711       0.00146669       0.19113415      -0.00013841      -0.00094561       0.15977881      -0.00826973      -0.00918369      -0.01605738
Cu       5.16331223       7.69393588      17.22863743       0.02292114      -0.00105985       0.16635933       0.00927879      -0.00311443       0.15181801       0.03953143      -0.05259457      -0.08247979
Cu       2.57338280       7.64262471      17.33386617      -0.01042452       0.00869016       0.13084224       0.00002791      -0.00636749       0.14183812      -0.03137623       0.09473107      -0.09467043
Cu      10.23596151       7.68849044      17.22435270      -0.03437857       0.00075457       0.16976897      -0.00938203      -0.00309062       0.15173828      -0.03669793      -0.04108469      -0.04999618
Cu      10.23581722       2.57945931      17.22464866      -0.03393662      -0.00232249       0.16856004      -0.01856196      -0.00269710       0.14567797      -0.03896249       0.03928571      -0.05323507
Cu       2.57373023       2.62850723      17.33362088      -0.01167339      -0.01242648       0.13029048      -0.00035347       0.00022884       0.14079502      -0.03303631      -0.09891620      -0.09554889
Cu       5.16351910       2.57421551      17.22879308       0.02275969      -0.00078925       0.16568416       0.01823756      -0.00265995       0.14584234       0.03673050       0.05065476      -0.08161319
Cu       7.70028373       2.56431095      17.24114603      -0.00260393       0.00021422       0.19099997       0.00006068       0.00006862       0.16002041      -0.00583160       0.01071451      -0.01638866
Cu      10.28707845       5.13395695      17.26317106      -0.04362848      -0.00073389       0.15889829      -0.01563785       0.00650742       0.14977893      -0.23664924      -0.00034542      -0.15584116
Cu       2.56253324       5.13526706      17.29255787      -0.00033963      -0.00121081       0.10530926       0.00004552      -0.01739759       0.17396839      -0.01045852      -0.00067537      -0.68280806
Cu       5.10792730       5.13407457      17.26769437       0.04405128      -0.00096755       0.15893045       0.01518085       0.00655290       0.14977794       0.24340034      -0.00142685      -0.15398577
Cu       7.69816335       5.13291432      17.23970367      -0.00047535       0.00135668       0.19200038      -0.00026218       0.00039659       0.16038772      -0.00004006       0.00147762      -0.04352297
O        2.43864402       1.28602349      18.77015479       0.02370879      -0.00183703       0.05069891       0.00021914      -0.03227603       0.02367728       0.12515648      -0.00105364      -0.08668853
C        2.62367193       5.13531275      19.07292820       0.00382170       0.00072602       0.04827571       0.00030506       0.00266658       0.05246448       0.02543613      -0.00150500      -0.06202611
H        3.29442899       1.28632653      19.23716181       0.03485327      -0.00064721       0.01091068       0.00002645      -0.02224770       0.00040054      -0.02168132       0.00316246       0.81953504
O        2.64257313       5.13623672      20.23260970       0.00732989      -0.00062654       0.05611476       0.00061065      -0.01852806       0.04528921      -0.01783197      -0.00073327       0.17521253
52
Lattice="10.26719046282867 0.0 0.0 0.0 7.700392847121503 0.0 0.0 0.0 27.347850919999996" Properties=species:S:1:pos:R:3:MACE_forces:R:3:forces:R:3:DFT_forces:R:3 method=neb MACE_energy=-207.50996551507706 energy=-207.65077670682652 stress="0.009273451154845076 -4.408335087359909e-07 -8.570739400643434e-07 -4.408335087359909e-07 0.008782818095491621 0.00016132177534819965 -8.570739400643434e-07 0.00016132177534819965 0.0011041063492616735" free_energy=-207.65077670682652 DFT_energy=-211.42012837 pbc="T T T"
Cu       1.28339881       1.28339881      11.83696273       0.00000000       0.00000000       0.00000000       0.00054538      -0.00039471       0.18436377      -0.00943319       0.00994834       0.42686729
Cu       3.85019642       1.28339881      11.83696273       0.00000000       0.00000000       0.00000000      -0.00054435      -0.00039637       0.18436194       0.00901774       0.00403415       0.42647854
Cu       6.41699404       1.28339881      11.83696273       0.00000000       0.00000000       0.00000000      -0.00092168       0.00050522       0.18406174      -0.00112144       0.00284210       0.47718695
Cu       8.98379165       1.28339881      11.83696273       0.00000000       0.00000000       0.00000000       0.00092019       0.00050763       0.18406538       0.00106512       0.00491663       0.47846931
Cu       1.28339881       3.85019642      11.83696273       0.00000000       0.00000000       0.00000000      -0.00021878       0.00035897       0.18264049      -0.02038705      -0.03314245       0.44521979
Cu       3.85019642       3.85019642      11.83696273       0.00000000       0.00000000       0.00000000       0.00021921       0.00036050       0.18263518       0.02492549      -0.03094644       0.44060823
Cu       6.41699404       3.85019642      11.83696273       0.00000000       0.00000000       0.00000000      -0.00125783      -0.00015504       0.18493269      -0.03970490      -0.02637416       0.45335328
Cu       8.98379165       3.85019642      11.83696273       0.00000000       0.00000000       0.00000000       0.00125715      -0.00015804       0.18493761       0.03468069      -0.02868783       0.45253449
Cu       1.28339881       6.41699404      11.83696273       0.00000000       0.00000000       0.00000000       0.00048783       0.00011282       0.18565408      -0.02020331       0.02415089       0.44651947
Cu       3.85019642       6.41699404      11.83696273       0.00000000       0.00000000       0.00000000      -0.00048421       0.00011340       0.18565294       0.02691732       0.02665930       0.43919982
Cu       6.41699404       6.41699404      11.83696273       0.00000000       0.00000000       0.00000000      -0.00130941      -0.00031184       0.18548086      -0.04069406       0.02547814       0.45754250
Cu       8.98379165       6.41699404      11.83696273       0.00000000       0.00000000       0.00000000       0.00130687      -0.00031181       0.18548192       0.03352750       0.02272144       0.45588321
Cu       7.70039285      -0.00000000      13.67392546       0.00000000       0.00000000       0.00000000      -0.00000459      -0.00045606      -0.09168766       0.00520332      -0.01803951      -0.19020466
Cu       5.13359523      -0.00000000      13.67392546       0.00000000       0.00000000       0.00000000       0.00207406       0.00029677      -0.09746935      -0.02930909      -0.02922304      -0.17607233
Cu       2.56679762      -0.00000000      13.67392546       0.00000000       0.00000000       0.00000000       0.00000433      -0.00228964      -0.10780673      -0.00549476      -0.02373362      -0.15979170
Cu       0.00000000      -0.00000000      13.67392546       0.00000000       0.00000000       0.00000000      -0.00207021       0.00027594      -0.09749658       0.02676227      -0.03076485      -0.18293963
Cu       0.00000000       2.56679762      13.67392546       0.00000000       0.00000000       0.00000000      -0.00304513      -0.00059061      -0.09536655       0.01947794       0.02709272      -0.19115467
Cu       2.56679762       2.56679762      13.67392546       0.00000000       0.00000000       0.00000000       0.00001226       0.00334251      -0.08396598      -0.00208901       0.01963724      -0.15208318
Cu       5.13359523       2.56679762      13.67392546       0.00000000       0.00000000       0.00000000       0.00304599      -0.00059093      -0.09531575      -0.01780945       0.02843170      -0.18277007
Cu       7.70039285       2.56679762      13.67392546       0.00000000       0.00000000       0.00000000      -0.00002425       0.00024596      -0.08998245      -0.00028419       0.01550504      -0.18651046
Cu       0.00000000       5.13359523      13.67392546       0.00000000       0.00000000       0.00000000      -0.00080031       0.00090274      -0.09244471       0.01473634       0.00285790      -0.15834108
Cu       2.56679762       5.13359523      13.67392546       0.00000000       0.00000000       0.00000000       0.00001242      -0.00204136      -0.09676406      -0.00347390       0.00615715      -0.14047769
Cu       5.13359523       5.13359523      13.67392546       0.00000000       0.00000000       0.00000000       0.00079202       0.00088929      -0.09239408      -0.01336456       0.00105050      -0.16169662
Cu       7.70039285       5.13359523      13.67392546       0.00000000       0.00000000       0.00000000       0.00000348       0.00040959      -0.09684921       0.00418850       0.00204687      -0.16885181
Cu       1.28339881       1.28339881      15.51088819       0.00000000       0.00000000       0.00000000      -0.01469815       0.02191425      -0.29773629       0.12311882       0.00631375      -0.16095820
Cu       3.85019642       1.28339881      15.51088819       0.00000000       0.00000000       0.00000000       0.01499254       0.02181485      -0.29807164      -0.14253854       0.00870969      -0.15327057
Cu       6.41699404       1.28339881      15.51088819       0.00000000       0.00000000       0.00000000      -0.01079831       0.02366442      -0.24307168      -0.00027730      -0.00603799      -0.28381737
Cu       8.98379165       1.28339881      15.51088819       0.00000000       0.00000000       0.00000000       0.01038163       0.02338985      -0.24330219       0.01224773      -0.00229972      -0.26523723
Cu       1.28339881       3.85019642      15.51088819       0.00000000       0.00000000       0.00000000       0.08024732       0.04114655      -0.17708143       0.12042090      -0.12586618      -0.23171347
Cu       3.85019642       3.85019642      15.51088819       0.00000000       0.00000000       0.00000000      -0.08001170       0.04148323      -0.17723043      -0.11328067      -0.11574037      -0.25059109
Cu       6.41699404       3.85019642      15.51088819       0.00000000       0.00000000       0.00000000      -0.00735056      -0.04009830      -0.26373072      -0.02868986       0.05736087      -0.19269974
Cu       8.98379165       3.85019642      15.51088819       0.00000000       0.00000000       0.00000000       0.00703189      -0.03992705      -0.26404419       0.00756569       0.05182423      -0.19958208
Cu       1.28339881       6.41699404      15.51088819       0.00000000       0.00000000       0.00000000       0.02105574      -0.03744787      -0.23010730       0.18248671       0.14482761      -0.12202627
Cu       3.85019642       6.41699404      15.51088819       0.00000000       0.00000000       0.00000000      -0.02090402      -0.03753925      -0.22991127      -0.16694918       0.14018778      -0.14407570
Cu       6.41699404       6.41699404      15.51088819       0.00000000       0.00000000       0.00000000       0.02873606       0.03701477      -0.30287250      -0.01912587      -0.05215112      -0.18773786
Cu       8.98379165       6.41699404      15.51088819       0.00000000       0.00000000       0.00000000      -0.02833957       0.03686325      -0.30281928      -0.00411902      -0.05014781      -0.20227204
Cu       7.69963148       7.70099044      17.24850813      -0.00262762       0.00164279       0.15982549      -0.00013841      -0.00094561       0.15977881      -0.00686786      -0.00754148      -0.04777520
Cu       5.16125100       7.69530083      17.23447562       0.01942441      -0.00558823       0.14632007       0.00927879      -0.00311443       0.15181801       0.04147828      -0.06132190      -0.09878835
Cu       2.57978967       7.68324420      17.37318038       0.02149490      -0.08458604       0.08184192       0.00002791      -0.00636749       0.14183812      -0.00894378      -0.07973660      -0.15407964
Cu      10.23650388       7.69005193      17.23078761      -0.01673394      -0.00727477       0.14704216      -0.00938203      -0.00309062       0.15173828      -0.02561084      -0.05486060      -0.08335866
Cu      10.23373796       2.57771626      17.23118205      -0.02505543      -0.00304548       0.14551402      -0.01856196      -0.00269710       0.14567797      -0.03424444       0.03483539      -0.08931156
Cu       2.57466953       2.62484563      17.33632989      -0.01016033       0.07505694       0.09857433      -0.00035347       0.00022884       0.14079502      -0.02973878       0.00063655      -0.13702339
Cu       5.16375229       2.57333959      17.23384194       0.02384678      -0.00399034       0.14294766       0.01823756      -0.00265995       0.14584234       0.04184374       0.04697929      -0.11415803
Cu       7.69927501       2.56424089      17.24865904      -0.00067152       0.00037123       0.16116805       0.00006068       0.00006862       0.16002041      -0.00404505       0.00971890      -0.04424396
Cu      10.27905423       5.13393570      17.26479199      -0.01658193      -0.00506289       0.15092828      -0.01563785       0.00650742       0.14977893      -0.20047398       0.01198770      -0.16261261
Cu       2.56212134       5.14025819      17.26220698       0.00333184       0.04504458       0.26601201       0.00004552      -0.01739759       0.17396839      -0.00559036       0.10121679      -0.42256216
Cu       5.11629602       5.13422305      17.26911819       0.01464986      -0.00398904       0.15164801       0.01518085       0.00655290       0.14977794       0.20548123       0.00896984      -0.15981328
Cu       7.69818858       5.13267626      17.24782358      -0.00016326       0.00187751       0.16157420      -0.00026218       0.00039659       0.16038772      -0.00081693       0.00096440      -0.07351190
O        2.43554071       1.33972489      18.80968776      -0.02739166      -0.01341887       0.06562850       0.00021914      -0.03227603       0.02367728       0.07423076      -0.04922806      -0.07955081
C        2.62361648       5.00120389      19.04712447       0.00519748       0.08066124       0.06060796       0.00030506       0.00266658       0.05246448       0.02613619      -0.17024108      -0.06739206
H        3.25450129       1.40532374      19.33439355       0.02635773      -0.07660392      -0.09317728       0.00002645      -0.02224770       0.00040054      -0.02258780       0.23662547       0.69593861
O        2.64176270       5.06303728      20.20568025       0.00652903      -0.07417591      -0.00477997       0.00061065      -0.01852806       0.04528921      -0.01824308      -0.08860357       0.08325563
52
Lattice="10.26719046282867 0.0 0.0 0.0 7.700392847121503 0.0 0.0 0.0 27.347850919999996" Properties=species:S:1:pos:R:3:MACE_forces:R:3:forces:R:3:DFT_forces:R:3 method=neb MACE_energy=-207.52099921678345 energy=-207.65077670682652 stress="0.009273451154845076 -4.408335087359909e-07 -8.570739400643434e-07 -4.408335087359909e-07 0.008782818095491621 0.00016132177534819965 -8.570739400643434e-07 0.00016132177534819965 0.0011041063492616735" free_energy=-207.65077670682652 DFT_energy=-211.42512641 pbc="T T T"
Cu       1.28339881       1.28339881      11.83696273       0.00000000       0.00000000       0.00000000       0.00054538      -0.00039471       0.18436377      -0.00936923       0.00781714       0.42712840
Cu       3.85019642       1.28339881      11.83696273       0.00000000       0.00000000       0.00000000      -0.00054435      -0.00039637       0.18436194       0.00930593       0.00178937       0.42709405
Cu       6.41699404       1.28339881      11.83696273       0.00000000       0.00000000       0.00000000      -0.00092168       0.00050522       0.18406174      -0.00034516       0.00240875       0.47728372
Cu       8.98379165       1.28339881      11.83696273       0.00000000       0.00000000       0.00000000       0.00092019       0.00050763       0.18406538      -0.00031582       0.00427222       0.47901489
Cu       1.28339881       3.85019642      11.83696273       0.00000000       0.00000000       0.00000000      -0.00021878       0.00035897       0.18264049      -0.02103929      -0.03118210       0.44567590
Cu       3.85019642       3.85019642      11.83696273       0.00000000       0.00000000       0.00000000       0.00021921       0.00036050       0.18263518       0.02551193      -0.02880456       0.44053679
Cu       6.41699404       3.85019642      11.83696273       0.00000000       0.00000000       0.00000000      -0.00125783      -0.00015504       0.18493269      -0.03915145      -0.02581970       0.45390246
Cu       8.98379165       3.85019642      11.83696273       0.00000000       0.00000000       0.00000000       0.00125715      -0.00015804       0.18493761       0.03406506      -0.02848561       0.45230752
Cu       1.28339881       6.41699404      11.83696273       0.00000000       0.00000000       0.00000000       0.00048783       0.00011282       0.18565408      -0.02064477       0.02449144       0.44694116
Cu       3.85019642       6.41699404      11.83696273       0.00000000       0.00000000       0.00000000      -0.00048421       0.00011340       0.18565294       0.02791554       0.02707341       0.43898633
Cu       6.41699404       6.41699404      11.83696273       0.00000000       0.00000000       0.00000000      -0.00130941      -0.00031184       0.18548086      -0.04043714       0.02515159       0.45665436
Cu       8.98379165       6.41699404      11.83696273       0.00000000       0.00000000       0.00000000       0.00130687      -0.00031181       0.18548192       0.03308440       0.02306412       0.45464712
Cu       7.70039285      -0.00000000      13.67392546       0.00000000       0.00000000       0.00000000      -0.00000459      -0.00045606      -0.09168766       0.00533713      -0.01668089      -0.18951499
Cu       5.13359523      -0.00000000      13.67392546       0.00000000       0.00000000       0.00000000       0.00207406       0.00029677      -0.09746935      -0.02768539      -0.02861872      -0.17801222
Cu       2.56679762      -0.00000000      13.67392546       0.00000000       0.00000000       0.00000000       0.00000433      -0.00228964      -0.10780673      -0.00562982      -0.02209597      -0.15967357
Cu       0.00000000      -0.00000000      13.67392546       0.00000000       0.00000000       0.00000000      -0.00207021       0.00027594      -0.09749658       0.02536340      -0.03094398      -0.18380758
Cu       0.00000000       2.56679762      13.67392546       0.00000000       0.00000000       0.00000000      -0.00304513      -0.00059061      -0.09536655       0.02118270       0.02802511      -0.18904074
Cu       2.56679762       2.56679762      13.67392546       0.00000000       0.00000000       0.00000000       0.00001226       0.00334251      -0.08396598      -0.00178836       0.02022357      -0.15154501
Cu       5.13359523       2.56679762      13.67392546       0.00000000       0.00000000       0.00000000       0.00304599      -0.00059093      -0.09531575      -0.01929620       0.02835580      -0.18141170
Cu       7.70039285       2.56679762      13.67392546       0.00000000       0.00000000       0.00000000      -0.00002425       0.00024596      -0.08998245      -0.00098470       0.01659514      -0.18660410
Cu       0.00000000       5.13359523      13.67392546       0.00000000       0.00000000       0.00000000      -0.00080031       0.00090274      -0.09244471       0.01375611       0.00221335      -0.15843691
Cu       2.56679762       5.13359523      13.67392546       0.00000000       0.00000000       0.00000000       0.00001242      -0.00204136      -0.09676406      -0.00382123       0.00377627      -0.14180691
Cu       5.13359523       5.13359523      13.67392546       0.00000000       0.00000000       0.00000000       0.00079202       0.00088929      -0.09239408      -0.01311425       0.00075611      -0.16085141
Cu       7.70039285       5.13359523      13.67392546       0.00000000       0.00000000       0.00000000       0.00000348       0.00040959      -0.09684921       0.00532826      -0.00015332      -0.16911887
Cu       1.28339881       1.28339881      15.51088819       0.00000000       0.00000000       0.00000000      -0.01469815       0.02191425      -0.29773629       0.11285494       0.00487615      -0.16183482
Cu       3.85019642       1.28339881      15.51088819       0.00000000       0.00000000       0.00000000       0.01499254       0.02181485      -0.29807164      -0.13431050       0.01013426      -0.14703922
Cu       6.41699404       1.28339881      15.51088819       0.00000000       0.00000000       0.00000000      -0.01079831       0.02366442      -0.24307168       0.00426775      -0.00673792      -0.27931521
Cu       8.98379165       1.28339881      15.51088819       0.00000000       0.00000000       0.00000000       0.01038163       0.02338985      -0.24330219       0.00875369      -0.00625273      -0.25826386
Cu       1.28339881       3.85019642      15.51088819       0.00000000       0.00000000       0.00000000       0.08024732       0.04114655      -0.17708143       0.11593078      -0.09367760      -0.22299753
Cu       3.85019642       3.85019642      15.51088819       0.00000000       0.00000000       0.00000000      -0.08001170       0.04148323      -0.17723043      -0.11240335      -0.08847351      -0.23573869
Cu       6.41699404       3.85019642      15.51088819       0.00000000       0.00000000       0.00000000      -0.00735056      -0.04009830      -0.26373072      -0.02410002       0.05950775      -0.18602451
Cu       8.98379165       3.85019642      15.51088819       0.00000000       0.00000000       0.00000000       0.00703189      -0.03992705      -0.26404419       0.00023308       0.05411581      -0.19529250
Cu       1.28339881       6.41699404      15.51088819       0.00000000       0.00000000       0.00000000       0.02105574      -0.03744787      -0.23010730       0.15715069       0.12985699      -0.15289148
Cu       3.85019642       6.41699404      15.51088819       0.00000000       0.00000000       0.00000000      -0.02090402      -0.03753925      -0.22991127      -0.13955352       0.12598002      -0.17285236
Cu       6.41699404       6.41699404      15.51088819       0.00000000       0.00000000       0.00000000       0.02873606       0.03701477      -0.30287250      -0.01557087      -0.05760320      -0.18415577
Cu       8.98379165       6.41699404      15.51088819       0.00000000       0.00000000       0.00000000      -0.02833957       0.03686325      -0.30281928      -0.00649823      -0.05325830      -0.19471402
Cu       7.69909054       7.70166163      17.25149600       0.00349965       0.00212654       0.14915353      -0.00013841      -0.00094561       0.15977881      -0.00031097      -0.00739116      -0.05756866
Cu       5.16430353       7.69287637      17.23616884       0.01546710       0.00072364       0.14059746       0.00927879      -0.00311443       0.15181801       0.03372954      -0.05358486      -0.10776449
Cu       2.58357764       7.66630828      17.35676050      -0.01770891       0.04508483       0.15233562       0.00002791      -0.00636749       0.14183812      -0.04254783       0.10521896      -0.06837301
Cu      10.23540206       7.68683796      17.23198578      -0.01515947       0.00060596       0.14122193      -0.00938203      -0.00309062       0.15173828      -0.01978362      -0.04564643      -0.08812544
Cu      10.22939898       2.57705454      17.23235250      -0.01864466      -0.00458071       0.14103502      -0.01856196      -0.00269710       0.14567797      -0.02133288       0.03454955      -0.09315598
Cu       2.56974831       2.64166163      17.32809793      -0.00500173      -0.01363988       0.14314144      -0.00035347       0.00022884       0.14079502      -0.02574973      -0.10334533      -0.07315857
Cu       5.16627655       2.57223218      17.23493752       0.00918039      -0.00426270       0.14064159       0.01823756      -0.00265995       0.14584234       0.02160940       0.04637262      -0.11834931
Cu       7.69883448       2.56462930      17.25208082      -0.00115016      -0.00010343       0.14862155       0.00006068       0.00006862       0.16002041      -0.00476475       0.01071658      -0.05520401
Cu      10.27797674       5.13179981      17.26711263      -0.00924481      -0.00129886       0.14257301      -0.01563785       0.00650742       0.14977893      -0.19380954       0.00996275      -0.17221552
Cu       2.56212008       5.15602476      17.26987471       0.00036930      -0.01758712       0.18263034       0.00004552      -0.01739759       0.17396839      -0.01135497       0.03046603      -0.56031224
Cu       5.11719666       5.13249263      17.27183091       0.00744499      -0.00058706       0.14265468       0.01518085       0.00655290       0.14977794       0.19950819       0.00663001      -0.17113262
Cu       7.69788120       5.13319721      17.25125197       0.00077762       0.00034371       0.14809994      -0.00026218       0.00039659       0.16038772       0.00095222      -0.00015782      -0.08627758
O        2.42631234       1.33591596      18.79337742       0.02185198      -0.04176903      -0.01583330       0.00021914      -0.03227603       0.02367728       0.12341423      -0.06894989      -0.18027546
C        2.62618688       5.02329707      19.04728069       0.00620624       0.03111984       0.09727841       0.00030506       0.00266658       0.05246448       0.02466629      -0.09634505      -0.08073842
H        3.26480488       1.38010442      19.28913926       0.01938520      -0.04451353      -0.04204094       0.00002645      -0.02224770       0.00040054      -0.02029902       0.10624504       0.82417389
O        2.64537134       5.02665470      20.20748583       0.00777892      -0.03435994       0.01870241       0.00061065      -0.01852806       0.04528921      -0.02790867      -0.05643725       0.12924871
52
Lattice="10.26719046282867 0.0 0.0 0.0 7.700392847121503 0.0 0.0 0.0 27.347850919999996" Properties=species:S:1:pos:R:3:MACE_forces:R:3:forces:R:3:DFT_forces:R:3 method=neb MACE_energy=-207.50979082339484 energy=-207.65077670682652 stress="0.009273451154845076 -4.408335087359909e-07 -8.570739400643434e-07 -4.408335087359909e-07 0.008782818095491621 0.00016132177534819965 -8.570739400643434e-07 0.00016132177534819965 0.0011041063492616735" free_energy=-207.65077670682652 DFT_energy=-211.39032333 pbc="T T T"
Cu       1.28339881       1.28339881      11.83696273       0.00000000       0.00000000       0.00000000       0.00054538      -0.00039471       0.18436377      -0.00920994       0.01416765       0.42744541
Cu       3.85019642       1.28339881      11.83696273       0.00000000       0.00000000       0.00000000      -0.00054435      -0.00039637       0.18436194       0.01096438       0.00833963       0.42617769
Cu       6.41699404       1.28339881      11.83696273       0.00000000       0.00000000       0.00000000      -0.00092168       0.00050522       0.18406174      -0.00174290       0.00695820       0.47537916
Cu       8.98379165       1.28339881      11.83696273       0.00000000       0.00000000       0.00000000       0.00092019       0.00050763       0.18406538       0.00002278       0.00914132       0.47844699
Cu       1.28339881       3.85019642      11.83696273       0.00000000       0.00000000       0.00000000      -0.00021878       0.00035897       0.18264049      -0.01758219      -0.03486381       0.44668311
Cu       3.85019642       3.85019642      11.83696273       0.00000000       0.00000000       0.00000000       0.00021921       0.00036050       0.18263518       0.02401176      -0.03256685       0.43738572
Cu       6.41699404       3.85019642      11.83696273       0.00000000       0.00000000       0.00000000      -0.00125783      -0.00015504       0.18493269      -0.03927522      -0.02796255       0.45413724
Cu       8.98379165       3.85019642      11.83696273       0.00000000       0.00000000       0.00000000       0.00125715      -0.00015804       0.18493761       0.03353468      -0.03151395       0.45163822
Cu       1.28339881       6.41699404      11.83696273       0.00000000       0.00000000       0.00000000       0.00048783       0.00011282       0.18565408      -0.02021735       0.02237758       0.44602140
Cu       3.85019642       6.41699404      11.83696273       0.00000000       0.00000000       0.00000000      -0.00048421       0.00011340       0.18565294       0.02851089       0.02481146       0.43816384
Cu       6.41699404       6.41699404      11.83696273       0.00000000       0.00000000       0.00000000      -0.00130941      -0.00031184       0.18548086      -0.04027755       0.02241051       0.46061620
Cu       8.98379165       6.41699404      11.83696273       0.00000000       0.00000000       0.00000000       0.00130687      -0.00031181       0.18548192       0.03277432       0.02101089       0.45795936
Cu       7.70039285      -0.00000000      13.67392546       0.00000000       0.00000000       0.00000000      -0.00000459      -0.00045606      -0.09168766       0.00558217      -0.01649674      -0.19160316
Cu       5.13359523      -0.00000000      13.67392546       0.00000000       0.00000000       0.00000000       0.00207406       0.00029677      -0.09746935      -0.03086494      -0.02819459      -0.17733186
Cu       2.56679762      -0.00000000      13.67392546       0.00000000       0.00000000       0.00000000       0.00000433      -0.00228964      -0.10780673      -0.00606036      -0.02173148      -0.16438067
Cu       0.00000000      -0.00000000      13.67392546       0.00000000       0.00000000       0.00000000      -0.00207021       0.00027594      -0.09749658       0.02983460      -0.03159299      -0.18083876
Cu       0.00000000       2.56679762      13.67392546       0.00000000       0.00000000       0.00000000      -0.00304513      -0.00059061      -0.09536655       0.01771090       0.02623593      -0.19160733
Cu       2.56679762       2.56679762      13.67392546       0.00000000       0.00000000       0.00000000       0.00001226       0.00334251      -0.08396598      -0.00169206       0.01719464      -0.14449587
Cu       5.13359523       2.56679762      13.67392546       0.00000000       0.00000000       0.00000000       0.00304599      -0.00059093      -0.09531575      -0.01296323       0.02495305      -0.18528568
Cu       7.70039285       2.56679762      13.67392546       0.00000000       0.00000000       0.00000000      -0.00002425       0.00024596      -0.08998245      -0.00315907       0.01578306      -0.18481770
Cu       0.00000000       5.13359523      13.67392546       0.00000000       0.00000000       0.00000000      -0.00080031       0.00090274      -0.09244471       0.01250599       0.00409668      -0.15953846
Cu       2.56679762       5.13359523      13.67392546       0.00000000       0.00000000       0.00000000       0.00001242      -0.00204136      -0.09676406      -0.00478547       0.00868610      -0.13491840
Cu       5.13359523       5.13359523      13.67392546       0.00000000       0.00000000       0.00000000       0.00079202       0.00088929      -0.09239408      -0.01268411       0.00363411      -0.15934881
Cu       7.70039285       5.13359523      13.67392546       0.00000000       0.00000000       0.00000000       0.00000348       0.00040959      -0.09684921       0.00790349      -0.00026894      -0.16933644
Cu       1.28339881       1.28339881      15.51088819       0.00000000       0.00000000       0.00000000      -0.01469815       0.02191425      -0.29773629       0.12676979       0.02621208      -0.15577117
Cu       3.85019642       1.28339881      15.51088819       0.00000000       0.00000000       0.00000000       0.01499254       0.02181485      -0.29807164      -0.14156963       0.03581251      -0.13737707
Cu       6.41699404       1.28339881      15.51088819       0.00000000       0.00000000       0.00000000      -0.01079831       0.02366442      -0.24307168       0.00684207      -0.01659984      -0.27578058
Cu       8.98379165       1.28339881      15.51088819       0.00000000       0.00000000       0.00000000       0.01038163       0.02338985      -0.24330219       0.02033841      -0.01787126      -0.24884572
Cu       1.28339881       3.85019642      15.51088819       0.00000000       0.00000000       0.00000000       0.08024732       0.04114655      -0.17708143       0.08468306      -0.05713359      -0.27712205
Cu       3.85019642       3.85019642      15.51088819       0.00000000       0.00000000       0.00000000      -0.08001170       0.04148323      -0.17723043      -0.09027792      -0.05903998      -0.27700743
Cu       6.41699404       3.85019642      15.51088819       0.00000000       0.00000000       0.00000000      -0.00735056      -0.04009830      -0.26373072      -0.03262920       0.05559160      -0.18100692
Cu       8.98379165       3.85019642      15.51088819       0.00000000       0.00000000       0.00000000       0.00703189      -0.03992705      -0.26404419       0.00599409       0.04887667      -0.19284355
Cu       1.28339881       6.41699404      15.51088819       0.00000000       0.00000000       0.00000000       0.02105574      -0.03744787      -0.23010730       0.18427628       0.16754986      -0.11861999
Cu       3.85019642       6.41699404      15.51088819       0.00000000       0.00000000       0.00000000      -0.02090402      -0.03753925      -0.22991127      -0.15949381       0.17330030      -0.12158036
Cu       6.41699404       6.41699404      15.51088819       0.00000000       0.00000000       0.00000000       0.02873606       0.03701477      -0.30287250      -0.00714334      -0.05803385      -0.18085348
Cu       8.98379165       6.41699404      15.51088819       0.00000000       0.00000000       0.00000000      -0.02833957       0.03686325      -0.30281928      -0.00505236      -0.05314622      -0.18990926
Cu       7.70256518       7.70212340      17.25087008       0.00311061       0.00150021       0.14918445      -0.00013841      -0.00094561       0.15977881       0.00464537      -0.00664251      -0.06021683
Cu       5.16506196       7.68891097      17.23800403       0.00936338       0.00067011       0.14031026       0.00927879      -0.00311443       0.15181801       0.03788554      -0.05684769      -0.09780931
Cu       2.60098651       7.72163012      17.38762368      -0.03656408      -0.01774894       0.07042050       0.00002791      -0.00636749       0.14183812      -0.07477826      -0.04651325      -0.14909509
Cu      10.24551007       7.68044918      17.23192046      -0.02342386      -0.00014389       0.14143340      -0.00938203      -0.00309062       0.15173828      -0.03967730      -0.04781673      -0.08627309
Cu      10.22643525       2.57254131      17.23406690      -0.02245009      -0.00240233       0.13997480      -0.01856196      -0.00269710       0.14567797      -0.02439779       0.02439274      -0.10166147
Cu       2.56631630       2.68579784      17.31993903      -0.00202976      -0.03086045       0.11537336      -0.00035347       0.00022884       0.14079502      -0.01743899      -0.10865941      -0.05605847
Cu       5.16526450       2.56651970      17.23568236       0.00838972      -0.00117259       0.13866010       0.01823756      -0.00265995       0.14584234       0.02736621       0.03928545      -0.12832198
Cu       7.69898947       2.56510328      17.25243030      -0.00833716      -0.00018020       0.14764471       0.00006068       0.00006862       0.16002041      -0.01237976       0.01184422      -0.05437609
Cu      10.27734423       5.12554531      17.26709251      -0.00817790       0.00136631       0.14057859      -0.01563785       0.00650742       0.14977893      -0.19099843       0.02807187      -0.17284434
Cu       2.56150582       5.20618048      17.27279113      -0.00115626      -0.02262358       0.14515577       0.00004552      -0.01739759       0.17396839      -0.00629913       0.08970752      -0.54780848
Cu       5.11713169       5.12719605      17.27228750       0.00685162       0.00221702       0.14020861       0.01518085       0.00655290       0.14977794       0.19572333       0.02022511      -0.17078655
Cu       7.69753635       5.13338925      17.25183196       0.00034968       0.00117730       0.14591850      -0.00026218       0.00039659       0.16038772       0.00132416       0.00035167      -0.08932649
O        2.37256360       1.40644168      18.79487847       0.01387613      -0.04281049       0.01777570       0.00021914      -0.03227603       0.02367728       0.12695377      -0.07981765      -0.11667400
C        2.62847670       4.82393242      19.01915173       0.00787049      -0.00614966       0.10264552       0.00030506       0.00266658       0.05246448       0.02801166      -0.18339297       0.00121690
H        3.17685343       1.50445116      19.33691315       0.03407066      -0.08170412      -0.02483062       0.00002645      -0.02224770       0.00040054      -0.02739536       0.17969120       0.69961654
O        2.64710430       4.77070987      20.17848395       0.01475102      -0.04234820       0.06648629       0.00061065      -0.01852806       0.04528921      -0.02412401      -0.11400675       0.13058510
52
Lattice="10.26719046282867 0.0 0.0 0.0 7.700392847121503 0.0 0.0 0.0 27.347850919999996" Properties=species:S:1:pos:R:3:MACE_forces:R:3:forces:R:3:DFT_forces:R:3 method=neb MACE_energy=-207.50713530202276 energy=-207.65077670682652 stress="0.009273451154845076 -4.408335087359909e-07 -8.570739400643434e-07 -4.408335087359909e-07 0.008782818095491621 0.00016132177534819965 -8.570739400643434e-07 0.00016132177534819965 0.0011041063492616735" free_energy=-207.65077670682652 DFT_energy=-211.37382542 pbc="T T T"
Cu       1.28339881       1.28339881      11.83696273       0.00000000       0.00000000       0.00000000       0.00054538      -0.00039471       0.18436377      -0.00861717       0.01953183       0.42903088
Cu       3.85019642       1.28339881      11.83696273       0.00000000       0.00000000       0.00000000      -0.00054435      -0.00039637       0.18436194       0.01103932       0.01402199       0.42730655
Cu       6.41699404       1.28339881      11.83696273       0.00000000       0.00000000       0.00000000      -0.00092168       0.00050522       0.18406174      -0.00393110       0.01023579       0.47507120
Cu       8.98379165       1.28339881      11.83696273       0.00000000       0.00000000       0.00000000       0.00092019       0.00050763       0.18406538       0.00166315       0.01269762       0.47865835
Cu       1.28339881       3.85019642      11.83696273       0.00000000       0.00000000       0.00000000      -0.00021878       0.00035897       0.18264049      -0.01598209      -0.03788949       0.44770243
Cu       3.85019642       3.85019642      11.83696273       0.00000000       0.00000000       0.00000000       0.00021921       0.00036050       0.18263518       0.02276113      -0.03568037       0.43693661
Cu       6.41699404       3.85019642      11.83696273       0.00000000       0.00000000       0.00000000      -0.00125783      -0.00015504       0.18493269      -0.03860847      -0.02857238       0.45588516
Cu       8.98379165       3.85019642      11.83696273       0.00000000       0.00000000       0.00000000       0.00125715      -0.00015804       0.18493761       0.03283281      -0.03235244       0.45293755
Cu       1.28339881       6.41699404      11.83696273       0.00000000       0.00000000       0.00000000       0.00048783       0.00011282       0.18565408      -0.02012660       0.02060375       0.44629932
Cu       3.85019642       6.41699404      11.83696273       0.00000000       0.00000000       0.00000000      -0.00048421       0.00011340       0.18565294       0.02877181       0.02285248       0.43897547
Cu       6.41699404       6.41699404      11.83696273       0.00000000       0.00000000       0.00000000      -0.00130941      -0.00031184       0.18548086      -0.04133504       0.02042996       0.46512331
Cu       8.98379165       6.41699404      11.83696273       0.00000000       0.00000000       0.00000000       0.00130687      -0.00031181       0.18548192       0.03327566       0.01905544       0.46180224
Cu       7.70039285      -0.00000000      13.67392546       0.00000000       0.00000000       0.00000000      -0.00000459      -0.00045606      -0.09168766       0.00523595      -0.01796534      -0.19166777
Cu       5.13359523      -0.00000000      13.67392546       0.00000000       0.00000000       0.00000000       0.00207406       0.00029677      -0.09746935      -0.03248084      -0.02687566      -0.17601434
Cu       2.56679762      -0.00000000      13.67392546       0.00000000       0.00000000       0.00000000       0.00000433      -0.00228964      -0.10780673      -0.00573201      -0.02243090      -0.16674418
Cu       0.00000000      -0.00000000      13.67392546       0.00000000       0.00000000       0.00000000      -0.00207021       0.00027594      -0.09749658       0.03180741      -0.03035815      -0.17845922
Cu       0.00000000       2.56679762      13.67392546       0.00000000       0.00000000       0.00000000      -0.00304513      -0.00059061      -0.09536655       0.01417067       0.02383957      -0.19429818
Cu       2.56679762       2.56679762      13.67392546       0.00000000       0.00000000       0.00000000       0.00001226       0.00334251      -0.08396598      -0.00200084       0.01651123      -0.14052101
Cu       5.13359523       2.56679762      13.67392546       0.00000000       0.00000000       0.00000000       0.00304599      -0.00059093      -0.09531575      -0.00811466       0.02249044      -0.18940581
Cu       7.70039285       2.56679762      13.67392546       0.00000000       0.00000000       0.00000000      -0.00002425       0.00024596      -0.08998245      -0.00405240       0.01454760      -0.18410285
Cu       0.00000000       5.13359523      13.67392546       0.00000000       0.00000000       0.00000000      -0.00080031       0.00090274      -0.09244471       0.01327361       0.00560662      -0.15936815
Cu       2.56679762       5.13359523      13.67392546       0.00000000       0.00000000       0.00000000       0.00001242      -0.00204136      -0.09676406      -0.00556163       0.01186434      -0.13041907
Cu       5.13359523       5.13359523      13.67392546       0.00000000       0.00000000       0.00000000       0.00079202       0.00088929      -0.09239408      -0.01434157       0.00527987      -0.15785642
Cu       7.70039285       5.13359523      13.67392546       0.00000000       0.00000000       0.00000000       0.00000348       0.00040959      -0.09684921       0.00926384       0.00278690      -0.16958588
Cu       1.28339881       1.28339881      15.51088819       0.00000000       0.00000000       0.00000000      -0.01469815       0.02191425      -0.29773629       0.10840052       0.04750301      -0.17691866
Cu       3.85019642       1.28339881      15.51088819       0.00000000       0.00000000       0.00000000       0.01499254       0.02181485      -0.29807164      -0.13284681       0.05488024      -0.15845766
Cu       6.41699404       1.28339881      15.51088819       0.00000000       0.00000000       0.00000000      -0.01079831       0.02366442      -0.24307168       0.00100847      -0.02159993      -0.27204416
Cu       8.98379165       1.28339881      15.51088819       0.00000000       0.00000000       0.00000000       0.01038163       0.02338985      -0.24330219       0.02192500      -0.01812861      -0.24471817
Cu       1.28339881       3.85019642      15.51088819       0.00000000       0.00000000       0.00000000       0.08024732       0.04114655      -0.17708143       0.06435078      -0.04541308      -0.30864183
Cu       3.85019642       3.85019642      15.51088819       0.00000000       0.00000000       0.00000000      -0.08001170       0.04148323      -0.17723043      -0.07737693      -0.04574354      -0.30831901
Cu       6.41699404       3.85019642      15.51088819       0.00000000       0.00000000       0.00000000      -0.00735056      -0.04009830      -0.26373072      -0.03829067       0.05360317      -0.18366617
Cu       8.98379165       3.85019642      15.51088819       0.00000000       0.00000000       0.00000000       0.00703189      -0.03992705      -0.26404419       0.00748025       0.04405227      -0.19278474
Cu       1.28339881       6.41699404      15.51088819       0.00000000       0.00000000       0.00000000       0.02105574      -0.03744787      -0.23010730       0.19137852       0.16192392      -0.10494908
Cu       3.85019642       6.41699404      15.51088819       0.00000000       0.00000000       0.00000000      -0.02090402      -0.03753925      -0.22991127      -0.17136485       0.17119913      -0.10201048
Cu       6.41699404       6.41699404      15.51088819       0.00000000       0.00000000       0.00000000       0.02873606       0.03701477      -0.30287250      -0.00574886      -0.05417652      -0.17907558
Cu       8.98379165       6.41699404      15.51088819       0.00000000       0.00000000       0.00000000      -0.02833957       0.03686325      -0.30281928      -0.00851908      -0.05295549      -0.19362261
Cu       7.70303802       7.70237406      17.25040788      -0.00416573       0.00114126       0.15091204      -0.00013841      -0.00094561       0.15977881      -0.00325426      -0.00568787      -0.06046969
Cu       5.16181531       7.68763440      17.23826758       0.00931341       0.00034774       0.14082215       0.00927879      -0.00311443       0.15181801       0.04463822      -0.05942075      -0.09411771
Cu       2.59742009       7.74408858      17.37939325      -0.01686439      -0.02790557       0.10344796       0.00002791      -0.00636749       0.14183812      -0.04927734      -0.13954494      -0.09558261
Cu      10.24538452       7.67769557      17.23207493      -0.02204365      -0.00020584       0.14333096      -0.00938203      -0.00309062       0.15173828      -0.04109576      -0.04668296      -0.08343074
Cu      10.22348772       2.57160510      17.23595313      -0.01915973      -0.00148948       0.14021309      -0.01856196      -0.00269710       0.14567797      -0.02484763       0.01474941      -0.10855061
Cu       2.56650120       2.69320550      17.30959678      -0.00379444      -0.01254316       0.14392488      -0.00035347       0.00022884       0.14079502      -0.01734075      -0.07077059       0.02156379
Cu       5.16239982       2.56523148      17.23625222       0.01394074      -0.00139650       0.13980321       0.01823756      -0.00265995       0.14584234       0.04134507       0.02912713      -0.13548620
Cu       7.69596116       2.56547641      17.25193695      -0.00218203      -0.00054008       0.15006610       0.00006068       0.00006862       0.16002041      -0.00555123       0.01074901      -0.05210587
Cu      10.27708963       5.12320330      17.26594096      -0.01111850       0.00215182       0.14276365      -0.01563785       0.00650742       0.14977893      -0.18895947       0.04152551      -0.16838174
Cu       2.56104272       5.22198878      17.28020533      -0.00000713      -0.02221339       0.15838630       0.00004552      -0.01739759       0.17396839      -0.00465701       0.08758587      -0.44400814
Cu       5.11737440       5.12521756      17.27106907       0.00999208       0.00281058       0.14327439       0.01518085       0.00655290       0.14977794       0.19431835       0.03124459      -0.16594922
Cu       7.69743627       5.13368128      17.25089224       0.00094670       0.00084893       0.14968315      -0.00026218       0.00039659       0.16038772       0.00219284       0.00091476      -0.08678567
O        2.34076338       1.42299542      18.78990610       0.00246211      -0.05881057       0.01951880       0.00021914      -0.03227603       0.02367728       0.11753300      -0.07616091      -0.10839545
C        2.63231677       4.68163429      18.99878144       0.01263885      -0.03304288       0.09146562       0.00030506       0.00266658       0.05246448       0.02941143      -0.22229234       0.00424666
H        3.12230761       1.54415906      19.36008293       0.03614464      -0.10261659      -0.03434334       0.00002645      -0.02224770       0.00040054      -0.02746908       0.24563516       0.51243397
O        2.65360478       4.60072175      20.15733828       0.01685851      -0.03894551       0.05124244       0.00061065      -0.01852806       0.04528921      -0.03059371      -0.14634635       0.11294117
52
Lattice="10.26719046282867 0.0 0.0 0.0 7.700392847121503 0.0 0.0 0.0 27.347850919999996" Properties=species:S:1:pos:R:3:MACE_forces:R:3:forces:R:3:DFT_forces:R:3 method=neb MACE_energy=-207.48854793009843 energy=-207.65077670682652 stress="0.009273451154845076 -4.408335087359909e-07 -8.570739400643434e-07 -4.408335087359909e-07 0.008782818095491621 0.00016132177534819965 -8.570739400643434e-07 0.00016132177534819965 0.0011041063492616735" free_energy=-207.65077670682652 DFT_energy=-211.3267608 pbc="T T T"
Cu       1.28339881       1.28339881      11.83696273       0.00000000       0.00000000       0.00000000       0.00054538      -0.00039471       0.18436377      -0.00839646       0.02326763       0.43100292
Cu       3.85019642       1.28339881      11.83696273       0.00000000       0.00000000       0.00000000      -0.00054435      -0.00039637       0.18436194       0.01117875       0.01837042       0.42622111
Cu       6.41699404       1.28339881      11.83696273       0.00000000       0.00000000       0.00000000      -0.00092168       0.00050522       0.18406174      -0.00678892       0.01274102       0.47516924
Cu       8.98379165       1.28339881      11.83696273       0.00000000       0.00000000       0.00000000       0.00092019       0.00050763       0.18406538       0.00354267       0.01492222       0.47646531
Cu       1.28339881       3.85019642      11.83696273       0.00000000       0.00000000       0.00000000      -0.00021878       0.00035897       0.18264049      -0.01430179      -0.04201283       0.44829690
Cu       3.85019642       3.85019642      11.83696273       0.00000000       0.00000000       0.00000000       0.00021921       0.00036050       0.18263518       0.02077795      -0.03859898       0.43585419
Cu       6.41699404       3.85019642      11.83696273       0.00000000       0.00000000       0.00000000      -0.00125783      -0.00015504       0.18493269      -0.03752547      -0.02869173       0.45678273
Cu       8.98379165       3.85019642      11.83696273       0.00000000       0.00000000       0.00000000       0.00125715      -0.00015804       0.18493761       0.03173577      -0.03364631       0.45338562
Cu       1.28339881       6.41699404      11.83696273       0.00000000       0.00000000       0.00000000       0.00048783       0.00011282       0.18565408      -0.02016133       0.02056490       0.44527037
Cu       3.85019642       6.41699404      11.83696273       0.00000000       0.00000000       0.00000000      -0.00048421       0.00011340       0.18565294       0.02827194       0.02137588       0.43709288
Cu       6.41699404       6.41699404      11.83696273       0.00000000       0.00000000       0.00000000      -0.00130941      -0.00031184       0.18548086      -0.04251489       0.01819548       0.47053584
Cu       8.98379165       6.41699404      11.83696273       0.00000000       0.00000000       0.00000000       0.00130687      -0.00031181       0.18548192       0.03407924       0.01777614       0.46503853
Cu       7.70039285      -0.00000000      13.67392546       0.00000000       0.00000000       0.00000000      -0.00000459      -0.00045606      -0.09168766       0.00272623      -0.01760397      -0.19283085
Cu       5.13359523      -0.00000000      13.67392546       0.00000000       0.00000000       0.00000000       0.00207406       0.00029677      -0.09746935      -0.03317372      -0.02470240      -0.17564187
Cu       2.56679762      -0.00000000      13.67392546       0.00000000       0.00000000       0.00000000       0.00000433      -0.00228964      -0.10780673      -0.00564123      -0.02381897      -0.16903983
Cu       0.00000000      -0.00000000      13.67392546       0.00000000       0.00000000       0.00000000      -0.00207021       0.00027594      -0.09749658       0.03415621      -0.02805774      -0.17708050
Cu       0.00000000       2.56679762      13.67392546       0.00000000       0.00000000       0.00000000      -0.00304513      -0.00059061      -0.09536655       0.01068701       0.02154340      -0.19721958
Cu       2.56679762       2.56679762      13.67392546       0.00000000       0.00000000       0.00000000       0.00001226       0.00334251      -0.08396598      -0.00241875       0.01503782      -0.13654652
Cu       5.13359523       2.56679762      13.67392546       0.00000000       0.00000000       0.00000000       0.00304599      -0.00059093      -0.09531575      -0.00327498       0.02055390      -0.19345167
Cu       7.70039285       2.56679762      13.67392546       0.00000000       0.00000000       0.00000000      -0.00002425       0.00024596      -0.08998245      -0.00549049       0.01374994      -0.18317813
Cu       0.00000000       5.13359523      13.67392546       0.00000000       0.00000000       0.00000000      -0.00080031       0.00090274      -0.09244471       0.01337765       0.00575934      -0.15948736
Cu       2.56679762       5.13359523      13.67392546       0.00000000       0.00000000       0.00000000       0.00001242      -0.00204136      -0.09676406      -0.00702919       0.01624795      -0.12322084
Cu       5.13359523       5.13359523      13.67392546       0.00000000       0.00000000       0.00000000       0.00079202       0.00088929      -0.09239408      -0.01629443       0.00441392      -0.15665643
Cu       7.70039285       5.13359523      13.67392546       0.00000000       0.00000000       0.00000000       0.00000348       0.00040959      -0.09684921       0.01203605       0.00274976      -0.17022622
Cu       1.28339881       1.28339881      15.51088819       0.00000000       0.00000000       0.00000000      -0.01469815       0.02191425      -0.29773629       0.10809144       0.05107084      -0.18390999
Cu       3.85019642       1.28339881      15.51088819       0.00000000       0.00000000       0.00000000       0.01499254       0.02181485      -0.29807164      -0.13542005       0.05988162      -0.16016583
Cu       6.41699404       1.28339881      15.51088819       0.00000000       0.00000000       0.00000000      -0.01079831       0.02366442      -0.24307168      -0.00160450      -0.02854594      -0.26443446
Cu       8.98379165       1.28339881      15.51088819       0.00000000       0.00000000       0.00000000       0.01038163       0.02338985      -0.24330219       0.03338365      -0.01934904      -0.23110770
Cu       1.28339881       3.85019642      15.51088819       0.00000000       0.00000000       0.00000000       0.08024732       0.04114655      -0.17708143       0.04429131      -0.01958152      -0.34704591
Cu       3.85019642       3.85019642      15.51088819       0.00000000       0.00000000       0.00000000      -0.08001170       0.04148323      -0.17723043      -0.05925206      -0.01499709      -0.33271767
Cu       6.41699404       3.85019642      15.51088819       0.00000000       0.00000000       0.00000000      -0.00735056      -0.04009830      -0.26373072      -0.03351862       0.04866880      -0.18663320
Cu       8.98379165       3.85019642      15.51088819       0.00000000       0.00000000       0.00000000       0.00703189      -0.03992705      -0.26404419       0.02335297       0.03586024      -0.18334981
Cu       1.28339881       6.41699404      15.51088819       0.00000000       0.00000000       0.00000000       0.02105574      -0.03744787      -0.23010730       0.20636283       0.17380125      -0.07430905
Cu       3.85019642       6.41699404      15.51088819       0.00000000       0.00000000       0.00000000      -0.02090402      -0.03753925      -0.22991127      -0.20224762       0.18196596      -0.05525443
Cu       6.41699404       6.41699404      15.51088819       0.00000000       0.00000000       0.00000000       0.02873606       0.03701477      -0.30287250      -0.00417342      -0.04746907      -0.17756076
Cu       8.98379165       6.41699404      15.51088819       0.00000000       0.00000000       0.00000000      -0.02833957       0.03686325      -0.30281928      -0.01071519      -0.05011287      -0.19247809
Cu       7.70058886       7.70232624      17.24975921      -0.00293953       0.00126682       0.15111156      -0.00013841      -0.00094561       0.15977881      -0.00408776      -0.00294914      -0.06237042
Cu       5.15398286       7.68678512      17.23938114       0.01614627      -0.00130128       0.14040804       0.00927879      -0.00311443       0.15181801       0.05927135      -0.06427117      -0.08826036
Cu       2.59659002       7.77900234      17.40167425      -0.00638014      -0.04464930       0.08543184       0.00002791      -0.00636749       0.14183812      -0.03484266      -0.22384290      -0.10022652
Cu      10.24636158       7.67502911      17.23288782      -0.02139643      -0.00180670       0.14275351      -0.00938203      -0.00309062       0.15173828      -0.04568858      -0.04959785      -0.08196593
Cu      10.22807491       2.57073911      17.24021848      -0.02739354      -0.00113683       0.13660282      -0.01856196      -0.00269710       0.14567797      -0.04351384       0.00115444      -0.12430858
Cu       2.57500191       2.70374612      17.29412609      -0.01555124       0.01450547       0.17444628      -0.00035347       0.00022884       0.14079502      -0.02047354      -0.00147035       0.11896866
Cu       5.16520634       2.56329053      17.23783712       0.00741190      -0.00227902       0.13894570       0.01823756      -0.00265995       0.14584234       0.04604855       0.02016052      -0.14368835
Cu       7.69982004       2.56587512      17.25207463      -0.00756196      -0.00100249       0.14970253       0.00006068       0.00006862       0.16002041      -0.01031757       0.00948436      -0.05200500
Cu      10.27709886       5.12079459      17.26611992      -0.00872844       0.00227576       0.14365171      -0.01563785       0.00650742       0.14977893      -0.18796711       0.05684632      -0.16763246
Cu       2.56103188       5.24582065      17.29482577       0.00180655      -0.01754850       0.14561160       0.00004552      -0.01739759       0.17396839       0.00862113       0.06027828      -0.35946788
Cu       5.11996547       5.12341391      17.26815220       0.00854021       0.00249892       0.14555787       0.01518085       0.00655290       0.14977794       0.17716686       0.04140452      -0.15804358
Cu       7.69826255       5.13375003      17.25060095       0.00103311       0.00085125       0.15021026      -0.00026218       0.00039659       0.16038772       0.00220393      -0.00007791      -0.08659447
O        2.28368214       1.47202731      18.79513058      -0.00643299      -0.10711407       0.00329241       0.00021914      -0.03227603       0.02367728       0.10616484      -0.11974194      -0.11087864
C        2.60480229       4.54454935      18.97460887       0.01958639      -0.01720427       0.03766612       0.00030506       0.00266658       0.05246448       0.00560262      -0.24937468       0.04289118
H        3.01614724       1.64624031      19.41501232       0.03693505      -0.17619439      -0.04995001       0.00002645      -0.02224770       0.00040054       0.01066070       0.34623944       0.29050978
O        2.63698753       4.43633371      20.13165508       0.00752261      -0.01647145       0.08364342       0.00061065      -0.01852806       0.04528921      -0.03695750      -0.20557192       0.08550363
52
Lattice="10.26719046282867 0.0 0.0 0.0 7.700392847121503 0.0 0.0 0.0 27.347850919999996" Properties=species:S:1:pos:R:3:MACE_forces:R:3:forces:R:3:DFT_forces:R:3 method=neb MACE_energy=-207.46199398819087 energy=-207.65077670682652 stress="0.009273451154845076 -4.408335087359909e-07 -8.570739400643434e-07 -4.408335087359909e-07 0.008782818095491621 0.00016132177534819965 -8.570739400643434e-07 0.00016132177534819965 0.0011041063492616735" free_energy=-207.65077670682652 DFT_energy=-211.27829353 pbc="T T T"
Cu       1.28339881       1.28339881      11.83696273       0.00000000       0.00000000       0.00000000       0.00054538      -0.00039471       0.18436377      -0.00870251       0.02286498       0.43333514
Cu       3.85019642       1.28339881      11.83696273       0.00000000       0.00000000       0.00000000      -0.00054435      -0.00039637       0.18436194       0.00993521       0.01815686       0.42416324
Cu       6.41699404       1.28339881      11.83696273       0.00000000       0.00000000       0.00000000      -0.00092168       0.00050522       0.18406174      -0.00613371       0.01408918       0.47802600
Cu       8.98379165       1.28339881      11.83696273       0.00000000       0.00000000       0.00000000       0.00092019       0.00050763       0.18406538       0.00422230       0.01474229       0.47155330
Cu       1.28339881       3.85019642      11.83696273       0.00000000       0.00000000       0.00000000      -0.00021878       0.00035897       0.18264049      -0.01578487      -0.04426192       0.44749647
Cu       3.85019642       3.85019642      11.83696273       0.00000000       0.00000000       0.00000000       0.00021921       0.00036050       0.18263518       0.01931481      -0.03742925       0.43796946
Cu       6.41699404       3.85019642      11.83696273       0.00000000       0.00000000       0.00000000      -0.00125783      -0.00015504       0.18493269      -0.03633824      -0.02768866       0.45524913
Cu       8.98379165       3.85019642      11.83696273       0.00000000       0.00000000       0.00000000       0.00125715      -0.00015804       0.18493761       0.03283207      -0.03494509       0.45289712
Cu       1.28339881       6.41699404      11.83696273       0.00000000       0.00000000       0.00000000       0.00048783       0.00011282       0.18565408      -0.02112055       0.02273591       0.44526053
Cu       3.85019642       6.41699404      11.83696273       0.00000000       0.00000000       0.00000000      -0.00048421       0.00011340       0.18565294       0.02702102       0.02048787       0.43537406
Cu       6.41699404       6.41699404      11.83696273       0.00000000       0.00000000       0.00000000      -0.00130941      -0.00031184       0.18548086      -0.04210307       0.01650866       0.47246151
Cu       8.98379165       6.41699404      11.83696273       0.00000000       0.00000000       0.00000000       0.00130687      -0.00031181       0.18548192       0.03514669       0.01872729       0.46475393
Cu       7.70039285      -0.00000000      13.67392546       0.00000000       0.00000000       0.00000000      -0.00000459      -0.00045606      -0.09168766      -0.00144109      -0.01606858      -0.19264324
Cu       5.13359523      -0.00000000      13.67392546       0.00000000       0.00000000       0.00000000       0.00207406       0.00029677      -0.09746935      -0.03276314      -0.02452486      -0.17373393
Cu       2.56679762      -0.00000000      13.67392546       0.00000000       0.00000000       0.00000000       0.00000433      -0.00228964      -0.10780673      -0.00487495      -0.02642901      -0.16955733
Cu       0.00000000      -0.00000000      13.67392546       0.00000000       0.00000000       0.00000000      -0.00207021       0.00027594      -0.09749658       0.03510939      -0.02696962      -0.17796766
Cu       0.00000000       2.56679762      13.67392546       0.00000000       0.00000000       0.00000000      -0.00304513      -0.00059061      -0.09536655       0.00911425       0.02057117      -0.19823457
Cu       2.56679762       2.56679762      13.67392546       0.00000000       0.00000000       0.00000000       0.00001226       0.00334251      -0.08396598      -0.00286515       0.01618835      -0.13648776
Cu       5.13359523       2.56679762      13.67392546       0.00000000       0.00000000       0.00000000       0.00304599      -0.00059093      -0.09531575      -0.00173335       0.02164964      -0.19292091
Cu       7.70039285       2.56679762      13.67392546       0.00000000       0.00000000       0.00000000      -0.00002425       0.00024596      -0.08998245      -0.00509629       0.01438978      -0.18179987
Cu       0.00000000       5.13359523      13.67392546       0.00000000       0.00000000       0.00000000      -0.00080031       0.00090274      -0.09244471       0.01338539       0.00649140      -0.15808269
Cu       2.56679762       5.13359523      13.67392546       0.00000000       0.00000000       0.00000000       0.00001242      -0.00204136      -0.09676406      -0.00715085       0.01829055      -0.12236511
Cu       5.13359523       5.13359523      13.67392546       0.00000000       0.00000000       0.00000000       0.00079202       0.00088929      -0.09239408      -0.01673088       0.00190438      -0.15807322
Cu       7.70039285       5.13359523      13.67392546       0.00000000       0.00000000       0.00000000       0.00000348       0.00040959      -0.09684921       0.01282366       0.00004497      -0.16967091
Cu       1.28339881       1.28339881      15.51088819       0.00000000       0.00000000       0.00000000      -0.01469815       0.02191425      -0.29773629       0.09933545       0.03469439      -0.19192986
Cu       3.85019642       1.28339881      15.51088819       0.00000000       0.00000000       0.00000000       0.01499254       0.02181485      -0.29807164      -0.13615269       0.04271281      -0.15977572
Cu       6.41699404       1.28339881      15.51088819       0.00000000       0.00000000       0.00000000      -0.01079831       0.02366442      -0.24307168      -0.00635745      -0.03252343      -0.25638152
Cu       8.98379165       1.28339881      15.51088819       0.00000000       0.00000000       0.00000000       0.01038163       0.02338985      -0.24330219       0.03428516      -0.01802520      -0.22755095
Cu       1.28339881       3.85019642      15.51088819       0.00000000       0.00000000       0.00000000       0.08024732       0.04114655      -0.17708143       0.03516547      -0.00369893      -0.37020677
Cu       3.85019642       3.85019642      15.51088819       0.00000000       0.00000000       0.00000000      -0.08001170       0.04148323      -0.17723043      -0.04825304       0.01657441      -0.33433286
Cu       6.41699404       3.85019642      15.51088819       0.00000000       0.00000000       0.00000000      -0.00735056      -0.04009830      -0.26373072      -0.01621762       0.04504278      -0.19463495
Cu       8.98379165       3.85019642      15.51088819       0.00000000       0.00000000       0.00000000       0.00703189      -0.03992705      -0.26404419       0.04424768       0.03381881      -0.17294818
Cu       1.28339881       6.41699404      15.51088819       0.00000000       0.00000000       0.00000000       0.02105574      -0.03744787      -0.23010730       0.21482066       0.17759911      -0.03936413
Cu       3.85019642       6.41699404      15.51088819       0.00000000       0.00000000       0.00000000      -0.02090402      -0.03753925      -0.22991127      -0.24155545       0.16770102      -0.01044354
Cu       6.41699404       6.41699404      15.51088819       0.00000000       0.00000000       0.00000000       0.02873606       0.03701477      -0.30287250      -0.00659394      -0.03763998      -0.17820252
Cu       8.98379165       6.41699404      15.51088819       0.00000000       0.00000000       0.00000000      -0.02833957       0.03686325      -0.30281928      -0.01587690      -0.04994917      -0.19224061
Cu       7.69304368       7.70204092      17.24952014       0.00155084       0.00127323       0.15071674      -0.00013841      -0.00094561       0.15977881      -0.00444707      -0.00227688      -0.06368303
Cu       5.14036897       7.68792590      17.24008004       0.02669317      -0.00519415       0.13936338       0.00927879      -0.00311443       0.15181801       0.07621002      -0.06528147      -0.08738880
Cu       2.57602857       7.79642289      17.41947019       0.02732892      -0.04568516       0.09797716       0.00002791      -0.00636749       0.14183812       0.00185848      -0.23357949      -0.09613899
Cu      10.23935516       7.67548090      17.23363383      -0.01570740      -0.00379533       0.14115531      -0.00938203      -0.00309062       0.15173828      -0.03811625      -0.05406964      -0.08398029
Cu      10.23615439       2.57088309      17.24242413      -0.03648012      -0.00192188       0.13386539      -0.01856196      -0.00269710       0.14567797      -0.06076640      -0.00582579      -0.13081816
Cu       2.58633358       2.69810557      17.27536804      -0.03644718       0.04268577       0.19148978      -0.00035347       0.00022884       0.14079502      -0.02726113       0.04797454       0.15022181
Cu       5.17226946       2.56362625      17.23867876      -0.00068156      -0.00381155       0.13611105       0.01823756      -0.00265995       0.14584234       0.03616096       0.02195000      -0.14458166
Cu       7.70683238       2.56607985      17.25249875      -0.01568994      -0.00129862       0.14891625       0.00006068       0.00006862       0.16002041      -0.01760203       0.00828708      -0.05685369
Cu      10.27802301       5.12086699      17.26880683      -0.00149362       0.00100210       0.14559943      -0.01563785       0.00650742       0.14977893      -0.19479427       0.06143138      -0.17044534
Cu       2.56148979       5.24183875      17.30749197       0.00580640       0.02419217       0.13381380       0.00004552      -0.01739759       0.17396839       0.02008098       0.09883102      -0.34735189
Cu       5.12470010       5.12464862      17.26378561       0.00437291      -0.00002574       0.14811947       0.01518085       0.00655290       0.14977794       0.14761555       0.03805974      -0.14924759
Cu       7.70042633       5.13375804      17.25050861       0.00098337       0.00081562       0.14991863      -0.00026218       0.00039659       0.16038772       0.00308021       0.00015363      -0.08677791
O        2.27237253       1.52693105      18.80867842       0.01128749      -0.18511801      -0.02321349       0.00021914      -0.03227603       0.02367728       0.10868807      -0.23859068      -0.12290985
C        2.53612599       4.52838463      18.99060885       0.02774915       0.05092821       0.05524054       0.00030506       0.00266658       0.05246448      -0.06302031      -0.28251632      -0.01001701
H        3.00283411       1.72707793      19.42395167       0.02339225      -0.21791715      -0.04960625       0.00002645      -0.02224770       0.00040054       0.10774516       0.46488801       0.26219601
O        2.59564160       4.43886783      20.14823196      -0.02088539      -0.02678090       0.02894662       0.00061065      -0.01852806       0.04528921      -0.04834548      -0.24526803       0.07878532
52
Lattice="10.26719046282867 0.0 0.0 0.0 7.700392847121503 0.0 0.0 0.0 27.347850919999996" Properties=species:S:1:pos:R:3:MACE_forces:R:3:forces:R:3:DFT_forces:R:3 method=neb MACE_energy=-207.42761457890177 energy=-207.65077670682652 stress="0.009273451154845076 -4.408335087359909e-07 -8.570739400643434e-07 -4.408335087359909e-07 0.008782818095491621 0.00016132177534819965 -8.570739400643434e-07 0.00016132177534819965 0.0011041063492616735" free_energy=-207.65077670682652 DFT_energy=-211.2241696 pbc="T T T"
Cu       1.28339881       1.28339881      11.83696273       0.00000000       0.00000000       0.00000000       0.00054538      -0.00039471       0.18436377      -0.00870969       0.02214200       0.43418176
Cu       3.85019642       1.28339881      11.83696273       0.00000000       0.00000000       0.00000000      -0.00054435      -0.00039637       0.18436194       0.00981031       0.01739802       0.42357979
Cu       6.41699404       1.28339881      11.83696273       0.00000000       0.00000000       0.00000000      -0.00092168       0.00050522       0.18406174      -0.00676328       0.01489502       0.47912445
Cu       8.98379165       1.28339881      11.83696273       0.00000000       0.00000000       0.00000000       0.00092019       0.00050763       0.18406538       0.00597928       0.01486444       0.46947883
Cu       1.28339881       3.85019642      11.83696273       0.00000000       0.00000000       0.00000000      -0.00021878       0.00035897       0.18264049      -0.01597474      -0.04552703       0.44710990
Cu       3.85019642       3.85019642      11.83696273       0.00000000       0.00000000       0.00000000       0.00021921       0.00036050       0.18263518       0.01884718      -0.03707600       0.43958732
Cu       6.41699404       3.85019642      11.83696273       0.00000000       0.00000000       0.00000000      -0.00125783      -0.00015504       0.18493269      -0.03590241      -0.02709230       0.45385813
Cu       8.98379165       3.85019642      11.83696273       0.00000000       0.00000000       0.00000000       0.00125715      -0.00015804       0.18493761       0.03380989      -0.03533167       0.45229950
Cu       1.28339881       6.41699404      11.83696273       0.00000000       0.00000000       0.00000000       0.00048783       0.00011282       0.18565408      -0.02132574       0.02454621       0.44508380
Cu       3.85019642       6.41699404      11.83696273       0.00000000       0.00000000       0.00000000      -0.00048421       0.00011340       0.18565294       0.02660773       0.02099089       0.43470056
Cu       6.41699404       6.41699404      11.83696273       0.00000000       0.00000000       0.00000000      -0.00130941      -0.00031184       0.18548086      -0.04239327       0.01553983       0.47354760
Cu       8.98379165       6.41699404      11.83696273       0.00000000       0.00000000       0.00000000       0.00130687      -0.00031181       0.18548192       0.03674897       0.01903183       0.46543411
Cu       7.70039285      -0.00000000      13.67392546       0.00000000       0.00000000       0.00000000      -0.00000459      -0.00045606      -0.09168766      -0.00261783      -0.01484415      -0.19188710
Cu       5.13359523      -0.00000000      13.67392546       0.00000000       0.00000000       0.00000000       0.00207406       0.00029677      -0.09746935      -0.03207443      -0.02391898      -0.17305907
Cu       2.56679762      -0.00000000      13.67392546       0.00000000       0.00000000       0.00000000       0.00000433      -0.00228964      -0.10780673      -0.00423215      -0.02844754      -0.17047759
Cu       0.00000000      -0.00000000      13.67392546       0.00000000       0.00000000       0.00000000      -0.00207021       0.00027594      -0.09749658       0.03495680      -0.02652863      -0.17900787
Cu       0.00000000       2.56679762      13.67392546       0.00000000       0.00000000       0.00000000      -0.00304513      -0.00059061      -0.09536655       0.00859445       0.02046134      -0.19797883
Cu       2.56679762       2.56679762      13.67392546       0.00000000       0.00000000       0.00000000       0.00001226       0.00334251      -0.08396598      -0.00324966       0.01760949      -0.13688550
Cu       5.13359523       2.56679762      13.67392546       0.00000000       0.00000000       0.00000000       0.00304599      -0.00059093      -0.09531575      -0.00054764       0.02269102      -0.19210592
Cu       7.70039285       2.56679762      13.67392546       0.00000000       0.00000000       0.00000000      -0.00002425       0.00024596      -0.08998245      -0.00410418       0.01586076      -0.18059786
Cu       0.00000000       5.13359523      13.67392546       0.00000000       0.00000000       0.00000000      -0.00080031       0.00090274      -0.09244471       0.01392312       0.00649101      -0.15693923
Cu       2.56679762       5.13359523      13.67392546       0.00000000       0.00000000       0.00000000       0.00001242      -0.00204136      -0.09676406      -0.00665410       0.01960528      -0.12194731
Cu       5.13359523       5.13359523      13.67392546       0.00000000       0.00000000       0.00000000       0.00079202       0.00088929      -0.09239408      -0.01654762      -0.00009962      -0.15894527
Cu       7.70039285       5.13359523      13.67392546       0.00000000       0.00000000       0.00000000       0.00000348       0.00040959      -0.09684921       0.01258356      -0.00286340      -0.16863989
Cu       1.28339881       1.28339881      15.51088819       0.00000000       0.00000000       0.00000000      -0.01469815       0.02191425      -0.29773629       0.09459775       0.02520150      -0.19597797
Cu       3.85019642       1.28339881      15.51088819       0.00000000       0.00000000       0.00000000       0.01499254       0.02181485      -0.29807164      -0.12973717       0.02619934      -0.16724382
Cu       6.41699404       1.28339881      15.51088819       0.00000000       0.00000000       0.00000000      -0.01079831       0.02366442      -0.24307168      -0.00680695      -0.03553155      -0.25175558
Cu       8.98379165       1.28339881      15.51088819       0.00000000       0.00000000       0.00000000       0.01038163       0.02338985      -0.24330219       0.03553948      -0.01688427      -0.22452216
Cu       1.28339881       3.85019642      15.51088819       0.00000000       0.00000000       0.00000000       0.08024732       0.04114655      -0.17708143       0.03440393      -0.00338453      -0.37151646
Cu       3.85019642       3.85019642      15.51088819       0.00000000       0.00000000       0.00000000      -0.08001170       0.04148323      -0.17723043      -0.04255064       0.03057767      -0.33891128
Cu       6.41699404       3.85019642      15.51088819       0.00000000       0.00000000       0.00000000      -0.00735056      -0.04009830      -0.26373072      -0.01087604       0.04392844      -0.19757943
Cu       8.98379165       3.85019642      15.51088819       0.00000000       0.00000000       0.00000000       0.00703189      -0.03992705      -0.26404419       0.05379518       0.03065156      -0.16587492
Cu       1.28339881       6.41699404      15.51088819       0.00000000       0.00000000       0.00000000       0.02105574      -0.03744787      -0.23010730       0.22153905       0.17896639      -0.01771805
Cu       3.85019642       6.41699404      15.51088819       0.00000000       0.00000000       0.00000000      -0.02090402      -0.03753925      -0.22991127      -0.25725639       0.16264537       0.01436618
Cu       6.41699404       6.41699404      15.51088819       0.00000000       0.00000000       0.00000000       0.02873606       0.03701477      -0.30287250      -0.00606601      -0.03043968      -0.17700393
Cu       8.98379165       6.41699404      15.51088819       0.00000000       0.00000000       0.00000000      -0.02833957       0.03686325      -0.30281928      -0.01740955      -0.04684354      -0.19107608
Cu       7.69193305       7.70167940      17.24957698      -0.00076970       0.00112606       0.14967434      -0.00013841      -0.00094561       0.15977881      -0.00821061      -0.00035324      -0.06416400
Cu       5.13539954       7.68962474      17.24088211       0.02356301      -0.00873703       0.13843877       0.00927879      -0.00311443       0.15181801       0.07372715      -0.06960588      -0.08912497
Cu       2.56445944       7.81120533      17.42828415       0.03509655      -0.00772706       0.17174793       0.00002791      -0.00636749       0.14183812       0.00705746      -0.20572390      -0.04239417
Cu      10.23933621       7.67727258      17.23453679      -0.01897661      -0.00820324       0.13891455      -0.00938203      -0.00309062       0.15173828      -0.04079346      -0.06113009      -0.08614683
Cu      10.24061540       2.57001157      17.24390359      -0.03837199      -0.00010431       0.13100339      -0.01856196      -0.00269710       0.14567797      -0.06976307      -0.00443733      -0.13428349
Cu       2.59456114       2.68707967      17.26438745      -0.04893738       0.09335291       0.19247102      -0.00035347       0.00022884       0.14079502      -0.03221524       0.10369013       0.14398245
Cu       5.17462856       2.56408126      17.23900023       0.00179970      -0.00453598       0.13494652       0.01823756      -0.00265995       0.14584234       0.03891587       0.02347940      -0.14327869
Cu       7.70869504       2.56626691      17.25258448      -0.01317313      -0.00144502       0.14906704       0.00006068       0.00006862       0.16002041      -0.01436042       0.00709248      -0.05731588
Cu      10.27667357       5.12163704      17.26930220       0.00342237      -0.00039592       0.14759654      -0.01563785       0.00650742       0.14977893      -0.19227331       0.06289190      -0.16955966
Cu       2.56062753       5.23286510      17.31104817       0.00734149       0.06893253       0.13121026       0.00004552      -0.01739759       0.17396839       0.02048244       0.14409453      -0.33488355
Cu       5.12688851       5.12612920      17.26204675       0.00145408      -0.00209866       0.14852654       0.01518085       0.00655290       0.14977794       0.13157535       0.03397966      -0.14697283
Cu       7.70077895       5.13370714      17.25055807       0.00123706       0.00097707       0.14961932      -0.00026218       0.00039659       0.16038772       0.00331629       0.00046754      -0.08712709
O        2.27772146       1.58633892      18.83437076       0.04274256      -0.33541357      -0.08511592       0.00021914      -0.03227603       0.02367728       0.12836621      -0.41119434      -0.15870024
C        2.51035645       4.53257231      19.00331160       0.03010843       0.11231624       0.05419483       0.00030506       0.00266658       0.05246448      -0.08946152      -0.30732726      -0.03235009
H        3.01792123       1.78992038      19.43806445      -0.00455482      -0.22912941      -0.07556878       0.00002645      -0.02224770       0.00040054       0.14569774       0.56662851       0.24502729
O        2.58427027       4.46959464      20.16136106      -0.03167110      -0.04017753       0.01714005       0.00061065      -0.01852806       0.04528921      -0.07199805      -0.25803666       0.05259094
52
Lattice="10.26719046282867 0.0 0.0 0.0 7.700392847121503 0.0 0.0 0.0 27.347850919999996" Properties=species:S:1:pos:R:3:MACE_forces:R:3:forces:R:3:DFT_forces:R:3 method=neb MACE_energy=-207.31082121824213 energy=-207.65077670682652 stress="0.009273451154845076 -4.408335087359909e-07 -8.570739400643434e-07 -4.408335087359909e-07 0.008782818095491621 0.00016132177534819965 -8.570739400643434e-07 0.00016132177534819965 0.0011041063492616735" free_energy=-207.65077670682652 DFT_energy=-211.0787618 pbc="T T T"
Cu       1.28339881       1.28339881      11.83696273       0.00000000       0.00000000       0.00000000       0.00054538      -0.00039471       0.18436377      -0.00939608       0.02232769       0.43542253
Cu       3.85019642       1.28339881      11.83696273       0.00000000       0.00000000       0.00000000      -0.00054435      -0.00039637       0.18436194       0.01101400       0.01723861       0.42328830
Cu       6.41699404       1.28339881      11.83696273       0.00000000       0.00000000       0.00000000      -0.00092168       0.00050522       0.18406174      -0.00923903       0.01677960       0.47810731
Cu       8.98379165       1.28339881      11.83696273       0.00000000       0.00000000       0.00000000       0.00092019       0.00050763       0.18406538       0.00856626       0.01622409       0.46505478
Cu       1.28339881       3.85019642      11.83696273       0.00000000       0.00000000       0.00000000      -0.00021878       0.00035897       0.18264049      -0.01501827      -0.04804170       0.44683524
Cu       3.85019642       3.85019642      11.83696273       0.00000000       0.00000000       0.00000000       0.00021921       0.00036050       0.18263518       0.01784432      -0.03729281       0.44102234
Cu       6.41699404       3.85019642      11.83696273       0.00000000       0.00000000       0.00000000      -0.00125783      -0.00015504       0.18493269      -0.03548809      -0.02525264       0.45019167
Cu       8.98379165       3.85019642      11.83696273       0.00000000       0.00000000       0.00000000       0.00125715      -0.00015804       0.18493761       0.03407208      -0.03510043       0.44959384
Cu       1.28339881       6.41699404      11.83696273       0.00000000       0.00000000       0.00000000       0.00048783       0.00011282       0.18565408      -0.02144405       0.02657526       0.44447893
Cu       3.85019642       6.41699404      11.83696273       0.00000000       0.00000000       0.00000000      -0.00048421       0.00011340       0.18565294       0.02561898       0.02167563       0.43306712
Cu       6.41699404       6.41699404      11.83696273       0.00000000       0.00000000       0.00000000      -0.00130941      -0.00031184       0.18548086      -0.04403821       0.01317071       0.47525126
Cu       8.98379165       6.41699404      11.83696273       0.00000000       0.00000000       0.00000000       0.00130687      -0.00031181       0.18548192       0.04042699       0.01819322       0.46646653
Cu       7.70039285      -0.00000000      13.67392546       0.00000000       0.00000000       0.00000000      -0.00000459      -0.00045606      -0.09168766      -0.00350065      -0.01248043      -0.19122784
Cu       5.13359523      -0.00000000      13.67392546       0.00000000       0.00000000       0.00000000       0.00207406       0.00029677      -0.09746935      -0.03090176      -0.02093906      -0.17481830
Cu       2.56679762      -0.00000000      13.67392546       0.00000000       0.00000000       0.00000000       0.00000433      -0.00228964      -0.10780673      -0.00329859      -0.03173715      -0.17531784
Cu       0.00000000      -0.00000000      13.67392546       0.00000000       0.00000000       0.00000000      -0.00207021       0.00027594      -0.09749658       0.03392877      -0.02561650      -0.18234231
Cu       0.00000000       2.56679762      13.67392546       0.00000000       0.00000000       0.00000000      -0.00304513      -0.00059061      -0.09536655       0.00676830       0.02033799      -0.19870215
Cu       2.56679762       2.56679762      13.67392546       0.00000000       0.00000000       0.00000000       0.00001226       0.00334251      -0.08396598      -0.00423780       0.02108039      -0.13758599
Cu       5.13359523       2.56679762      13.67392546       0.00000000       0.00000000       0.00000000       0.00304599      -0.00059093      -0.09531575       0.00341926       0.02366298      -0.19375492
Cu       7.70039285       2.56679762      13.67392546       0.00000000       0.00000000       0.00000000      -0.00002425       0.00024596      -0.08998245      -0.00372963       0.01821057      -0.18006666
Cu       0.00000000       5.13359523      13.67392546       0.00000000       0.00000000       0.00000000      -0.00080031       0.00090274      -0.09244471       0.01548032       0.00613584      -0.15646242
Cu       2.56679762       5.13359523      13.67392546       0.00000000       0.00000000       0.00000000       0.00001242      -0.00204136      -0.09676406      -0.00657743       0.02101213      -0.12324815
Cu       5.13359523       5.13359523      13.67392546       0.00000000       0.00000000       0.00000000       0.00079202       0.00088929      -0.09239408      -0.01741654      -0.00411099      -0.16048955
Cu       7.70039285       5.13359523      13.67392546       0.00000000       0.00000000       0.00000000       0.00000348       0.00040959      -0.09684921       0.01281837      -0.00744781      -0.16880851
Cu       1.28339881       1.28339881      15.51088819       0.00000000       0.00000000       0.00000000      -0.01469815       0.02191425      -0.29773629       0.06901833       0.02576073      -0.22296930
Cu       3.85019642       1.28339881      15.51088819       0.00000000       0.00000000       0.00000000       0.01499254       0.02181485      -0.29807164      -0.10434768       0.00831825      -0.20285246
Cu       6.41699404       1.28339881      15.51088819       0.00000000       0.00000000       0.00000000      -0.01079831       0.02366442      -0.24307168      -0.00748525      -0.03947381      -0.24490344
Cu       8.98379165       1.28339881      15.51088819       0.00000000       0.00000000       0.00000000       0.01038163       0.02338985      -0.24330219       0.03602012      -0.01555619      -0.21813301
Cu       1.28339881       3.85019642      15.51088819       0.00000000       0.00000000       0.00000000       0.08024732       0.04114655      -0.17708143       0.03331349      -0.01360124      -0.36522050
Cu       3.85019642       3.85019642      15.51088819       0.00000000       0.00000000       0.00000000      -0.08001170       0.04148323      -0.17723043      -0.03837527       0.04114533      -0.34357677
Cu       6.41699404       3.85019642      15.51088819       0.00000000       0.00000000       0.00000000      -0.00735056      -0.04009830      -0.26373072      -0.00940912       0.04269356      -0.20072857
Cu       8.98379165       3.85019642      15.51088819       0.00000000       0.00000000       0.00000000       0.00703189      -0.03992705      -0.26404419       0.06540348       0.02475079      -0.15662530
Cu       1.28339881       6.41699404      15.51088819       0.00000000       0.00000000       0.00000000       0.02105574      -0.03744787      -0.23010730       0.22180878       0.15734472       0.00268198
Cu       3.85019642       6.41699404      15.51088819       0.00000000       0.00000000       0.00000000      -0.02090402      -0.03753925      -0.22991127      -0.26674142       0.13826030       0.04337716
Cu       6.41699404       6.41699404      15.51088819       0.00000000       0.00000000       0.00000000       0.02873606       0.03701477      -0.30287250      -0.00173290      -0.01995906      -0.17740303
Cu       8.98379165       6.41699404      15.51088819       0.00000000       0.00000000       0.00000000      -0.02833957       0.03686325      -0.30281928      -0.01937511      -0.04025903      -0.18844590
Cu       7.69174834       7.70126944      17.25001371      -0.00411269       0.00037898       0.14797160      -0.00013841      -0.00094561       0.15977881      -0.01244851       0.00160190      -0.06666208
Cu       5.13063079       7.69267767      17.24225038       0.01253334      -0.01232226       0.13772023       0.00927879      -0.00311443       0.15181801       0.06241313      -0.07352555      -0.08975335
Cu       2.54884587       7.81866241      17.41121455       0.00590870       0.15962652       0.39482905       0.00002791      -0.00636749       0.14183812       0.00149310      -0.13409887       0.08121184
Cu      10.24097234       7.68025390      17.23638709      -0.02812197      -0.01513958       0.13546627      -0.00938203      -0.00309062       0.15173828      -0.04853360      -0.07052725      -0.08630154
Cu      10.24421824       2.56798317      17.24683387      -0.03266493       0.00468733       0.13020078      -0.01856196      -0.00269710       0.14567797      -0.07826533       0.00097146      -0.14080149
Cu       2.60571082       2.65976316      17.24917452      -0.04570359       0.19641280       0.18025431      -0.00035347       0.00022884       0.14079502      -0.02087642       0.20028696       0.10108711
Cu       5.17410614       2.56469429      17.23943110       0.01276957      -0.00474857       0.13498847       0.01823756      -0.00265995       0.14584234       0.05364112       0.02240099      -0.14053072
Cu       7.70785237       2.56665568      17.25244344      -0.00271996      -0.00150790       0.14991016       0.00006068       0.00006862       0.16002041      -0.00526049       0.00329043      -0.05761048
Cu      10.27395668       5.12266203      17.26911740       0.00782171      -0.00097447       0.14894377      -0.01563785       0.00650742       0.14977893      -0.18125746       0.06665255      -0.16751477
Cu       2.56013446       5.21193198      17.31725911       0.00670794       0.11714146       0.12403873       0.00004552      -0.01739759       0.17396839       0.01963636       0.18663870      -0.31272231
Cu       5.13080677       5.12840976      17.26004493      -0.00100414      -0.00339794       0.14731242       0.01518085       0.00655290       0.14977794       0.10697099       0.03039632      -0.14273369
Cu       7.70126428       5.13361888      17.25070216       0.00170190       0.00141304       0.14914589      -0.00026218       0.00039659       0.16038772       0.00428046       0.00223351      -0.08757799
O        2.26638457       1.71180301      18.88503133       0.11820292      -0.75624430      -0.26774857       0.00021914      -0.03227603       0.02367728       0.16348067      -0.74875732      -0.20497207
C        2.47975667       4.51408542      19.02006214       0.02548237       0.24105970       0.02801921       0.00030506       0.00266658       0.05246448      -0.11142185      -0.34849594      -0.03044828
H        3.04240232       1.86576358      19.45908286      -0.05648266      -0.18739405      -0.09747634       0.00002645      -0.02224770       0.00040054       0.17755781       0.74889189       0.21738036
O        2.56830693       4.50594971      20.17759370      -0.03909834      -0.05283032       0.02641709       0.00061065      -0.01852806       0.04528921      -0.11517892      -0.21198932       0.03679338
52
Lattice="10.26719046282867 0.0 0.0 0.0 7.700392847121503 0.0 0.0 0.0 27.347850919999996" Properties=species:S:1:pos:R:3:MACE_forces:R:3:forces:R:3:DFT_forces:R:3 method=neb MACE_energy=-207.06317395956344 energy=-207.65077670682652 stress="0.009273451154845076 -4.408335087359909e-07 -8.570739400643434e-07 -4.408335087359909e-07 0.008782818095491621 0.00016132177534819965 -8.570739400643434e-07 0.00016132177534819965 0.0011041063492616735" free_energy=-207.65077670682652 DFT_energy=-210.82740015 pbc="T T T"
Cu       1.28339881       1.28339881      11.83696273       0.00000000       0.00000000       0.00000000       0.00054538      -0.00039471       0.18436377      -0.00971873       0.02382524       0.43291788
Cu       3.85019642       1.28339881      11.83696273       0.00000000       0.00000000       0.00000000      -0.00054435      -0.00039637       0.18436194       0.01136220       0.01622844       0.42343613
Cu       6.41699404       1.28339881      11.83696273       0.00000000       0.00000000       0.00000000      -0.00092168       0.00050522       0.18406174      -0.02266264       0.02085273       0.48367367
Cu       8.98379165       1.28339881      11.83696273       0.00000000       0.00000000       0.00000000       0.00092019       0.00050763       0.18406538       0.02055267       0.01982271       0.46943265
Cu       1.28339881       3.85019642      11.83696273       0.00000000       0.00000000       0.00000000      -0.00021878       0.00035897       0.18264049      -0.01304766      -0.05171130       0.44708729
Cu       3.85019642       3.85019642      11.83696273       0.00000000       0.00000000       0.00000000       0.00021921       0.00036050       0.18263518       0.01520321      -0.03828303       0.43885756
Cu       6.41699404       3.85019642      11.83696273       0.00000000       0.00000000       0.00000000      -0.00125783      -0.00015504       0.18493269      -0.03756469      -0.02055747       0.44971400
Cu       8.98379165       3.85019642      11.83696273       0.00000000       0.00000000       0.00000000       0.00125715      -0.00015804       0.18493761       0.03506322      -0.03207877       0.44694160
Cu       1.28339881       6.41699404      11.83696273       0.00000000       0.00000000       0.00000000       0.00048783       0.00011282       0.18565408      -0.02091868       0.02697768       0.44211999
Cu       3.85019642       6.41699404      11.83696273       0.00000000       0.00000000       0.00000000      -0.00048421       0.00011340       0.18565294       0.02527913       0.02134846       0.43074768
Cu       6.41699404       6.41699404      11.83696273       0.00000000       0.00000000       0.00000000      -0.00130941      -0.00031184       0.18548086      -0.05302829       0.00352406       0.48403920
Cu       8.98379165       6.41699404      11.83696273       0.00000000       0.00000000       0.00000000       0.00130687      -0.00031181       0.18548192       0.05115041       0.01151741       0.47340732
Cu       7.70039285      -0.00000000      13.67392546       0.00000000       0.00000000       0.00000000      -0.00000459      -0.00045606      -0.09168766      -0.00281882      -0.00851659      -0.18999360
Cu       5.13359523      -0.00000000      13.67392546       0.00000000       0.00000000       0.00000000       0.00207406       0.00029677      -0.09746935      -0.03133926      -0.01689338      -0.17859314
Cu       2.56679762      -0.00000000      13.67392546       0.00000000       0.00000000       0.00000000       0.00000433      -0.00228964      -0.10780673      -0.00051617      -0.03512283      -0.18187605
Cu       0.00000000      -0.00000000      13.67392546       0.00000000       0.00000000       0.00000000      -0.00207021       0.00027594      -0.09749658       0.03256942      -0.02507064      -0.18481527
Cu       0.00000000       2.56679762      13.67392546       0.00000000       0.00000000       0.00000000      -0.00304513      -0.00059061      -0.09536655       0.00593316       0.02128412      -0.19709098
Cu       2.56679762       2.56679762      13.67392546       0.00000000       0.00000000       0.00000000       0.00001226       0.00334251      -0.08396598      -0.00874184       0.02584882      -0.13570780
Cu       5.13359523       2.56679762      13.67392546       0.00000000       0.00000000       0.00000000       0.00304599      -0.00059093      -0.09531575       0.00688751       0.02385956      -0.19669528
Cu       7.70039285       2.56679762      13.67392546       0.00000000       0.00000000       0.00000000      -0.00002425       0.00024596      -0.08998245      -0.00445219       0.02045676      -0.18042461
Cu       0.00000000       5.13359523      13.67392546       0.00000000       0.00000000       0.00000000      -0.00080031       0.00090274      -0.09244471       0.02187915       0.00237141      -0.15735185
Cu       2.56679762       5.13359523      13.67392546       0.00000000       0.00000000       0.00000000       0.00001242      -0.00204136      -0.09676406      -0.00919060       0.01936712      -0.12583638
Cu       5.13359523       5.13359523      13.67392546       0.00000000       0.00000000       0.00000000       0.00079202       0.00088929      -0.09239408      -0.02201683      -0.00963471      -0.16197345
Cu       7.70039285       5.13359523      13.67392546       0.00000000       0.00000000       0.00000000       0.00000348       0.00040959      -0.09684921       0.01332970      -0.01530744      -0.16949946
Cu       1.28339881       1.28339881      15.51088819       0.00000000       0.00000000       0.00000000      -0.01469815       0.02191425      -0.29773629       0.03361311       0.03961100      -0.26489918
Cu       3.85019642       1.28339881      15.51088819       0.00000000       0.00000000       0.00000000       0.01499254       0.02181485      -0.29807164      -0.05861505       0.00762192      -0.26182506
Cu       6.41699404       1.28339881      15.51088819       0.00000000       0.00000000       0.00000000      -0.01079831       0.02366442      -0.24307168      -0.00386234      -0.04444460      -0.23821364
Cu       8.98379165       1.28339881      15.51088819       0.00000000       0.00000000       0.00000000       0.01038163       0.02338985      -0.24330219       0.03689657      -0.01796399      -0.21184136
Cu       1.28339881       3.85019642      15.51088819       0.00000000       0.00000000       0.00000000       0.08024732       0.04114655      -0.17708143       0.04228823      -0.03660296      -0.34560549
Cu       3.85019642       3.85019642      15.51088819       0.00000000       0.00000000       0.00000000      -0.08001170       0.04148323      -0.17723043      -0.04717651       0.02733417      -0.33070951
Cu       6.41699404       3.85019642      15.51088819       0.00000000       0.00000000       0.00000000      -0.00735056      -0.04009830      -0.26373072      -0.01029445       0.04048584      -0.19892342
Cu       8.98379165       3.85019642      15.51088819       0.00000000       0.00000000       0.00000000       0.00703189      -0.03992705      -0.26404419       0.07278946       0.01907995      -0.15134154
Cu       1.28339881       6.41699404      15.51088819       0.00000000       0.00000000       0.00000000       0.02105574      -0.03744787      -0.23010730       0.19467803       0.09744524      -0.01778376
Cu       3.85019642       6.41699404      15.51088819       0.00000000       0.00000000       0.00000000      -0.02090402      -0.03753925      -0.22991127      -0.24508148       0.08423502       0.03559803
Cu       6.41699404       6.41699404      15.51088819       0.00000000       0.00000000       0.00000000       0.02873606       0.03701477      -0.30287250       0.00540574      -0.01056291      -0.18003656
Cu       8.98379165       6.41699404      15.51088819       0.00000000       0.00000000       0.00000000      -0.02833957       0.03686325      -0.30281928      -0.02233196      -0.03369602      -0.18384999
Cu       7.69305851       7.70116003      17.25047782      -0.00381969       0.00011673       0.14809996      -0.00013841      -0.00094561       0.15977881      -0.01014730       0.00289076      -0.06947068
Cu       5.13030110       7.69496934      17.24343962       0.00630328      -0.00907719       0.13949641       0.00927879      -0.00311443       0.15181801       0.04490368      -0.06901881      -0.08559982
Cu       2.54675819       7.78482678      17.35376729      -0.02609054       0.18799491       0.38558597       0.00002791      -0.00636749       0.14183812      -0.01291249      -0.09948525       0.05809503
Cu      10.24535411       7.68298736      17.23799908      -0.02668362      -0.01150838       0.13863120      -0.00938203      -0.00309062       0.15173828      -0.04770644      -0.06984480      -0.07460138
Cu      10.24581859       2.56569340      17.24884838      -0.01569286       0.00195436       0.14209651      -0.01856196      -0.00269710       0.14567797      -0.08719260       0.00272314      -0.14911975
Cu       2.61257992       2.62102797      17.24015604      -0.01133658       0.19116428       0.16003446      -0.00035347       0.00022884       0.14079502       0.01635668       0.15527681       0.03762142
Cu       5.17245245       2.56490996      17.24000878       0.01459658      -0.00562590       0.13834446       0.01823756      -0.00265995       0.14584234       0.06159503       0.01506733      -0.13661058
Cu       7.70670315       2.56696060      17.25229489       0.00386063      -0.00123996       0.15007642       0.00006068       0.00006862       0.16002041      -0.00089266      -0.00142839      -0.05866185
Cu      10.27058015       5.12326519      17.26770138       0.00248443       0.00224608       0.14588748      -0.01563785       0.00650742       0.14977893      -0.16164107       0.07202082      -0.16870422
Cu       2.56011577       5.18775481      17.32322888       0.00457070       0.09460159       0.12576607       0.00004552      -0.01739759       0.17396839       0.00971819       0.15700865      -0.28445610
Cu       5.13448176       5.12979796      17.25876873       0.00355307       0.00023240       0.14407314       0.01518085       0.00655290       0.14977794       0.08923106       0.03290711      -0.14299843
Cu       7.70136873       5.13348112      17.25077143       0.00209778       0.00123282       0.14924349      -0.00026218       0.00039659       0.16038772       0.00299014       0.00466439      -0.08795950
O        2.23727136       1.89094553      18.95544828       0.04981814      -0.83153603      -0.27744349       0.00021914      -0.03227603       0.02367728       0.10476646      -0.86661570      -0.14459608
C        2.46752633       4.46543884      19.03388502       0.01117634       0.30793946       0.01580779       0.00030506       0.00266658       0.05246448      -0.10436436      -0.32517274       0.02779944
H        3.06197172       1.90200561      19.47772602      -0.01362792      -0.09008176      -0.04488731       0.00002645      -0.02224770       0.00040054       0.18403249       0.91891095       0.17579219
O        2.56425190       4.53168953      20.18744826      -0.03840408      -0.04565385       0.03995993       0.00061065      -0.01852806       0.04528921      -0.09023953      -0.10655532       0.09038469
52
Lattice="10.26719046282867 0.0 0.0 0.0 7.700392847121503 0.0 0.0 0.0 27.347850919999996" Properties=species:S:1:pos:R:3:MACE_forces:R:3:forces:R:3:DFT_forces:R:3 method=neb MACE_energy=-206.889408160329 energy=-207.65077670682652 stress="0.009273451154845076 -4.408335087359909e-07 -8.570739400643434e-07 -4.408335087359909e-07 0.008782818095491621 0.00016132177534819965 -8.570739400643434e-07 0.00016132177534819965 0.0011041063492616735" free_energy=-207.65077670682652 DFT_energy=-210.58832842 pbc="T T T"
Cu       1.28339881       1.28339881      11.83696273       0.00000000       0.00000000       0.00000000       0.00054538      -0.00039471       0.18436377      -0.01119109       0.02134053       0.43386761
Cu       3.85019642       1.28339881      11.83696273       0.00000000       0.00000000       0.00000000      -0.00054435      -0.00039637       0.18436194       0.01384324       0.00865995       0.42636916
Cu       6.41699404       1.28339881      11.83696273       0.00000000       0.00000000       0.00000000      -0.00092168       0.00050522       0.18406174      -0.03063196       0.01945571       0.48242458
Cu       8.98379165       1.28339881      11.83696273       0.00000000       0.00000000       0.00000000       0.00092019       0.00050763       0.18406538       0.02888789       0.02287409       0.46708117
Cu       1.28339881       3.85019642      11.83696273       0.00000000       0.00000000       0.00000000      -0.00021878       0.00035897       0.18264049      -0.01069502      -0.03984486       0.44436234
Cu       3.85019642       3.85019642      11.83696273       0.00000000       0.00000000       0.00000000       0.00021921       0.00036050       0.18263518       0.01297454      -0.02500219       0.43709156
Cu       6.41699404       3.85019642      11.83696273       0.00000000       0.00000000       0.00000000      -0.00125783      -0.00015504       0.18493269      -0.03381965      -0.01124673       0.44399525
Cu       8.98379165       3.85019642      11.83696273       0.00000000       0.00000000       0.00000000       0.00125715      -0.00015804       0.18493761       0.03077624      -0.02374091       0.43974340
Cu       1.28339881       6.41699404      11.83696273       0.00000000       0.00000000       0.00000000       0.00048783       0.00011282       0.18565408      -0.01538771       0.01868318       0.43910036
Cu       3.85019642       6.41699404      11.83696273       0.00000000       0.00000000       0.00000000      -0.00048421       0.00011340       0.18565294       0.02018656       0.01603427       0.42709977
Cu       6.41699404       6.41699404      11.83696273       0.00000000       0.00000000       0.00000000      -0.00130941      -0.00031184       0.18548086      -0.04882189      -0.00511472       0.48150987
Cu       8.98379165       6.41699404      11.83696273       0.00000000       0.00000000       0.00000000       0.00130687      -0.00031181       0.18548192       0.04920316       0.00158877       0.47025575
Cu       7.70039285      -0.00000000      13.67392546       0.00000000       0.00000000       0.00000000      -0.00000459      -0.00045606      -0.09168766       0.00051399       0.00205635      -0.18197387
Cu       5.13359523      -0.00000000      13.67392546       0.00000000       0.00000000       0.00000000       0.00207406       0.00029677      -0.09746935      -0.02761701      -0.00964172      -0.17662268
Cu       2.56679762      -0.00000000      13.67392546       0.00000000       0.00000000       0.00000000       0.00000433      -0.00228964      -0.10780673       0.00036956      -0.02523770      -0.18838492
Cu       0.00000000      -0.00000000      13.67392546       0.00000000       0.00000000       0.00000000      -0.00207021       0.00027594      -0.09749658       0.02849735      -0.02185929      -0.17991726
Cu       0.00000000       2.56679762      13.67392546       0.00000000       0.00000000       0.00000000      -0.00304513      -0.00059061      -0.09536655       0.00634776       0.02507017      -0.18837614
Cu       2.56679762       2.56679762      13.67392546       0.00000000       0.00000000       0.00000000       0.00001226       0.00334251      -0.08396598      -0.00855836       0.02144617      -0.12283573
Cu       5.13359523       2.56679762      13.67392546       0.00000000       0.00000000       0.00000000       0.00304599      -0.00059093      -0.09531575       0.00805838       0.02807688      -0.19198819
Cu       7.70039285       2.56679762      13.67392546       0.00000000       0.00000000       0.00000000      -0.00002425       0.00024596      -0.08998245      -0.00528451       0.01875654      -0.16783314
Cu       0.00000000       5.13359523      13.67392546       0.00000000       0.00000000       0.00000000      -0.00080031       0.00090274      -0.09244471       0.02193280      -0.00422121      -0.15546672
Cu       2.56679762       5.13359523      13.67392546       0.00000000       0.00000000       0.00000000       0.00001242      -0.00204136      -0.09676406      -0.01028686       0.01396490      -0.12031670
Cu       5.13359523       5.13359523      13.67392546       0.00000000       0.00000000       0.00000000       0.00079202       0.00088929      -0.09239408      -0.01997962      -0.01982251      -0.15892945
Cu       7.70039285       5.13359523      13.67392546       0.00000000       0.00000000       0.00000000       0.00000348       0.00040959      -0.09684921       0.01189312      -0.02392725      -0.16510634
Cu       1.28339881       1.28339881      15.51088819       0.00000000       0.00000000       0.00000000      -0.01469815       0.02191425      -0.29773629       0.00221321       0.04212288      -0.30568583
Cu       3.85019642       1.28339881      15.51088819       0.00000000       0.00000000       0.00000000       0.01499254       0.02181485      -0.29807164      -0.00700947       0.00819315      -0.32443746
Cu       6.41699404       1.28339881      15.51088819       0.00000000       0.00000000       0.00000000      -0.01079831       0.02366442      -0.24307168       0.00337743      -0.04915396      -0.23753968
Cu       8.98379165       1.28339881      15.51088819       0.00000000       0.00000000       0.00000000       0.01038163       0.02338985      -0.24330219       0.02523033      -0.02465041      -0.21881116
Cu       1.28339881       3.85019642      15.51088819       0.00000000       0.00000000       0.00000000       0.08024732       0.04114655      -0.17708143       0.04858108      -0.03806554      -0.32905639
Cu       3.85019642       3.85019642      15.51088819       0.00000000       0.00000000       0.00000000      -0.08001170       0.04148323      -0.17723043      -0.05851398       0.01494636      -0.30625444
Cu       6.41699404       3.85019642      15.51088819       0.00000000       0.00000000       0.00000000      -0.00735056      -0.04009830      -0.26373072      -0.01088904       0.03969641      -0.20446306
Cu       8.98379165       3.85019642      15.51088819       0.00000000       0.00000000       0.00000000       0.00703189      -0.03992705      -0.26404419       0.07692441       0.02163991      -0.16402383
Cu       1.28339881       6.41699404      15.51088819       0.00000000       0.00000000       0.00000000       0.02105574      -0.03744787      -0.23010730       0.14495886      -0.00180279      -0.07611978
Cu       3.85019642       6.41699404      15.51088819       0.00000000       0.00000000       0.00000000      -0.02090402      -0.03753925      -0.22991127      -0.19480260      -0.01186363      -0.01818014
Cu       6.41699404       6.41699404      15.51088819       0.00000000       0.00000000       0.00000000       0.02873606       0.03701477      -0.30287250       0.01587219      -0.00114434      -0.19594550
Cu       8.98379165       6.41699404      15.51088819       0.00000000       0.00000000       0.00000000      -0.02833957       0.03686325      -0.30281928      -0.02439174      -0.02970027      -0.19048844
Cu       7.69408885       7.70122938      17.25087990      -0.00140843       0.00020005       0.15006300      -0.00013841      -0.00094561       0.15977881      -0.00674346       0.00067263      -0.07273821
Cu       5.13137673       7.69641722      17.24433244       0.00899623      -0.00364057       0.14269448       0.00927879      -0.00311443       0.15181801       0.01956792      -0.04439082      -0.07674568
Cu       2.55260047       7.73225712      17.28864409      -0.00673682       0.04411940       0.17451329       0.00002791      -0.00636749       0.14183812       0.00596376      -0.13294018      -0.06045540
Cu      10.24932557       7.68503521      17.23875411      -0.01423016      -0.00297343       0.14251535      -0.00938203      -0.00309062       0.15173828      -0.02671691      -0.05232465      -0.06256523
Cu      10.24379831       2.56392599      17.24702561      -0.01319269      -0.00486439       0.14308656      -0.01856196      -0.00269710       0.14567797      -0.07176433      -0.01714829      -0.13992265
Cu       2.61087352       2.57854681      17.23253753       0.00089408       0.04801900       0.14830253      -0.00035347       0.00022884       0.14079502       0.04636297      -0.04747237      -0.11882951
Cu       5.17151657       2.56544747      17.24041510       0.01307313      -0.00538650       0.13992806       0.01823756      -0.00265995       0.14584234       0.05394597       0.00469948      -0.13200407
Cu       7.70635571       2.56707631      17.25252409      -0.00082144      -0.00080300       0.14991614       0.00006068       0.00006862       0.16002041      -0.00736650       0.00362218      -0.05987291
Cu      10.26751500       5.12339788      17.26631651      -0.00872552       0.00426409       0.14263766      -0.01563785       0.00650742       0.14977893      -0.13014086       0.07092024      -0.16596100
Cu       2.55988377       5.16054125      17.33034653       0.00282709       0.04089631       0.14021138       0.00004552      -0.01739759       0.17396839      -0.01072077       0.05946431      -0.20591304
Cu       5.13796078       5.13063185      17.25745021       0.01363867       0.00366004       0.14090599       0.01518085       0.00655290       0.14977794       0.06601460       0.03157317      -0.13873092
Cu       7.70154736       5.13341764      17.25066190       0.00151239       0.00076366       0.14979890      -0.00026218       0.00039659       0.16038772       0.00311358       0.00448745      -0.08708773
O        2.22443075       2.11859098      19.03534225       0.00953709      -0.12477181      -0.00134830       0.00021914      -0.03227603       0.02367728       0.09837924      -0.56206969       0.04339603
C        2.45771997       4.38703776      19.05365359      -0.02493013       0.04615002       0.08023179       0.00030506       0.00266658       0.05246448      -0.05603135      -0.12353177       0.13911998
H        3.06815520       1.91279186      19.48594247       0.01167162      -0.06436134      -0.00947531       0.00002645      -0.02224770       0.00040054       0.14778844       0.85963113       0.22511652
O        2.56230424       4.55801844      20.19665056      -0.03631307      -0.01601989       0.00979194       0.00061065      -0.01852806       0.04528921      -0.16441386      -0.03375905       0.08904983
52
Lattice="10.26719046282867 0.0 0.0 0.0 7.700392847121503 0.0 0.0 0.0 27.347850919999996" Properties=species:S:1:pos:R:3:MACE_forces:R:3:forces:R:3:DFT_forces:R:3 method=neb MACE_energy=-206.88621153613624 energy=-207.65077670682652 stress="0.009273451154845076 -4.408335087359909e-07 -8.570739400643434e-07 -4.408335087359909e-07 0.008782818095491621 0.00016132177534819965 -8.570739400643434e-07 0.00016132177534819965 0.0011041063492616735" free_energy=-207.65077670682652 DFT_energy=-210.52765712 pbc="T T T"
Cu       1.28339881       1.28339881      11.83696273       0.00000000       0.00000000       0.00000000       0.00054538      -0.00039471       0.18436377      -0.01092513       0.01707821       0.43184088
Cu       3.85019642       1.28339881      11.83696273       0.00000000       0.00000000       0.00000000      -0.00054435      -0.00039637       0.18436194       0.01308126       0.00220543       0.42720877
Cu       6.41699404       1.28339881      11.83696273       0.00000000       0.00000000       0.00000000      -0.00092168       0.00050522       0.18406174      -0.03443791       0.01621356       0.47901497
Cu       8.98379165       1.28339881      11.83696273       0.00000000       0.00000000       0.00000000       0.00092019       0.00050763       0.18406538       0.03293914       0.02424290       0.46401586
Cu       1.28339881       3.85019642      11.83696273       0.00000000       0.00000000       0.00000000      -0.00021878       0.00035897       0.18264049      -0.01023812      -0.03105928       0.43940495
Cu       3.85019642       3.85019642      11.83696273       0.00000000       0.00000000       0.00000000       0.00021921       0.00036050       0.18263518       0.01153592      -0.01614324       0.43382423
Cu       6.41699404       3.85019642      11.83696273       0.00000000       0.00000000       0.00000000      -0.00125783      -0.00015504       0.18493269      -0.03241021      -0.00754260       0.43827159
Cu       8.98379165       3.85019642      11.83696273       0.00000000       0.00000000       0.00000000       0.00125715      -0.00015804       0.18493761       0.02901299      -0.02058177       0.43523927
Cu       1.28339881       6.41699404      11.83696273       0.00000000       0.00000000       0.00000000       0.00048783       0.00011282       0.18565408      -0.01142079       0.01360029       0.43553752
Cu       3.85019642       6.41699404      11.83696273       0.00000000       0.00000000       0.00000000      -0.00048421       0.00011340       0.18565294       0.01627249       0.01317865       0.42267163
Cu       6.41699404       6.41699404      11.83696273       0.00000000       0.00000000       0.00000000      -0.00130941      -0.00031184       0.18548086      -0.04507208      -0.00639751       0.47482931
Cu       8.98379165       6.41699404      11.83696273       0.00000000       0.00000000       0.00000000       0.00130687      -0.00031181       0.18548192       0.04443690      -0.00239954       0.46327211
Cu       7.70039285      -0.00000000      13.67392546       0.00000000       0.00000000       0.00000000      -0.00000459      -0.00045606      -0.09168766       0.00414482       0.00499733      -0.17682062
Cu       5.13359523      -0.00000000      13.67392546       0.00000000       0.00000000       0.00000000       0.00207406       0.00029677      -0.09746935      -0.02691435      -0.00429910      -0.17489359
Cu       2.56679762      -0.00000000      13.67392546       0.00000000       0.00000000       0.00000000       0.00000433      -0.00228964      -0.10780673      -0.00103101      -0.01752058      -0.19463784
Cu       0.00000000      -0.00000000      13.67392546       0.00000000       0.00000000       0.00000000      -0.00207021       0.00027594      -0.09749658       0.02655887      -0.01966298      -0.17682068
Cu       0.00000000       2.56679762      13.67392546       0.00000000       0.00000000       0.00000000      -0.00304513      -0.00059061      -0.09536655       0.00611645       0.02566806      -0.18270512
Cu       2.56679762       2.56679762      13.67392546       0.00000000       0.00000000       0.00000000       0.00001226       0.00334251      -0.08396598      -0.00665489       0.01871163      -0.11818648
Cu       5.13359523       2.56679762      13.67392546       0.00000000       0.00000000       0.00000000       0.00304599      -0.00059093      -0.09531575       0.00636792       0.02957312      -0.18829001
Cu       7.70039285       2.56679762      13.67392546       0.00000000       0.00000000       0.00000000      -0.00002425       0.00024596      -0.08998245      -0.00572278       0.01805203      -0.16239823
Cu       0.00000000       5.13359523      13.67392546       0.00000000       0.00000000       0.00000000      -0.00080031       0.00090274      -0.09244471       0.02018875      -0.00794022      -0.15603105
Cu       2.56679762       5.13359523      13.67392546       0.00000000       0.00000000       0.00000000       0.00001242      -0.00204136      -0.09676406      -0.01078875       0.00751347      -0.11760155
Cu       5.13359523       5.13359523      13.67392546       0.00000000       0.00000000       0.00000000       0.00079202       0.00088929      -0.09239408      -0.01758463      -0.02690469      -0.15917498
Cu       7.70039285       5.13359523      13.67392546       0.00000000       0.00000000       0.00000000       0.00000348       0.00040959      -0.09684921       0.00901870      -0.02658706      -0.16184865
Cu       1.28339881       1.28339881      15.51088819       0.00000000       0.00000000       0.00000000      -0.01469815       0.02191425      -0.29773629      -0.01555859       0.02394582      -0.33094997
Cu       3.85019642       1.28339881      15.51088819       0.00000000       0.00000000       0.00000000       0.01499254       0.02181485      -0.29807164       0.01231832       0.00892187      -0.34816409
Cu       6.41699404       1.28339881      15.51088819       0.00000000       0.00000000       0.00000000      -0.01079831       0.02366442      -0.24307168       0.00784801      -0.04940814      -0.24118196
Cu       8.98379165       1.28339881      15.51088819       0.00000000       0.00000000       0.00000000       0.01038163       0.02338985      -0.24330219       0.01485755      -0.02904142      -0.22486236
Cu       1.28339881       3.85019642      15.51088819       0.00000000       0.00000000       0.00000000       0.08024732       0.04114655      -0.17708143       0.05591469      -0.04567920      -0.30796753
Cu       3.85019642       3.85019642      15.51088819       0.00000000       0.00000000       0.00000000      -0.08001170       0.04148323      -0.17723043      -0.07784545      -0.01504118      -0.27250779
Cu       6.41699404       3.85019642      15.51088819       0.00000000       0.00000000       0.00000000      -0.00735056      -0.04009830      -0.26373072      -0.01697384       0.04128756      -0.20839513
Cu       8.98379165       3.85019642      15.51088819       0.00000000       0.00000000       0.00000000       0.00703189      -0.03992705      -0.26404419       0.07200804       0.02598441      -0.17293283
Cu       1.28339881       6.41699404      15.51088819       0.00000000       0.00000000       0.00000000       0.02105574      -0.03744787      -0.23010730       0.10348833      -0.09563422      -0.12742938
Cu       3.85019642       6.41699404      15.51088819       0.00000000       0.00000000       0.00000000      -0.02090402      -0.03753925      -0.22991127      -0.13941788      -0.10453976      -0.08505662
Cu       6.41699404       6.41699404      15.51088819       0.00000000       0.00000000       0.00000000       0.02873606       0.03701477      -0.30287250       0.01666144       0.00204516      -0.19985626
Cu       8.98379165       6.41699404      15.51088819       0.00000000       0.00000000       0.00000000      -0.02833957       0.03686325      -0.30281928      -0.01946585      -0.02832865      -0.19202140
Cu       7.69577221       7.70128133      17.25136569       0.00103874       0.00010967       0.15064427      -0.00013841      -0.00094561       0.15977881      -0.00264102      -0.00096386      -0.07260198
Cu       5.13411114       7.69816616      17.24465598       0.01092852      -0.00182283       0.14344305       0.00927879      -0.00311443       0.15181801       0.00491691      -0.02638784      -0.07068073
Cu       2.56098295       7.68466456      17.24523880       0.00072765       0.01015143       0.13760556       0.00002791      -0.00636749       0.14183812       0.01267755      -0.08294801      -0.03594145
Cu      10.25374503       7.68695923      17.23945466      -0.00871382      -0.00025896       0.14365370      -0.00938203      -0.00309062       0.15173828      -0.01828582      -0.04470874      -0.06186785
Cu      10.23912846       2.56288669      17.24393677      -0.01525338      -0.00551590       0.14176822      -0.01856196      -0.00269710       0.14567797      -0.04670415      -0.02153569      -0.11245306
Cu       2.59943692       2.53754352      17.23549692      -0.00556450       0.01718081       0.15984441      -0.00035347       0.00022884       0.14079502       0.06705903      -0.17262165      -0.25988334
Cu       5.16858872       2.56671530      17.23954576       0.01014717      -0.00485995       0.13894836       0.01823756      -0.00265995       0.14584234       0.04089469       0.00077102      -0.12638725
Cu       7.70385878       2.56715348      17.25269837      -0.00350916      -0.00060223       0.14959396       0.00006068       0.00006862       0.16002041      -0.01029388       0.00590112      -0.05805964
Cu      10.26727318       5.12344808      17.26613613      -0.00847535       0.00528191       0.14271711      -0.01563785       0.00650742       0.14977893      -0.11176501       0.07057088      -0.16570627
Cu       2.56030903       5.12400480      17.33700930       0.00362893       0.01894661       0.14245286       0.00004552      -0.01739759       0.17396839      -0.01315351       0.02568590      -0.12724100
Cu       5.13823196       5.13135885      17.25772106       0.01406077       0.00427252       0.14217177       0.01518085       0.00655290       0.14977794       0.06148511       0.03093196      -0.13741763
Cu       7.70138858       5.13347112      17.25050132       0.00147942       0.00068363       0.14988009      -0.00026218       0.00039659       0.16038772       0.00377158       0.00430872      -0.08305177
O        2.21932765       2.26746192      19.08772141       0.00493503       0.05110385       0.05880605       0.00021914      -0.03227603       0.02367728       0.16195615      -0.31197093       0.05310846
C        2.47194459       4.34587424      19.08371883      -0.01188054       0.02677394       0.07123248       0.00030506       0.00266658       0.05246448       0.01907263       0.08117647       0.25307213
H        3.04847472       1.94910877      19.50590536      -0.00904970      -0.00544967       0.03044087       0.00002645      -0.02224770       0.00040054       0.07326517       0.65733353       0.25338597
O        2.56392142       4.59182949      20.21677696      -0.01533286       0.05543288       0.04914374       0.00061065      -0.01852806       0.04528921      -0.26256373       0.04594877       0.08732845
52
Lattice="10.26719046282867 0.0 0.0 0.0 7.700392847121503 0.0 0.0 0.0 27.347850919999996" Properties=species:S:1:pos:R:3:MACE_forces:R:3:forces:R:3:DFT_forces:R:3 method=neb MACE_energy=-206.96259849296268 energy=-207.65077670682652 stress="0.009273451154845076 -4.408335087359909e-07 -8.570739400643434e-07 -4.408335087359909e-07 0.008782818095491621 0.00016132177534819965 -8.570739400643434e-07 0.00016132177534819965 0.0011041063492616735" free_energy=-207.65077670682652 DFT_energy=-210.61898272 pbc="T T T"
Cu       1.28339881       1.28339881      11.83696273       0.00000000       0.00000000       0.00000000       0.00054538      -0.00039471       0.18436377      -0.00948194       0.00766651       0.42644511
Cu       3.85019642       1.28339881      11.83696273       0.00000000       0.00000000       0.00000000      -0.00054435      -0.00039637       0.18436194       0.01234428      -0.00323103       0.42880099
Cu       6.41699404       1.28339881      11.83696273       0.00000000       0.00000000       0.00000000      -0.00092168       0.00050522       0.18406174      -0.04084298       0.01406992       0.47297318
Cu       8.98379165       1.28339881      11.83696273       0.00000000       0.00000000       0.00000000       0.00092019       0.00050763       0.18406538       0.03879844       0.02091894       0.46614420
Cu       1.28339881       3.85019642      11.83696273       0.00000000       0.00000000       0.00000000      -0.00021878       0.00035897       0.18264049      -0.00789426      -0.01893379       0.43536901
Cu       3.85019642       3.85019642      11.83696273       0.00000000       0.00000000       0.00000000       0.00021921       0.00036050       0.18263518       0.00887507      -0.00669154       0.43008317
Cu       6.41699404       3.85019642      11.83696273       0.00000000       0.00000000       0.00000000      -0.00125783      -0.00015504       0.18493269      -0.03310067      -0.00373288       0.43566692
Cu       8.98379165       3.85019642      11.83696273       0.00000000       0.00000000       0.00000000       0.00125715      -0.00015804       0.18493761       0.02919740      -0.01432318       0.43440493
Cu       1.28339881       6.41699404      11.83696273       0.00000000       0.00000000       0.00000000       0.00048783       0.00011282       0.18565408      -0.00587025       0.01094063       0.43233044
Cu       3.85019642       6.41699404      11.83696273       0.00000000       0.00000000       0.00000000      -0.00048421       0.00011340       0.18565294       0.01170262       0.00889794       0.41903766
Cu       6.41699404       6.41699404      11.83696273       0.00000000       0.00000000       0.00000000      -0.00130941      -0.00031184       0.18548086      -0.04425349      -0.00878595       0.46437038
Cu       8.98379165       6.41699404      11.83696273       0.00000000       0.00000000       0.00000000       0.00130687      -0.00031181       0.18548192       0.04000302      -0.00535052       0.45467223
Cu       7.70039285      -0.00000000      13.67392546       0.00000000       0.00000000       0.00000000      -0.00000459      -0.00045606      -0.09168766       0.00623385       0.00196599      -0.17115585
Cu       5.13359523      -0.00000000      13.67392546       0.00000000       0.00000000       0.00000000       0.00207406       0.00029677      -0.09746935      -0.02921284       0.00192263      -0.17596724
Cu       2.56679762      -0.00000000      13.67392546       0.00000000       0.00000000       0.00000000       0.00000433      -0.00228964      -0.10780673      -0.00168820      -0.00276762      -0.20515505
Cu       0.00000000      -0.00000000      13.67392546       0.00000000       0.00000000       0.00000000      -0.00207021       0.00027594      -0.09749658       0.02828747      -0.01450657      -0.17559720
Cu       0.00000000       2.56679762      13.67392546       0.00000000       0.00000000       0.00000000      -0.00304513      -0.00059061      -0.09536655       0.00979729       0.02704484      -0.17696613
Cu       2.56679762       2.56679762      13.67392546       0.00000000       0.00000000       0.00000000       0.00001226       0.00334251      -0.08396598      -0.00456007       0.01087669      -0.12395485
Cu       5.13359523       2.56679762      13.67392546       0.00000000       0.00000000       0.00000000       0.00304599      -0.00059093      -0.09531575      -0.00196026       0.02584161      -0.18304152
Cu       7.70039285       2.56679762      13.67392546       0.00000000       0.00000000       0.00000000      -0.00002425       0.00024596      -0.08998245      -0.00295950       0.01939384      -0.16213539
Cu       0.00000000       5.13359523      13.67392546       0.00000000       0.00000000       0.00000000      -0.00080031       0.00090274      -0.09244471       0.01279554      -0.01482721      -0.16154656
Cu       2.56679762       5.13359523      13.67392546       0.00000000       0.00000000       0.00000000       0.00001242      -0.00204136      -0.09676406      -0.01017146      -0.00258521      -0.11378019
Cu       5.13359523       5.13359523      13.67392546       0.00000000       0.00000000       0.00000000       0.00079202       0.00088929      -0.09239408      -0.00992064      -0.02947471      -0.16552833
Cu       7.70039285       5.13359523      13.67392546       0.00000000       0.00000000       0.00000000       0.00000348       0.00040959      -0.09684921       0.00427071      -0.02487996      -0.15839286
Cu       1.28339881       1.28339881      15.51088819       0.00000000       0.00000000       0.00000000      -0.01469815       0.02191425      -0.29773629       0.03408170       0.04557649      -0.27428824
Cu       3.85019642       1.28339881      15.51088819       0.00000000       0.00000000       0.00000000       0.01499254       0.02181485      -0.29807164      -0.05393173       0.05493796      -0.26466049
Cu       6.41699404       1.28339881      15.51088819       0.00000000       0.00000000       0.00000000      -0.01079831       0.02366442      -0.24307168       0.01487401      -0.04797407      -0.24430540
Cu       8.98379165       1.28339881      15.51088819       0.00000000       0.00000000       0.00000000       0.01038163       0.02338985      -0.24330219       0.00043655      -0.03322631      -0.22882437
Cu       1.28339881       3.85019642      15.51088819       0.00000000       0.00000000       0.00000000       0.08024732       0.04114655      -0.17708143       0.06917194      -0.06766326      -0.26929204
Cu       3.85019642       3.85019642      15.51088819       0.00000000       0.00000000       0.00000000      -0.08001170       0.04148323      -0.17723043      -0.09130969      -0.06405516      -0.25151034
Cu       6.41699404       3.85019642      15.51088819       0.00000000       0.00000000       0.00000000      -0.00735056      -0.04009830      -0.26373072      -0.04027118       0.04526396      -0.19719400
Cu       8.98379165       3.85019642      15.51088819       0.00000000       0.00000000       0.00000000       0.00703189      -0.03992705      -0.26404419       0.06167695       0.03651058      -0.17903626
Cu       1.28339881       6.41699404      15.51088819       0.00000000       0.00000000       0.00000000       0.02105574      -0.03744787      -0.23010730       0.06261953      -0.12153524      -0.19625227
Cu       3.85019642       6.41699404      15.51088819       0.00000000       0.00000000       0.00000000      -0.02090402      -0.03753925      -0.22991127      -0.06152740      -0.13019585      -0.19075551
Cu       6.41699404       6.41699404      15.51088819       0.00000000       0.00000000       0.00000000       0.02873606       0.03701477      -0.30287250      -0.00651226      -0.00790284      -0.17625500
Cu       8.98379165       6.41699404      15.51088819       0.00000000       0.00000000       0.00000000      -0.02833957       0.03686325      -0.30281928      -0.00280971      -0.02199498      -0.18634193
Cu       7.69948116       7.70117106      17.25141701       0.00064295       0.00036032       0.15093110      -0.00013841      -0.00094561       0.15977881      -0.00170408      -0.00616107      -0.07145672
Cu       5.13629513       7.69957569      17.24569614       0.01006760      -0.00113968       0.14325622       0.00927879      -0.00311443       0.15181801      -0.00361226      -0.01517993      -0.06801531
Cu       2.56822445       7.66948680      17.22722061       0.00010231       0.01069935       0.13294617       0.00002791      -0.00636749       0.14183812       0.01009326      -0.01997214      -0.02836141
Cu      10.26250482       7.69358971      17.24258949      -0.00876218      -0.00008828       0.14395958      -0.00938203      -0.00309062       0.15173828      -0.01583552      -0.03877203      -0.07533094
Cu      10.23557239       2.56241614      17.23803888      -0.01506734      -0.00593613       0.14181954      -0.01856196      -0.00269710       0.14567797      -0.02960440      -0.00429892      -0.07367023
Cu       2.58464127       2.51757084      17.28148179      -0.00679679       0.02171766       0.14244431      -0.00035347       0.00022884       0.14079502       0.07501700      -0.33750284      -0.43818407
Cu       5.16015382       2.56407690      17.23742093       0.01266702      -0.00636039       0.13866547       0.01823756      -0.00265995       0.14584234       0.03964339      -0.00367753      -0.11149392
Cu       7.69888618       2.56739202      17.25199985      -0.00144862      -0.00062020       0.14989880       0.00006068       0.00006862       0.16002041      -0.00872245       0.00970686      -0.05563130
Cu      10.26944101       5.12737130      17.26595335      -0.01105235       0.00551445       0.14136610      -0.01563785       0.00650742       0.14977893      -0.10352873       0.05413308      -0.16691934
Cu       2.56223794       5.11538569      17.30576232       0.00220282       0.02049384       0.15355617       0.00004552      -0.01739759       0.17396839       0.00054829       0.02919969       0.08868695
Cu       5.13144167       5.12761205      17.26551949       0.01249139       0.00374812       0.14203304       0.01518085       0.00655290       0.14977794       0.09434892       0.03309809      -0.16699655
Cu       7.70020628       5.13335259      17.25019293       0.00046806       0.00066557       0.14994683      -0.00026218       0.00039659       0.16038772       0.00013857       0.00399222      -0.07624350
O        2.21593458       2.59035119      19.17400276       0.01467897       0.13405214       0.04705485       0.00021914      -0.03227603       0.02367728       0.37840853       0.15021060       0.11473970
C        2.56435260       4.46221062      19.11849277      -0.01056833      -0.03921725       0.04976900       0.00030506       0.00266658       0.05246448       0.15954255       0.13627727       0.45091516
H        3.02323543       2.29641270      19.65226551      -0.00374365       0.01821036       0.00339872       0.00002645      -0.02224770       0.00040054      -0.23870101       0.38415570      -0.04375025
O        2.68338095       4.83927357      20.21823711       0.00537700       0.06369953       0.08011981       0.00061065      -0.01852806       0.04528921      -0.34291989      -0.06239971       0.05335054
52
Lattice="10.26719046282867 0.0 0.0 0.0 7.700392847121503 0.0 0.0 0.0 27.347850919999996" Properties=species:S:1:pos:R:3:MACE_forces:R:3:forces:R:3:DFT_forces:R:3 method=neb MACE_energy=-207.0894480527431 energy=-207.65077670682652 stress="0.009273451154845076 -4.408335087359909e-07 -8.570739400643434e-07 -4.408335087359909e-07 0.008782818095491621 0.00016132177534819965 -8.570739400643434e-07 0.00016132177534819965 0.0011041063492616735" free_energy=-207.65077670682652 DFT_energy=-210.86166962 pbc="T T T"
Cu       1.28339881       1.28339881      11.83696273       0.00000000       0.00000000       0.00000000       0.00054538      -0.00039471       0.18436377      -0.01151526       0.01341388       0.42072951
Cu       3.85019642       1.28339881      11.83696273       0.00000000       0.00000000       0.00000000      -0.00054435      -0.00039637       0.18436194       0.00978296       0.00338257       0.42444891
Cu       6.41699404       1.28339881      11.83696273       0.00000000       0.00000000       0.00000000      -0.00092168       0.00050522       0.18406174      -0.03000054       0.01603374       0.45056613
Cu       8.98379165       1.28339881      11.83696273       0.00000000       0.00000000       0.00000000       0.00092019       0.00050763       0.18406538       0.03324293       0.02113399       0.44645193
Cu       1.28339881       3.85019642      11.83696273       0.00000000       0.00000000       0.00000000      -0.00021878       0.00035897       0.18264049      -0.01174548      -0.01490211       0.41529768
Cu       3.85019642       3.85019642      11.83696273       0.00000000       0.00000000       0.00000000       0.00021921       0.00036050       0.18263518       0.01045013      -0.00969000       0.41708511
Cu       6.41699404       3.85019642      11.83696273       0.00000000       0.00000000       0.00000000      -0.00125783      -0.00015504       0.18493269      -0.02493208      -0.00332248       0.43362844
Cu       8.98379165       3.85019642      11.83696273       0.00000000       0.00000000       0.00000000       0.00125715      -0.00015804       0.18493761       0.02748392      -0.00619813       0.43554604
Cu       1.28339881       6.41699404      11.83696273       0.00000000       0.00000000       0.00000000       0.00048783       0.00011282       0.18565408      -0.00730907       0.00117140       0.42888649
Cu       3.85019642       6.41699404      11.83696273       0.00000000       0.00000000       0.00000000      -0.00048421       0.00011340       0.18565294       0.01080937       0.00477608       0.42051137
Cu       6.41699404       6.41699404      11.83696273       0.00000000       0.00000000       0.00000000      -0.00130941      -0.00031184       0.18548086      -0.03474236      -0.01053198       0.44205777
Cu       8.98379165       6.41699404      11.83696273       0.00000000       0.00000000       0.00000000       0.00130687      -0.00031181       0.18548192       0.03025274      -0.01251910       0.43660322
Cu       7.70039285      -0.00000000      13.67392546       0.00000000       0.00000000       0.00000000      -0.00000459      -0.00045606      -0.09168766       0.00393637      -0.02387104      -0.16378592
Cu       5.13359523      -0.00000000      13.67392546       0.00000000       0.00000000       0.00000000       0.00207406       0.00029677      -0.09746935      -0.02836553       0.00258588      -0.15766680
Cu       2.56679762      -0.00000000      13.67392546       0.00000000       0.00000000       0.00000000       0.00000433      -0.00228964      -0.10780673      -0.00457448       0.00698398      -0.20641176
Cu       0.00000000      -0.00000000      13.67392546       0.00000000       0.00000000       0.00000000      -0.00207021       0.00027594      -0.09749658       0.02812134      -0.00292796      -0.15651984
Cu       0.00000000       2.56679762      13.67392546       0.00000000       0.00000000       0.00000000      -0.00304513      -0.00059061      -0.09536655       0.00109776       0.01095690      -0.18488297
Cu       2.56679762       2.56679762      13.67392546       0.00000000       0.00000000       0.00000000       0.00001226       0.00334251      -0.08396598       0.00325017      -0.00139712      -0.13232352
Cu       5.13359523       2.56679762      13.67392546       0.00000000       0.00000000       0.00000000       0.00304599      -0.00059093      -0.09531575       0.00106348       0.01542910      -0.18264412
Cu       7.70039285       2.56679762      13.67392546       0.00000000       0.00000000       0.00000000      -0.00002425       0.00024596      -0.08998245      -0.00076502       0.01804807      -0.16427209
Cu       0.00000000       5.13359523      13.67392546       0.00000000       0.00000000       0.00000000      -0.00080031       0.00090274      -0.09244471       0.00448552      -0.00823407      -0.15767912
Cu       2.56679762       5.13359523      13.67392546       0.00000000       0.00000000       0.00000000       0.00001242      -0.00204136      -0.09676406      -0.00447263       0.00105754      -0.09149506
Cu       5.13359523       5.13359523      13.67392546       0.00000000       0.00000000       0.00000000       0.00079202       0.00088929      -0.09239408      -0.00243043      -0.01787894      -0.16058734
Cu       7.70039285       5.13359523      13.67392546       0.00000000       0.00000000       0.00000000       0.00000348       0.00040959      -0.09684921       0.00154130       0.00147183      -0.15235814
Cu       1.28339881       1.28339881      15.51088819       0.00000000       0.00000000       0.00000000      -0.01469815       0.02191425      -0.29773629       0.06295084       0.03672543      -0.21377109
Cu       3.85019642       1.28339881      15.51088819       0.00000000       0.00000000       0.00000000       0.01499254       0.02181485      -0.29807164      -0.06652710       0.04031024      -0.20346376
Cu       6.41699404       1.28339881      15.51088819       0.00000000       0.00000000       0.00000000      -0.01079831       0.02366442      -0.24307168       0.03596505      -0.04442951      -0.25568123
Cu       8.98379165       1.28339881      15.51088819       0.00000000       0.00000000       0.00000000       0.01038163       0.02338985      -0.24330219      -0.04078683      -0.05121604      -0.25781296
Cu       1.28339881       3.85019642      15.51088819       0.00000000       0.00000000       0.00000000       0.08024732       0.04114655      -0.17708143       0.03315765      -0.07561341      -0.29233611
Cu       3.85019642       3.85019642      15.51088819       0.00000000       0.00000000       0.00000000      -0.08001170       0.04148323      -0.17723043      -0.05453747      -0.05964476      -0.26598415
Cu       6.41699404       3.85019642      15.51088819       0.00000000       0.00000000       0.00000000      -0.00735056      -0.04009830      -0.26373072      -0.04736072       0.05113044      -0.20025741
Cu       8.98379165       3.85019642      15.51088819       0.00000000       0.00000000       0.00000000       0.00703189      -0.03992705      -0.26404419       0.01306340       0.05446736      -0.22238193
Cu       1.28339881       6.41699404      15.51088819       0.00000000       0.00000000       0.00000000       0.02105574      -0.03744787      -0.23010730       0.06330610      -0.13285470      -0.21214823
Cu       3.85019642       6.41699404      15.51088819       0.00000000       0.00000000       0.00000000      -0.02090402      -0.03753925      -0.22991127      -0.06521569      -0.14081282      -0.20931834
Cu       6.41699404       6.41699404      15.51088819       0.00000000       0.00000000       0.00000000       0.02873606       0.03701477      -0.30287250      -0.03838223      -0.02120785      -0.14840433
Cu       8.98379165       6.41699404      15.51088819       0.00000000       0.00000000       0.00000000      -0.02833957       0.03686325      -0.30281928       0.01115461      -0.02020249      -0.17468908
Cu       7.70049553       7.70112056      17.25111051       0.00046839       0.00068776       0.15076778      -0.00013841      -0.00094561       0.15977881       0.00096701      -0.01032971      -0.06541835
Cu       5.13383013       7.70051007      17.24843043       0.00793569      -0.00038685       0.14440490       0.00927879      -0.00311443       0.15181801       0.00180554      -0.01478812      -0.06129167
Cu       2.56995944       7.65613293      17.23725556       0.00008110       0.01293759       0.13912564       0.00002791      -0.00636749       0.14183812      -0.00770155       0.04076203      -0.11003641
Cu      10.26788359       7.69814620      17.24726299      -0.00652575       0.00016882       0.14559334      -0.00938203      -0.00309062       0.15173828       0.00123316      -0.03097614      -0.06356956
Cu      10.23142919       2.56112785      17.22250771      -0.01531359      -0.00630683       0.13777652      -0.01856196      -0.00269710       0.14567797      -0.00614976      -0.00692682      -0.02138429
Cu       2.57345438       2.50319876      17.27824115      -0.00359452       0.01711091       0.17013602      -0.00035347       0.00022884       0.14079502       0.10034608      -0.32019098      -0.40806029
Cu       5.16099432       2.56097835      17.23239103       0.01481397      -0.00949763       0.13681449       0.01823756      -0.00265995       0.14584234       0.02651446      -0.01121193      -0.07612732
Cu       7.69799995       2.56759957      17.25231797      -0.00070448      -0.00057641       0.14988347       0.00006068       0.00006862       0.16002041      -0.00655068       0.01294719      -0.05442953
Cu      10.26513883       5.12874713      17.26105044      -0.01285936       0.00676147       0.13880353      -0.01563785       0.00650742       0.14977893      -0.09449959       0.05184164      -0.12044706
Cu       2.54515785       5.09858241      17.30270610       0.00460806       0.03846077       0.14471083       0.00004552      -0.01739759       0.17396839      -0.01840084      -0.02702179       0.10793004
Cu       5.11513839       5.12834455      17.26874075       0.00499318       0.00150120       0.14782364       0.01518085       0.00655290       0.14977794       0.14306089       0.03028330      -0.17477881
Cu       7.69438522       5.13323584      17.24997202      -0.00176863       0.00045477       0.14959974      -0.00026218       0.00039659       0.16038772      -0.00460628       0.00838199      -0.06704390
O        2.29664052       2.91023613      19.29965198       0.00136419       0.11665538       0.01246748       0.00021914      -0.03227603       0.02367728       0.34333057       0.42657944       0.16755741
C        2.67021145       4.30466071      19.09141353       0.02691399       0.03300872       0.04872753       0.00030506       0.00266658       0.05246448       0.44749925       0.27802623       0.71835018
H        2.75465995       2.64669059      20.13446540       0.01177385       0.04787980      -0.02023426       0.00002645      -0.02224770       0.00040054      -0.62045971       0.11199376      -0.38031232
O        3.01732833       4.92642881      20.05915142       0.05188868       0.03833348       0.05953027       0.00061065      -0.01852806       0.04528921      -0.21784125      -0.18099404       0.00412456
52
Lattice="10.26719046282867 0.0 0.0 0.0 7.700392847121503 0.0 0.0 0.0 27.347850919999996" Properties=species:S:1:pos:R:3:MACE_forces:R:3:forces:R:3:DFT_forces:R:3 method=neb MACE_energy=-206.9505723360788 energy=-207.65077670682652 stress="0.009273451154845076 -4.408335087359909e-07 -8.570739400643434e-07 -4.408335087359909e-07 0.008782818095491621 0.00016132177534819965 -8.570739400643434e-07 0.00016132177534819965 0.0011041063492616735" free_energy=-207.65077670682652 DFT_energy=-210.60985969 pbc="T T T"
Cu       1.28339881       1.28339881      11.83696273       0.00000000       0.00000000       0.00000000       0.00054538      -0.00039471       0.18436377      -0.01775206       0.01023446       0.41823756
Cu       3.85019642       1.28339881      11.83696273       0.00000000       0.00000000       0.00000000      -0.00054435      -0.00039637       0.18436194       0.01222497       0.00824363       0.42803432
Cu       6.41699404       1.28339881      11.83696273       0.00000000       0.00000000       0.00000000      -0.00092168       0.00050522       0.18406174      -0.02112383       0.02282083       0.43557119
Cu       8.98379165       1.28339881      11.83696273       0.00000000       0.00000000       0.00000000       0.00092019       0.00050763       0.18406538       0.02751221       0.02209625       0.43943999
Cu       1.28339881       3.85019642      11.83696273       0.00000000       0.00000000       0.00000000      -0.00021878       0.00035897       0.18264049      -0.02144018      -0.00525886       0.40892119
Cu       3.85019642       3.85019642      11.83696273       0.00000000       0.00000000       0.00000000       0.00021921       0.00036050       0.18263518       0.02246684      -0.00378648       0.41133996
Cu       6.41699404       3.85019642      11.83696273       0.00000000       0.00000000       0.00000000      -0.00125783      -0.00015504       0.18493269      -0.01611293      -0.00097392       0.43056497
Cu       8.98379165       3.85019642      11.83696273       0.00000000       0.00000000       0.00000000       0.00125715      -0.00015804       0.18493761       0.01478697       0.00027717       0.43304845
Cu       1.28339881       6.41699404      11.83696273       0.00000000       0.00000000       0.00000000       0.00048783       0.00011282       0.18565408      -0.01353383      -0.00513855       0.42464100
Cu       3.85019642       6.41699404      11.83696273       0.00000000       0.00000000       0.00000000      -0.00048421       0.00011340       0.18565294       0.01490932      -0.00493091       0.42343856
Cu       6.41699404       6.41699404      11.83696273       0.00000000       0.00000000       0.00000000      -0.00130941      -0.00031184       0.18548086      -0.02247211      -0.02115490       0.44161086
Cu       8.98379165       6.41699404      11.83696273       0.00000000       0.00000000       0.00000000       0.00130687      -0.00031181       0.18548192       0.01900945      -0.02246557       0.43836682
Cu       7.70039285      -0.00000000      13.67392546       0.00000000       0.00000000       0.00000000      -0.00000459      -0.00045606      -0.09168766       0.00220195       0.00524119      -0.16658695
Cu       5.13359523      -0.00000000      13.67392546       0.00000000       0.00000000       0.00000000       0.00207406       0.00029677      -0.09746935      -0.02915099      -0.00091146      -0.13568308
Cu       2.56679762      -0.00000000      13.67392546       0.00000000       0.00000000       0.00000000       0.00000433      -0.00228964      -0.10780673      -0.00226111      -0.00508617      -0.19944136
Cu       0.00000000      -0.00000000      13.67392546       0.00000000       0.00000000       0.00000000      -0.00207021       0.00027594      -0.09749658       0.02696079      -0.00363029      -0.13771516
Cu       0.00000000       2.56679762      13.67392546       0.00000000       0.00000000       0.00000000      -0.00304513      -0.00059061      -0.09536655      -0.00192934       0.00179992      -0.16949972
Cu       2.56679762       2.56679762      13.67392546       0.00000000       0.00000000       0.00000000       0.00001226       0.00334251      -0.08396598       0.00553634      -0.00825520      -0.11027225
Cu       5.13359523       2.56679762      13.67392546       0.00000000       0.00000000       0.00000000       0.00304599      -0.00059093      -0.09531575       0.00013428       0.00216221      -0.17113560
Cu       7.70039285       2.56679762      13.67392546       0.00000000       0.00000000       0.00000000      -0.00002425       0.00024596      -0.08998245      -0.00084174      -0.01698376      -0.15936194
Cu       0.00000000       5.13359523      13.67392546       0.00000000       0.00000000       0.00000000      -0.00080031       0.00090274      -0.09244471       0.00244495       0.00098755      -0.16757234
Cu       2.56679762       5.13359523      13.67392546       0.00000000       0.00000000       0.00000000       0.00001242      -0.00204136      -0.09676406      -0.00221989       0.01323365      -0.10728894
Cu       5.13359523       5.13359523      13.67392546       0.00000000       0.00000000       0.00000000       0.00079202       0.00088929      -0.09239408      -0.00202267      -0.00114380      -0.17245901
Cu       7.70039285       5.13359523      13.67392546       0.00000000       0.00000000       0.00000000       0.00000348       0.00040959      -0.09684921       0.00085668       0.01182349      -0.16286169
Cu       1.28339881       1.28339881      15.51088819       0.00000000       0.00000000       0.00000000      -0.01469815       0.02191425      -0.29773629       0.07242617       0.07242830      -0.17987595
Cu       3.85019642       1.28339881      15.51088819       0.00000000       0.00000000       0.00000000       0.01499254       0.02181485      -0.29807164      -0.05169276       0.06635439      -0.19278609
Cu       6.41699404       1.28339881      15.51088819       0.00000000       0.00000000       0.00000000      -0.01079831       0.02366442      -0.24307168       0.00997694      -0.00147870      -0.21849499
Cu       8.98379165       1.28339881      15.51088819       0.00000000       0.00000000       0.00000000       0.01038163       0.02338985      -0.24330219      -0.01754809      -0.02214781      -0.21544434
Cu       1.28339881       3.85019642      15.51088819       0.00000000       0.00000000       0.00000000       0.08024732       0.04114655      -0.17708143      -0.08501286      -0.02325120      -0.43369419
Cu       3.85019642       3.85019642      15.51088819       0.00000000       0.00000000       0.00000000      -0.08001170       0.04148323      -0.17723043       0.07840508       0.03412618      -0.41681750
Cu       6.41699404       3.85019642      15.51088819       0.00000000       0.00000000       0.00000000      -0.00735056      -0.04009830      -0.26373072      -0.01736764       0.01399055      -0.21589025
Cu       8.98379165       3.85019642      15.51088819       0.00000000       0.00000000       0.00000000       0.00703189      -0.03992705      -0.26404419      -0.00608663       0.03282912      -0.23665159
Cu       1.28339881       6.41699404      15.51088819       0.00000000       0.00000000       0.00000000       0.02105574      -0.03744787      -0.23010730       0.07420076      -0.16403326      -0.14138361
Cu       3.85019642       6.41699404      15.51088819       0.00000000       0.00000000       0.00000000      -0.02090402      -0.03753925      -0.22991127      -0.09938646      -0.18000635      -0.13426298
Cu       6.41699404       6.41699404      15.51088819       0.00000000       0.00000000       0.00000000       0.02873606       0.03701477      -0.30287250       0.00318226       0.00459648      -0.19372967
Cu       8.98379165       6.41699404      15.51088819       0.00000000       0.00000000       0.00000000      -0.02833957       0.03686325      -0.30281928      -0.00525552      -0.01432113      -0.20099113
Cu       7.70053198       7.70046397      17.25162175       0.00020864      -0.00008695       0.15107710      -0.00013841      -0.00094561       0.15977881      -0.00191388       0.00015384      -0.06503656
Cu       5.13528446       7.70533211      17.24824016       0.00822459       0.00043685       0.14432575       0.00927879      -0.00311443       0.15181801       0.00644202       0.00616827      -0.05665399
Cu       2.56810478       7.66789305      17.22771715      -0.00047221      -0.00078632       0.13867648       0.00002791      -0.00636749       0.14183812      -0.00791877       0.02171311      -0.09048307
Cu      10.26578632       7.70037793      17.24822930      -0.00742963      -0.00254009       0.14581395      -0.00938203      -0.00309062       0.15173828       0.00309826      -0.01369171      -0.05583156
Cu      10.24760182       2.56796255      17.23210302      -0.01091838      -0.00460227       0.14131117      -0.01856196      -0.00269710       0.14567797      -0.04659937      -0.04891891      -0.05761346
Cu       2.58602213       2.58345385      17.25402030       0.00477298       0.03968930       0.21230864      -0.00035347       0.00022884       0.14079502       0.06349265      -0.17890262      -0.13481136
Cu       5.14987849       2.57160593      17.24697098       0.01070631      -0.00473599       0.14173502       0.01823756      -0.00265995       0.14584234       0.08934026      -0.06007014      -0.12813048
Cu       7.69971971       2.56617627      17.25188992       0.00017350      -0.00091316       0.14995892       0.00006068       0.00006862       0.16002041      -0.00568187       0.00008525      -0.05999144
Cu      10.25606962       5.13163520      17.25586285      -0.01382159       0.00479158       0.14313937      -0.01563785       0.00650742       0.14977893      -0.12232908       0.07119802      -0.12619394
Cu       2.52950434       5.04986302      17.29999040      -0.00263125      -0.02387086       0.19339849       0.00004552      -0.01739759       0.17396839      -0.00108004       0.14909500       0.05656199
Cu       5.13601853       5.13902283      17.24682089       0.00658185       0.00410493       0.14461808       0.01518085       0.00655290       0.14977794       0.11776250       0.05491233      -0.12496748
Cu       7.69792706       5.13353449      17.25096421      -0.00031186       0.00106990       0.15002363      -0.00026218       0.00039659       0.16038772      -0.00611758      -0.00169679      -0.06132325
O        2.29430756       2.64492332      19.58654353      -0.03081302       0.06127505       0.05552710       0.00021914      -0.03227603       0.02367728       0.19231939       0.21404948       0.16885103
C        2.65436282       3.87963394      19.03599598       0.04149638       0.01528223      -0.02721447       0.00030506       0.00266658       0.05246448       0.39911159       0.26436736       0.38106506
H        2.67507786       2.62343445      20.49923905      -0.06586700       0.06348356       0.03883388       0.00002645      -0.02224770       0.00040054      -0.45468920      -0.26798977      -0.22436883
O        3.02324331       4.78230678      19.76627789       0.10701047      -0.00521414       0.03868815       0.00061065      -0.01852806       0.04528921      -0.17926221      -0.02875976       0.08561279
52
Lattice="10.26719046282867 0.0 0.0 0.0 7.700392847121503 0.0 0.0 0.0 27.347850919999996" Properties=species:S:1:pos:R:3:MACE_forces:R:3:forces:R:3:DFT_forces:R:3 method=neb MACE_energy=-207.01466203345728 energy=-207.65077670682652 stress="0.009273451154845076 -4.408335087359909e-07 -8.570739400643434e-07 -4.408335087359909e-07 0.008782818095491621 0.00016132177534819965 -8.570739400643434e-07 0.00016132177534819965 0.0011041063492616735" free_energy=-207.65077670682652 DFT_energy=-210.64689655 pbc="T T T"
Cu       1.28339881       1.28339881      11.83696273       0.00000000       0.00000000       0.00000000       0.00054538      -0.00039471       0.18436377      -0.01734653      -0.00124859       0.42089202
Cu       3.85019642       1.28339881      11.83696273       0.00000000       0.00000000       0.00000000      -0.00054435      -0.00039637       0.18436194       0.01200907       0.00424250       0.43611397
Cu       6.41699404       1.28339881      11.83696273       0.00000000       0.00000000       0.00000000      -0.00092168       0.00050522       0.18406174      -0.02196466       0.01575879       0.43251771
Cu       8.98379165       1.28339881      11.83696273       0.00000000       0.00000000       0.00000000       0.00092019       0.00050763       0.18406538       0.02830047       0.01180685       0.44418015
Cu       1.28339881       3.85019642      11.83696273       0.00000000       0.00000000       0.00000000      -0.00021878       0.00035897       0.18264049      -0.01843767       0.00959044       0.41488603
Cu       3.85019642       3.85019642      11.83696273       0.00000000       0.00000000       0.00000000       0.00021921       0.00036050       0.18263518       0.02170613       0.01053041       0.41320939
Cu       6.41699404       3.85019642      11.83696273       0.00000000       0.00000000       0.00000000      -0.00125783      -0.00015504       0.18493269      -0.01826353       0.00951261       0.43519929
Cu       8.98379165       3.85019642      11.83696273       0.00000000       0.00000000       0.00000000       0.00125715      -0.00015804       0.18493761       0.01422780       0.00975768       0.43707796
Cu       1.28339881       6.41699404      11.83696273       0.00000000       0.00000000       0.00000000       0.00048783       0.00011282       0.18565408      -0.01323713      -0.00804229       0.42269265
Cu       3.85019642       6.41699404      11.83696273       0.00000000       0.00000000       0.00000000      -0.00048421       0.00011340       0.18565294       0.01474897      -0.01565641       0.42059004
Cu       6.41699404       6.41699404      11.83696273       0.00000000       0.00000000       0.00000000      -0.00130941      -0.00031184       0.18548086      -0.02137815      -0.02700351       0.44173973
Cu       8.98379165       6.41699404      11.83696273       0.00000000       0.00000000       0.00000000       0.00130687      -0.00031181       0.18548192       0.01852741      -0.02299467       0.43934292
Cu       7.70039285      -0.00000000      13.67392546       0.00000000       0.00000000       0.00000000      -0.00000459      -0.00045606      -0.09168766       0.00175540       0.03069179      -0.16759042
Cu       5.13359523      -0.00000000      13.67392546       0.00000000       0.00000000       0.00000000       0.00207406       0.00029677      -0.09746935      -0.02889435       0.00321380      -0.13761536
Cu       2.56679762      -0.00000000      13.67392546       0.00000000       0.00000000       0.00000000       0.00000433      -0.00228964      -0.10780673       0.00189465      -0.00460544      -0.19972727
Cu       0.00000000      -0.00000000      13.67392546       0.00000000       0.00000000       0.00000000      -0.00207021       0.00027594      -0.09749658       0.02495929      -0.00315108      -0.14311954
Cu       0.00000000       2.56679762      13.67392546       0.00000000       0.00000000       0.00000000      -0.00304513      -0.00059061      -0.09536655       0.00038811       0.00522178      -0.15764801
Cu       2.56679762       2.56679762      13.67392546       0.00000000       0.00000000       0.00000000       0.00001226       0.00334251      -0.08396598       0.00645626      -0.01109650      -0.09960809
Cu       5.13359523       2.56679762      13.67392546       0.00000000       0.00000000       0.00000000       0.00304599      -0.00059093      -0.09531575      -0.00393115      -0.00350763      -0.15945485
Cu       7.70039285       2.56679762      13.67392546       0.00000000       0.00000000       0.00000000      -0.00002425       0.00024596      -0.08998245      -0.00160542      -0.02490508      -0.15343096
Cu       0.00000000       5.13359523      13.67392546       0.00000000       0.00000000       0.00000000      -0.00080031       0.00090274      -0.09244471      -0.00071060      -0.00414856      -0.18259125
Cu       2.56679762       5.13359523      13.67392546       0.00000000       0.00000000       0.00000000       0.00001242      -0.00204136      -0.09676406      -0.00264479       0.01105721      -0.12531429
Cu       5.13359523       5.13359523      13.67392546       0.00000000       0.00000000       0.00000000       0.00079202       0.00088929      -0.09239408       0.00097969      -0.00041890      -0.18472912
Cu       7.70039285       5.13359523      13.67392546       0.00000000       0.00000000       0.00000000       0.00000348       0.00040959      -0.09684921       0.00081598      -0.00373015      -0.16895602
Cu       1.28339881       1.28339881      15.51088819       0.00000000       0.00000000       0.00000000      -0.01469815       0.02191425      -0.29773629       0.09786084       0.11502088      -0.15996369
Cu       3.85019642       1.28339881      15.51088819       0.00000000       0.00000000       0.00000000       0.01499254       0.02181485      -0.29807164      -0.07481031       0.11396680      -0.17267354
Cu       6.41699404       1.28339881      15.51088819       0.00000000       0.00000000       0.00000000      -0.01079831       0.02366442      -0.24307168      -0.00633385       0.00893754      -0.19687124
Cu       8.98379165       1.28339881      15.51088819       0.00000000       0.00000000       0.00000000       0.01038163       0.02338985      -0.24330219      -0.00508154      -0.01826883      -0.19569849
Cu       1.28339881       3.85019642      15.51088819       0.00000000       0.00000000       0.00000000       0.08024732       0.04114655      -0.17708143      -0.07094359       0.03333834      -0.41259051
Cu       3.85019642       3.85019642      15.51088819       0.00000000       0.00000000       0.00000000      -0.08001170       0.04148323      -0.17723043       0.09381424       0.08384710      -0.44230056
Cu       6.41699404       3.85019642      15.51088819       0.00000000       0.00000000       0.00000000      -0.00735056      -0.04009830      -0.26373072      -0.02138735       0.00106294      -0.20994913
Cu       8.98379165       3.85019642      15.51088819       0.00000000       0.00000000       0.00000000       0.00703189      -0.03992705      -0.26404419      -0.00259080       0.02613671      -0.23107515
Cu       1.28339881       6.41699404      15.51088819       0.00000000       0.00000000       0.00000000       0.02105574      -0.03744787      -0.23010730       0.03959403      -0.10132898      -0.18471376
Cu       3.85019642       6.41699404      15.51088819       0.00000000       0.00000000       0.00000000      -0.02090402      -0.03753925      -0.22991127      -0.05988426      -0.12180898      -0.17488284
Cu       6.41699404       6.41699404      15.51088819       0.00000000       0.00000000       0.00000000       0.02873606       0.03701477      -0.30287250       0.01919632       0.01446060      -0.21928865
Cu       8.98379165       6.41699404      15.51088819       0.00000000       0.00000000       0.00000000      -0.02833957       0.03686325      -0.30281928      -0.01656817      -0.00555462      -0.21856029
Cu       7.70051526       7.70045269      17.25162463       0.00019254      -0.00027974       0.15110858      -0.00013841      -0.00094561       0.15977881      -0.00094312       0.01200284      -0.06807897
Cu       5.13543934       7.70541157      17.24809169       0.00855323      -0.00009453       0.14406893       0.00927879      -0.00311443       0.15181801       0.00706384       0.02824585      -0.06164838
Cu       2.56759603       7.69397026      17.22692929      -0.00142550       0.04281349       0.13765492       0.00002791      -0.00636749       0.14183812      -0.00472408       0.05918053      -0.08181547
Cu      10.26580791       7.70082544      17.24836210      -0.00750026      -0.00275503       0.14607626      -0.00938203      -0.00309062       0.15173828       0.00003108       0.00403452      -0.06100223
Cu      10.25415084       2.56917096      17.23751674       0.00041189      -0.00263570       0.15097169      -0.01856196      -0.00269710       0.14567797      -0.05029911      -0.05108569      -0.07149178
Cu       2.58819159       2.63426742      17.27315573       0.00957754       0.09988452       0.21537390      -0.00035347       0.00022884       0.14079502       0.02669014      -0.12145422      -0.12876903
Cu       5.14271880       2.57334191      17.25386308      -0.00149013      -0.00173679       0.15391603       0.01823756      -0.00265995       0.14584234       0.10635701      -0.08001072      -0.14315294
Cu       7.69955688       2.56608435      17.25142904       0.00023961      -0.00099515       0.14916218       0.00006068       0.00006862       0.16002041      -0.00722297      -0.00901815      -0.06133462
Cu      10.25363414       5.13380333      17.25074320      -0.01709954       0.00775371       0.13570801      -0.01563785       0.00650742       0.14977893      -0.11704138       0.05066250      -0.12830728
Cu       2.53886289       5.11853661      17.26981540       0.01512225       0.05178827       0.18209999       0.00004552      -0.01739759       0.17396839       0.00390833       0.19119940       0.06307225
Cu       5.14601134       5.14154206      17.24080098       0.02457900       0.00854484       0.13396431       0.01518085       0.00655290       0.14977794       0.10302272       0.04386910      -0.10804732
Cu       7.69934230       5.13332484      17.25142300       0.00355258       0.00078392       0.15090447      -0.00026218       0.00039659       0.16038772      -0.00092268      -0.01223705      -0.06309283
O        2.28577184       2.56407452      19.69565822      -0.05059229      -0.07070074       0.23831060       0.00021914      -0.03227603       0.02367728       0.27911739      -0.06883204       0.39841008
C        2.65227497       3.70416886      19.01438620       0.03934873      -0.23628265      -0.07367165       0.00030506       0.00266658       0.05246448       0.30652904       0.04357639       0.10602860
H        2.69784537       2.62013874      20.58821138      -0.04155858       0.07323880       0.19190453       0.00002645      -0.02224770       0.00040054      -0.41709584      -0.26271694      -0.39835514
O        2.97405873       4.72613022      19.61487580       0.03775398      -0.08885683      -0.21291326       0.00061065      -0.01852806       0.04528921      -0.22569119       0.03189915       0.34749620
52
Lattice="10.26719046282867 0.0 0.0 0.0 7.700392847121503 0.0 0.0 0.0 27.347850919999996" Properties=species:S:1:pos:R:3:MACE_forces:R:3:forces:R:3:DFT_forces:R:3 method=neb MACE_energy=-207.1721425651375 energy=-207.65077670682652 stress="0.009273451154845076 -4.408335087359909e-07 -8.570739400643434e-07 -4.408335087359909e-07 0.008782818095491621 0.00016132177534819965 -8.570739400643434e-07 0.00016132177534819965 0.0011041063492616735" free_energy=-207.65077670682652 DFT_energy=-210.78461226 pbc="T T T"
Cu       1.28339881       1.28339881      11.83696273       0.00000000       0.00000000       0.00000000       0.00054538      -0.00039471       0.18436377      -0.01534646      -0.00641963       0.42110028
Cu       3.85019642       1.28339881      11.83696273       0.00000000       0.00000000       0.00000000      -0.00054435      -0.00039637       0.18436194       0.01013347       0.00281013       0.44039746
Cu       6.41699404       1.28339881      11.83696273       0.00000000       0.00000000       0.00000000      -0.00092168       0.00050522       0.18406174      -0.02528232       0.00950269       0.43005338
Cu       8.98379165       1.28339881      11.83696273       0.00000000       0.00000000       0.00000000       0.00092019       0.00050763       0.18406538       0.03195039       0.00492028       0.44545897
Cu       1.28339881       3.85019642      11.83696273       0.00000000       0.00000000       0.00000000      -0.00021878       0.00035897       0.18264049      -0.01209019       0.01154066       0.41914862
Cu       3.85019642       3.85019642      11.83696273       0.00000000       0.00000000       0.00000000       0.00021921       0.00036050       0.18263518       0.01630762       0.01394074       0.41659423
Cu       6.41699404       3.85019642      11.83696273       0.00000000       0.00000000       0.00000000      -0.00125783      -0.00015504       0.18493269      -0.02207233       0.00936269       0.44028679
Cu       8.98379165       3.85019642      11.83696273       0.00000000       0.00000000       0.00000000       0.00125715      -0.00015804       0.18493761       0.01754753       0.00835330       0.44226792
Cu       1.28339881       6.41699404      11.83696273       0.00000000       0.00000000       0.00000000       0.00048783       0.00011282       0.18565408      -0.01190664      -0.00370099       0.42397812
Cu       3.85019642       6.41699404      11.83696273       0.00000000       0.00000000       0.00000000      -0.00048421       0.00011340       0.18565294       0.01301444      -0.01694108       0.42269057
Cu       6.41699404       6.41699404      11.83696273       0.00000000       0.00000000       0.00000000      -0.00130941      -0.00031184       0.18548086      -0.02368539      -0.02132235       0.44631044
Cu       8.98379165       6.41699404      11.83696273       0.00000000       0.00000000       0.00000000       0.00130687      -0.00031181       0.18548192       0.02185117      -0.01481471       0.44544570
Cu       7.70039285      -0.00000000      13.67392546       0.00000000       0.00000000       0.00000000      -0.00000459      -0.00045606      -0.09168766       0.00042021       0.03897541      -0.16647154
Cu       5.13359523      -0.00000000      13.67392546       0.00000000       0.00000000       0.00000000       0.00207406       0.00029677      -0.09746935      -0.02750374       0.00217913      -0.14651767
Cu       2.56679762      -0.00000000      13.67392546       0.00000000       0.00000000       0.00000000       0.00000433      -0.00228964      -0.10780673       0.00422071      -0.00930672      -0.20093552
Cu       0.00000000      -0.00000000      13.67392546       0.00000000       0.00000000       0.00000000      -0.00207021       0.00027594      -0.09749658       0.02386591      -0.00688791      -0.15397012
Cu       0.00000000       2.56679762      13.67392546       0.00000000       0.00000000       0.00000000      -0.00304513      -0.00059061      -0.09536655       0.00049632       0.01587664      -0.15430865
Cu       2.56679762       2.56679762      13.67392546       0.00000000       0.00000000       0.00000000       0.00001226       0.00334251      -0.08396598       0.00729911      -0.00736252      -0.09420711
Cu       5.13359523       2.56679762      13.67392546       0.00000000       0.00000000       0.00000000       0.00304599      -0.00059093      -0.09531575      -0.00509052       0.00138049      -0.15336052
Cu       7.70039285       2.56679762      13.67392546       0.00000000       0.00000000       0.00000000      -0.00002425       0.00024596      -0.08998245      -0.00101699      -0.01259113      -0.14760515
Cu       0.00000000       5.13359523      13.67392546       0.00000000       0.00000000       0.00000000      -0.00080031       0.00090274      -0.09244471      -0.00223852      -0.01002478      -0.18772267
Cu       2.56679762       5.13359523      13.67392546       0.00000000       0.00000000       0.00000000       0.00001242      -0.00204136      -0.09676406      -0.00206496       0.01022554      -0.13652934
Cu       5.13359523       5.13359523      13.67392546       0.00000000       0.00000000       0.00000000       0.00079202       0.00088929      -0.09239408       0.00036678      -0.00377928      -0.18686629
Cu       7.70039285       5.13359523      13.67392546       0.00000000       0.00000000       0.00000000       0.00000348       0.00040959      -0.09684921       0.00178495      -0.02263651      -0.16724563
Cu       1.28339881       1.28339881      15.51088819       0.00000000       0.00000000       0.00000000      -0.01469815       0.02191425      -0.29773629       0.07560278       0.11026998      -0.20442014
Cu       3.85019642       1.28339881      15.51088819       0.00000000       0.00000000       0.00000000       0.01499254       0.02181485      -0.29807164      -0.05518442       0.11186331      -0.21559933
Cu       6.41699404       1.28339881      15.51088819       0.00000000       0.00000000       0.00000000      -0.01079831       0.02366442      -0.24307168      -0.01974036       0.01384538      -0.18267862
Cu       8.98379165       1.28339881      15.51088819       0.00000000       0.00000000       0.00000000       0.01038163       0.02338985      -0.24330219       0.00684706      -0.01458152      -0.18371482
Cu       1.28339881       3.85019642      15.51088819       0.00000000       0.00000000       0.00000000       0.08024732       0.04114655      -0.17708143      -0.02724388       0.09753589      -0.36510450
Cu       3.85019642       3.85019642      15.51088819       0.00000000       0.00000000       0.00000000      -0.08001170       0.04148323      -0.17723043       0.06956957       0.12662484      -0.42041096
Cu       6.41699404       3.85019642      15.51088819       0.00000000       0.00000000       0.00000000      -0.00735056      -0.04009830      -0.26373072      -0.03202042      -0.01836550      -0.19901868
Cu       8.98379165       3.85019642      15.51088819       0.00000000       0.00000000       0.00000000       0.00703189      -0.03992705      -0.26404419       0.01132457       0.00945156      -0.21730698
Cu       1.28339881       6.41699404      15.51088819       0.00000000       0.00000000       0.00000000       0.02105574      -0.03744787      -0.23010730       0.03930875      -0.06760111      -0.19412010
Cu       3.85019642       6.41699404      15.51088819       0.00000000       0.00000000       0.00000000      -0.02090402      -0.03753925      -0.22991127      -0.03925740      -0.07440442      -0.20576674
Cu       6.41699404       6.41699404      15.51088819       0.00000000       0.00000000       0.00000000       0.02873606       0.03701477      -0.30287250       0.03177405       0.03379180      -0.24149802
Cu       8.98379165       6.41699404      15.51088819       0.00000000       0.00000000       0.00000000      -0.02833957       0.03686325      -0.30281928      -0.02404202       0.01496890      -0.22972999
Cu       7.70047597       7.70028245      17.25158358       0.00010081      -0.00078513       0.15104747      -0.00013841      -0.00094561       0.15977881      -0.00130628       0.01431602      -0.06938627
Cu       5.13511163       7.70544151      17.24809956       0.00753306      -0.00116411       0.14436040       0.00927879      -0.00311443       0.15181801       0.00772607       0.03513545      -0.06823489
Cu       2.56684538       7.71485431      17.22877637      -0.00235523       0.05095429       0.14324749       0.00002791      -0.00636749       0.14183812      -0.00337712       0.06216081      -0.06919084
Cu      10.26609585       7.70153182      17.24866281      -0.00700508      -0.00230715       0.14626925      -0.00938203      -0.00309062       0.15173828       0.00030285       0.00748426      -0.06710914
Cu      10.26044589       2.57047441      17.24385933       0.00401376      -0.00153786       0.15710710      -0.01856196      -0.00269710       0.14567797      -0.05037015      -0.03896530      -0.08543465
Cu       2.58361324       2.63448916      17.26435904      -0.00593788       0.01232195       0.15691165      -0.00035347       0.00022884       0.14079502      -0.02285021      -0.13661986      -0.10220398
Cu       5.13498782       2.57406937      17.25990684      -0.00912582      -0.00285688       0.15754166       0.01823756      -0.00265995       0.14584234       0.11215975      -0.07983723      -0.15685843
Cu       7.69920647       2.56624842      17.25113523      -0.00047077      -0.00030820       0.14920431       0.00006068       0.00006862       0.16002041      -0.01069884      -0.00820119      -0.06572262
Cu      10.25178619       5.13645774      17.24538533      -0.01446256       0.01016341       0.13180439      -0.01563785       0.00650742       0.14977893      -0.09695161       0.03294193      -0.12265933
Cu       2.55227047       5.17580363      17.27244340       0.04063053       0.04223229       0.28464747       0.00004552      -0.01739759       0.17396839      -0.00149533       0.19590088      -0.01256333
Cu       5.15673003       5.14415991      17.23511397       0.03575623       0.01073282       0.13007113       0.01518085       0.00655290       0.14977794       0.07330392       0.02592317      -0.08805449
Cu       7.70131071       5.13300148      17.25172134       0.00720049       0.00031286       0.15086372      -0.00026218       0.00039659       0.16038772       0.00650518      -0.01907068      -0.06212661
O        2.29124195       2.50412741      19.80151894      -0.01323275      -0.09127968       0.30355799       0.00021914      -0.03227603       0.02367728       0.41933167      -0.20270502       0.54674483
C        2.64276972       3.54880342      19.00538907       0.01259195      -0.28596059      -0.06553870       0.00030506       0.00266658       0.05246448       0.25080252      -0.15059435       0.11593873
H        2.72034582       2.63908992      20.67482112      -0.01253656       0.11617005       0.23807638       0.00002645      -0.02224770       0.00040054      -0.44908518      -0.19867329      -0.60546084
O        2.91679633       4.66570804      19.46608995      -0.05716949      -0.13080856      -0.34558748       0.00061065      -0.01852806       0.04528921      -0.27189610       0.12412521       0.47369845
52
Lattice="10.26719046282867 0.0 0.0 0.0 7.700392847121503 0.0 0.0 0.0 27.347850919999996" Properties=species:S:1:pos:R:3:MACE_forces:R:3:forces:R:3:DFT_forces:R:3 method=neb MACE_energy=-207.32759477212306 energy=-207.65077670682652 stress="0.009273451154845076 -4.408335087359909e-07 -8.570739400643434e-07 -4.408335087359909e-07 0.008782818095491621 0.00016132177534819965 -8.570739400643434e-07 0.00016132177534819965 0.0011041063492616735" free_energy=-207.65077670682652 DFT_energy=-210.91208468 pbc="T T T"
Cu       1.28339881       1.28339881      11.83696273       0.00000000       0.00000000       0.00000000       0.00054538      -0.00039471       0.18436377      -0.01302220      -0.00708202       0.41848697
Cu       3.85019642       1.28339881      11.83696273       0.00000000       0.00000000       0.00000000      -0.00054435      -0.00039637       0.18436194       0.00703218      -0.00042906       0.43996488
Cu       6.41699404       1.28339881      11.83696273       0.00000000       0.00000000       0.00000000      -0.00092168       0.00050522       0.18406174      -0.03044822       0.00220368       0.43175750
Cu       8.98379165       1.28339881      11.83696273       0.00000000       0.00000000       0.00000000       0.00092019       0.00050763       0.18406538       0.03755997       0.00028488       0.44565373
Cu       1.28339881       3.85019642      11.83696273       0.00000000       0.00000000       0.00000000      -0.00021878       0.00035897       0.18264049      -0.00617135       0.00732494       0.42153124
Cu       3.85019642       3.85019642      11.83696273       0.00000000       0.00000000       0.00000000       0.00021921       0.00036050       0.18263518       0.01037880       0.01334817       0.42064392
Cu       6.41699404       3.85019642      11.83696273       0.00000000       0.00000000       0.00000000      -0.00125783      -0.00015504       0.18493269      -0.02609372       0.00929595       0.44365447
Cu       8.98379165       3.85019642      11.83696273       0.00000000       0.00000000       0.00000000       0.00125715      -0.00015804       0.18493761       0.02220222       0.00553195       0.44584888
Cu       1.28339881       6.41699404      11.83696273       0.00000000       0.00000000       0.00000000       0.00048783       0.00011282       0.18565408      -0.01037976       0.00136475       0.42520103
Cu       3.85019642       6.41699404      11.83696273       0.00000000       0.00000000       0.00000000      -0.00048421       0.00011340       0.18565294       0.01128054      -0.01307485       0.42178982
Cu       6.41699404       6.41699404      11.83696273       0.00000000       0.00000000       0.00000000      -0.00130941      -0.00031184       0.18548086      -0.02902922      -0.01427486       0.45133941
Cu       8.98379165       6.41699404      11.83696273       0.00000000       0.00000000       0.00000000       0.00130687      -0.00031181       0.18548192       0.02730033      -0.00749362       0.45090811
Cu       7.70039285      -0.00000000      13.67392546       0.00000000       0.00000000       0.00000000      -0.00000459      -0.00045606      -0.09168766      -0.00011599       0.03582181      -0.16473103
Cu       5.13359523      -0.00000000      13.67392546       0.00000000       0.00000000       0.00000000       0.00207406       0.00029677      -0.09746935      -0.02634223      -0.00005607      -0.15646579
Cu       2.56679762      -0.00000000      13.67392546       0.00000000       0.00000000       0.00000000       0.00000433      -0.00228964      -0.10780673       0.00386750      -0.01593995      -0.20027254
Cu       0.00000000      -0.00000000      13.67392546       0.00000000       0.00000000       0.00000000      -0.00207021       0.00027594      -0.09749658       0.02260683      -0.01007927      -0.16385957
Cu       0.00000000       2.56679762      13.67392546       0.00000000       0.00000000       0.00000000      -0.00304513      -0.00059061      -0.09536655      -0.00044529       0.02363772      -0.15466405
Cu       2.56679762       2.56679762      13.67392546       0.00000000       0.00000000       0.00000000       0.00001226       0.00334251      -0.08396598       0.00785130       0.00001970      -0.09142351
Cu       5.13359523       2.56679762      13.67392546       0.00000000       0.00000000       0.00000000       0.00304599      -0.00059093      -0.09531575      -0.00355807       0.01118555      -0.15364703
Cu       7.70039285       2.56679762      13.67392546       0.00000000       0.00000000       0.00000000      -0.00002425       0.00024596      -0.08998245      -0.00110291       0.00659919      -0.14233487
Cu       0.00000000       5.13359523      13.67392546       0.00000000       0.00000000       0.00000000      -0.00080031       0.00090274      -0.09244471       0.00072338      -0.01396541      -0.18368506
Cu       2.56679762       5.13359523      13.67392546       0.00000000       0.00000000       0.00000000       0.00001242      -0.00204136      -0.09676406      -0.00209099       0.00854988      -0.14039333
Cu       5.13359523       5.13359523      13.67392546       0.00000000       0.00000000       0.00000000       0.00079202       0.00088929      -0.09239408      -0.00449217      -0.01080518      -0.18188155
Cu       7.70039285       5.13359523      13.67392546       0.00000000       0.00000000       0.00000000       0.00000348       0.00040959      -0.09684921       0.00359292      -0.03810618      -0.16312271
Cu       1.28339881       1.28339881      15.51088819       0.00000000       0.00000000       0.00000000      -0.01469815       0.02191425      -0.29773629       0.02051833       0.06513335      -0.29038785
Cu       3.85019642       1.28339881      15.51088819       0.00000000       0.00000000       0.00000000       0.01499254       0.02181485      -0.29807164      -0.01864540       0.07611251      -0.28223436
Cu       6.41699404       1.28339881      15.51088819       0.00000000       0.00000000       0.00000000      -0.01079831       0.02366442      -0.24307168      -0.02501518       0.01018901      -0.17591850
Cu       8.98379165       1.28339881      15.51088819       0.00000000       0.00000000       0.00000000       0.01038163       0.02338985      -0.24330219       0.02292585      -0.00408704      -0.17002671
Cu       1.28339881       3.85019642      15.51088819       0.00000000       0.00000000       0.00000000       0.08024732       0.04114655      -0.17708143       0.01168395       0.13330293      -0.33446603
Cu       3.85019642       3.85019642      15.51088819       0.00000000       0.00000000       0.00000000      -0.08001170       0.04148323      -0.17723043       0.02470429       0.13223119      -0.36893460
Cu       6.41699404       3.85019642      15.51088819       0.00000000       0.00000000       0.00000000      -0.00735056      -0.04009830      -0.26373072      -0.04013444      -0.03587926      -0.19174562
Cu       8.98379165       3.85019642      15.51088819       0.00000000       0.00000000       0.00000000       0.00703189      -0.03992705      -0.26404419       0.03593458      -0.01603456      -0.19894839
Cu       1.28339881       6.41699404      15.51088819       0.00000000       0.00000000       0.00000000       0.02105574      -0.03744787      -0.23010730       0.07272703      -0.06399740      -0.17037596
Cu       3.85019642       6.41699404      15.51088819       0.00000000       0.00000000       0.00000000      -0.02090402      -0.03753925      -0.22991127      -0.05000140      -0.05469634      -0.20984948
Cu       6.41699404       6.41699404      15.51088819       0.00000000       0.00000000       0.00000000       0.02873606       0.03701477      -0.30287250       0.04227959       0.05513998      -0.26029280
Cu       8.98379165       6.41699404      15.51088819       0.00000000       0.00000000       0.00000000      -0.02833957       0.03686325      -0.30281928      -0.02899496       0.03975541      -0.24173690
Cu       7.70030895       7.69990958      17.25149931      -0.00006585      -0.00126561       0.15103263      -0.00013841      -0.00094561       0.15977881      -0.00223532       0.01598047      -0.07048511
Cu       5.13424784       7.70519293      17.24839624       0.00676710      -0.00226219       0.14513648       0.00927879      -0.00311443       0.15181801       0.00780062       0.03300669      -0.07242485
Cu       2.56587739       7.72283842      17.23322206      -0.00175665       0.01615718       0.14730215       0.00002791      -0.00636749       0.14183812      -0.00096376       0.02265522      -0.06803202
Cu      10.26637318       7.70350502      17.24906871      -0.00705777      -0.00143598       0.14603896      -0.00938203      -0.00309062       0.15173828      -0.00170820       0.00526851      -0.07095430
Cu      10.26911970       2.57323704      17.25398313       0.00146488      -0.00074862       0.15795190      -0.01856196      -0.00269710       0.14567797      -0.07477010      -0.03194516      -0.11369191
Cu       2.57296521       2.59381684      17.24311600      -0.01683372      -0.06355016       0.13458333      -0.00035347       0.00022884       0.14079502      -0.04308740      -0.13884182      -0.00848233
Cu       5.12862088       2.57281796      17.26338195      -0.00171421      -0.00648456       0.14931953       0.01823756      -0.00265995       0.14584234       0.11903411      -0.06620684      -0.17311410
Cu       7.69980409       2.56662133      17.25094962      -0.00032248       0.00010764       0.14968740       0.00006068       0.00006862       0.16002041      -0.01044552      -0.00539910      -0.06669527
Cu      10.24963763       5.14063730      17.23928053      -0.01277459       0.01089433       0.13404645      -0.01563785       0.00650742       0.14977893      -0.07397188       0.02064416      -0.11026983
Cu       2.56643060       5.20427349      17.29274961       0.03048413      -0.00819872       0.27489008       0.00004552      -0.01739759       0.17396839       0.00354664       0.18443659      -0.09798358
Cu       5.16732624       5.14644172      17.23035818       0.02961796       0.00946188       0.13476012       0.01518085       0.00655290       0.14977794       0.03556208       0.00073543      -0.06746675
Cu       7.70413928       5.13256511      17.25190826       0.00684370       0.00026092       0.15053221      -0.00026218       0.00039659       0.16038772       0.00798971      -0.02462048      -0.05904735
O        2.31682090       2.44307064      19.90185916       0.04385639      -0.06221164       0.22148079       0.00021914      -0.03227603       0.02367728       0.55195223      -0.20895818       0.52317125
C        2.60321742       3.40205313      18.99618598      -0.01874416      -0.18912559       0.00975186       0.00030506       0.00266658       0.05246448       0.21568298      -0.18863125       0.25519173
H        2.76226929       2.67471235      20.74723857      -0.01549448       0.14377343       0.16529160       0.00002645      -0.02224770       0.00040054      -0.47605348      -0.14513558      -0.62802087
O        2.82870407       4.58250204      19.33565060      -0.09287165      -0.11329468      -0.21771460       0.00061065      -0.01852806       0.04528921      -0.32741884       0.19597985       0.40292356
52
Lattice="10.26719046282867 0.0 0.0 0.0 7.700392847121503 0.0 0.0 0.0 27.347850919999996" Properties=species:S:1:pos:R:3:MACE_forces:R:3:forces:R:3:DFT_forces:R:3 method=neb MACE_energy=-207.4080046868683 energy=-207.65077670682652 stress="0.009273451154845076 -4.408335087359909e-07 -8.570739400643434e-07 -4.408335087359909e-07 0.008782818095491621 0.00016132177534819965 -8.570739400643434e-07 0.00016132177534819965 0.0011041063492616735" free_energy=-207.65077670682652 DFT_energy=-210.9979871 pbc="T T T"
Cu       1.28339881       1.28339881      11.83696273       0.00000000       0.00000000       0.00000000       0.00054538      -0.00039471       0.18436377      -0.01066065      -0.00343962       0.41945727
Cu       3.85019642       1.28339881      11.83696273       0.00000000       0.00000000       0.00000000      -0.00054435      -0.00039637       0.18436194       0.00639002      -0.00044380       0.43456835
Cu       6.41699404       1.28339881      11.83696273       0.00000000       0.00000000       0.00000000      -0.00092168       0.00050522       0.18406174      -0.03301284       0.00006834       0.43441770
Cu       8.98379165       1.28339881      11.83696273       0.00000000       0.00000000       0.00000000       0.00092019       0.00050763       0.18406538       0.03983630      -0.00067351       0.44171064
Cu       1.28339881       3.85019642      11.83696273       0.00000000       0.00000000       0.00000000      -0.00021878       0.00035897       0.18264049      -0.00393785       0.00199669       0.42299010
Cu       3.85019642       3.85019642      11.83696273       0.00000000       0.00000000       0.00000000       0.00021921       0.00036050       0.18263518       0.00581976       0.00756963       0.42329469
Cu       6.41699404       3.85019642      11.83696273       0.00000000       0.00000000       0.00000000      -0.00125783      -0.00015504       0.18493269      -0.02783092       0.00565312       0.44568052
Cu       8.98379165       3.85019642      11.83696273       0.00000000       0.00000000       0.00000000       0.00125715      -0.00015804       0.18493761       0.02525684       0.00195934       0.44640506
Cu       1.28339881       6.41699404      11.83696273       0.00000000       0.00000000       0.00000000       0.00048783       0.00011282       0.18565408      -0.00963953       0.00204162       0.42752919
Cu       3.85019642       6.41699404      11.83696273       0.00000000       0.00000000       0.00000000      -0.00048421       0.00011340       0.18565294       0.01118238      -0.00829016       0.42153864
Cu       6.41699404       6.41699404      11.83696273       0.00000000       0.00000000       0.00000000      -0.00130941      -0.00031184       0.18548086      -0.03382593      -0.00855475       0.45588328
Cu       8.98379165       6.41699404      11.83696273       0.00000000       0.00000000       0.00000000       0.00130687      -0.00031181       0.18548192       0.03257837      -0.00330595       0.45191481
Cu       7.70039285      -0.00000000      13.67392546       0.00000000       0.00000000       0.00000000      -0.00000459      -0.00045606      -0.09168766       0.00327967       0.02950492      -0.16409084
Cu       5.13359523      -0.00000000      13.67392546       0.00000000       0.00000000       0.00000000       0.00207406       0.00029677      -0.09746935      -0.02536714      -0.00260183      -0.16472472
Cu       2.56679762      -0.00000000      13.67392546       0.00000000       0.00000000       0.00000000       0.00000433      -0.00228964      -0.10780673       0.00260372      -0.02034548      -0.19881975
Cu       0.00000000      -0.00000000      13.67392546       0.00000000       0.00000000       0.00000000      -0.00207021       0.00027594      -0.09749658       0.02192995      -0.01168445      -0.16973405
Cu       0.00000000       2.56679762      13.67392546       0.00000000       0.00000000       0.00000000      -0.00304513      -0.00059061      -0.09536655      -0.00210644       0.02623003      -0.15317254
Cu       2.56679762       2.56679762      13.67392546       0.00000000       0.00000000       0.00000000       0.00001226       0.00334251      -0.08396598       0.00453593       0.00537731      -0.09227192
Cu       5.13359523       2.56679762      13.67392546       0.00000000       0.00000000       0.00000000       0.00304599      -0.00059093      -0.09531575      -0.00028405       0.01917704      -0.16088079
Cu       7.70039285       2.56679762      13.67392546       0.00000000       0.00000000       0.00000000      -0.00002425       0.00024596      -0.08998245      -0.00035433       0.01988455      -0.14219149
Cu       0.00000000       5.13359523      13.67392546       0.00000000       0.00000000       0.00000000      -0.00080031       0.00090274      -0.09244471       0.00559173      -0.01561582      -0.17789903
Cu       2.56679762       5.13359523      13.67392546       0.00000000       0.00000000       0.00000000       0.00001242      -0.00204136      -0.09676406      -0.00305356       0.00722711      -0.14150028
Cu       5.13359523       5.13359523      13.67392546       0.00000000       0.00000000       0.00000000       0.00079202       0.00088929      -0.09239408      -0.00796918      -0.01653160      -0.17892435
Cu       7.70039285       5.13359523      13.67392546       0.00000000       0.00000000       0.00000000       0.00000348       0.00040959      -0.09684921       0.00288724      -0.04587356      -0.16141825
Cu       1.28339881       1.28339881      15.51088819       0.00000000       0.00000000       0.00000000      -0.01469815       0.02191425      -0.29773629      -0.03370636      -0.00166212      -0.37477009
Cu       3.85019642       1.28339881      15.51088819       0.00000000       0.00000000       0.00000000       0.01499254       0.02181485      -0.29807164      -0.00097178       0.03428198      -0.31825422
Cu       6.41699404       1.28339881      15.51088819       0.00000000       0.00000000       0.00000000      -0.01079831       0.02366442      -0.24307168      -0.01764920      -0.00205119      -0.17887351
Cu       8.98379165       1.28339881      15.51088819       0.00000000       0.00000000       0.00000000       0.01038163       0.02338985      -0.24330219       0.04599969       0.01692791      -0.15094371
Cu       1.28339881       3.85019642      15.51088819       0.00000000       0.00000000       0.00000000       0.08024732       0.04114655      -0.17708143       0.04255254       0.11796774      -0.31314912
Cu       3.85019642       3.85019642      15.51088819       0.00000000       0.00000000       0.00000000      -0.08001170       0.04148323      -0.17723043      -0.02956033       0.08223962      -0.28925465
Cu       6.41699404       3.85019642      15.51088819       0.00000000       0.00000000       0.00000000      -0.00735056      -0.04009830      -0.26373072      -0.03618164      -0.04108217      -0.19225909
Cu       8.98379165       3.85019642      15.51088819       0.00000000       0.00000000       0.00000000       0.00703189      -0.03992705      -0.26404419       0.06816198      -0.04478653      -0.17730619
Cu       1.28339881       6.41699404      15.51088819       0.00000000       0.00000000       0.00000000       0.02105574      -0.03744787      -0.23010730       0.09487101      -0.06889938      -0.15768395
Cu       3.85019642       6.41699404      15.51088819       0.00000000       0.00000000       0.00000000      -0.02090402      -0.03753925      -0.22991127      -0.06656173      -0.05987455      -0.19836389
Cu       6.41699404       6.41699404      15.51088819       0.00000000       0.00000000       0.00000000       0.02873606       0.03701477      -0.30287250       0.04591964       0.06622932      -0.26360709
Cu       8.98379165       6.41699404      15.51088819       0.00000000       0.00000000       0.00000000      -0.02833957       0.03686325      -0.30281928      -0.03326652       0.06009390      -0.25406183
Cu       7.70019747       7.69945196      17.25138499      -0.00050962      -0.00117401       0.15103735      -0.00013841      -0.00094561       0.15977881      -0.00437683       0.01464906      -0.07290207
Cu       5.13310675       7.70440151      17.24897468       0.00668779      -0.00203586       0.14555078       0.00927879      -0.00311443       0.15181801       0.00649523       0.02574454      -0.07423536
Cu       2.56528785       7.70850919      17.23996957      -0.00020593      -0.01019996       0.14384587       0.00002791      -0.00636749       0.14183812       0.00461896      -0.00867884      -0.08675512
Cu      10.26672122       7.70712643      17.24944077      -0.00746021      -0.00088458       0.14501469      -0.00938203      -0.00309062       0.15173828      -0.00828638      -0.00138117      -0.07611851
Cu      10.28179627       2.57730408      17.26840080      -0.00531122      -0.00101615       0.15141209      -0.01856196      -0.00269710       0.14567797      -0.12482799      -0.02978691      -0.14999998
Cu       2.56174328       2.53226307      17.23635217      -0.01012845      -0.03855369       0.15339094      -0.00035347       0.00022884       0.14079502      -0.04225320      -0.06161064       0.06455589
Cu       5.12921550       2.56971791      17.26121817       0.00935118      -0.00464366       0.14038108       0.01823756      -0.00265995       0.14584234       0.10901728      -0.04227124      -0.17566888
Cu       7.70355255       2.56702787      17.25085774       0.00126923      -0.00022439       0.14970807       0.00006068       0.00006862       0.16002041      -0.00208867      -0.00365407      -0.06581729
Cu      10.24655029       5.14612262      17.23366605      -0.01350557       0.00969199       0.13892614      -0.01563785       0.00650742       0.14977893      -0.05566074       0.01674154      -0.09086054
Cu       2.57598089       5.19898304      17.30370481       0.00642883      -0.03341305       0.19954794       0.00004552      -0.01739759       0.17396839       0.01697455       0.17419894      -0.15101787
Cu       5.17254955       5.14667257      17.22909462       0.01373539       0.00705326       0.14127718       0.01518085       0.00655290       0.14977794       0.01163534      -0.01417747      -0.05936685
Cu       7.70612374       5.13209916      17.25207757       0.00129664       0.00069129       0.14999115      -0.00026218       0.00039659       0.16038772       0.00299358      -0.02489113      -0.05644428
O        2.34342626       2.39077473      19.98918182       0.07691158      -0.03946241       0.10641679       0.00021914      -0.03227603       0.02367728       0.61003900      -0.13153548       0.43899564
C        2.52250280       3.28495314      18.99920514      -0.01629009      -0.06235920       0.06183853       0.00030506       0.00266658       0.05246448       0.17307126      -0.11827011       0.37329121
H        2.81425835       2.72121242      20.79007315      -0.05814996       0.10549829       0.07437929       0.00002645      -0.02224770       0.00040054      -0.38963545      -0.11412561      -0.53971457
O        2.71237034       4.49836523      19.25386497      -0.08165925      -0.04887792      -0.02132921       0.00061065      -0.01852806       0.04528921      -0.39117277       0.17033488       0.27082370
52
Lattice="10.26719046282867 0.0 0.0 0.0 7.700392847121503 0.0 0.0 0.0 27.347850919999996" Properties=species:S:1:pos:R:3:MACE_forces:R:3:forces:R:3:DFT_forces:R:3 method=neb MACE_energy=-207.42152801209292 energy=-207.65077670682652 stress="0.009273451154845076 -4.408335087359909e-07 -8.570739400643434e-07 -4.408335087359909e-07 0.008782818095491621 0.00016132177534819965 -8.570739400643434e-07 0.00016132177534819965 0.0011041063492616735" free_energy=-207.65077670682652 DFT_energy=-211.05013987 pbc="T T T"
Cu       1.28339881       1.28339881      11.83696273       0.00000000       0.00000000       0.00000000       0.00054538      -0.00039471       0.18436377      -0.00894735      -0.00233189       0.42333610
Cu       3.85019642       1.28339881      11.83696273       0.00000000       0.00000000       0.00000000      -0.00054435      -0.00039637       0.18436194       0.00662209      -0.00120330       0.43035211
Cu       6.41699404       1.28339881      11.83696273       0.00000000       0.00000000       0.00000000      -0.00092168       0.00050522       0.18406174      -0.03434211      -0.00088125       0.43640533
Cu       8.98379165       1.28339881      11.83696273       0.00000000       0.00000000       0.00000000       0.00092019       0.00050763       0.18406538       0.03790725      -0.00140218       0.43842986
Cu       1.28339881       3.85019642      11.83696273       0.00000000       0.00000000       0.00000000      -0.00021878       0.00035897       0.18264049      -0.00402618       0.00149235       0.42335324
Cu       3.85019642       3.85019642      11.83696273       0.00000000       0.00000000       0.00000000       0.00021921       0.00036050       0.18263518       0.00484461       0.00350051       0.42438342
Cu       6.41699404       3.85019642      11.83696273       0.00000000       0.00000000       0.00000000      -0.00125783      -0.00015504       0.18493269      -0.02843097       0.00377162       0.44551828
Cu       8.98379165       3.85019642      11.83696273       0.00000000       0.00000000       0.00000000       0.00125715      -0.00015804       0.18493761       0.02706736       0.00177404       0.44655244
Cu       1.28339881       6.41699404      11.83696273       0.00000000       0.00000000       0.00000000       0.00048783       0.00011282       0.18565408      -0.01015100       0.00013726       0.42604963
Cu       3.85019642       6.41699404      11.83696273       0.00000000       0.00000000       0.00000000      -0.00048421       0.00011340       0.18565294       0.01060568      -0.00386665       0.42292175
Cu       6.41699404       6.41699404      11.83696273       0.00000000       0.00000000       0.00000000      -0.00130941      -0.00031184       0.18548086      -0.03435516      -0.00575304       0.45566013
Cu       8.98379165       6.41699404      11.83696273       0.00000000       0.00000000       0.00000000       0.00130687      -0.00031181       0.18548192       0.03337073      -0.00266328       0.45270070
Cu       7.70039285      -0.00000000      13.67392546       0.00000000       0.00000000       0.00000000      -0.00000459      -0.00045606      -0.09168766       0.00150724       0.03057769      -0.16516661
Cu       5.13359523      -0.00000000      13.67392546       0.00000000       0.00000000       0.00000000       0.00207406       0.00029677      -0.09746935      -0.02331098      -0.00729490      -0.16900578
Cu       2.56679762      -0.00000000      13.67392546       0.00000000       0.00000000       0.00000000       0.00000433      -0.00228964      -0.10780673       0.00134221      -0.02775033      -0.19553137
Cu       0.00000000      -0.00000000      13.67392546       0.00000000       0.00000000       0.00000000      -0.00207021       0.00027594      -0.09749658       0.02109373      -0.01076246      -0.17026347
Cu       0.00000000       2.56679762      13.67392546       0.00000000       0.00000000       0.00000000      -0.00304513      -0.00059061      -0.09536655      -0.00326062       0.02343990      -0.15551235
Cu       2.56679762       2.56679762      13.67392546       0.00000000       0.00000000       0.00000000       0.00001226       0.00334251      -0.08396598       0.00165829       0.00921251      -0.09087233
Cu       5.13359523       2.56679762      13.67392546       0.00000000       0.00000000       0.00000000       0.00304599      -0.00059093      -0.09531575       0.00246418       0.02270223      -0.16181330
Cu       7.70039285       2.56679762      13.67392546       0.00000000       0.00000000       0.00000000      -0.00002425       0.00024596      -0.08998245      -0.00006844       0.02264591      -0.14106259
Cu       0.00000000       5.13359523      13.67392546       0.00000000       0.00000000       0.00000000      -0.00080031       0.00090274      -0.09244471       0.00783121      -0.01421335      -0.17597834
Cu       2.56679762       5.13359523      13.67392546       0.00000000       0.00000000       0.00000000       0.00001242      -0.00204136      -0.09676406      -0.00244937       0.00915433      -0.14349013
Cu       5.13359523       5.13359523      13.67392546       0.00000000       0.00000000       0.00000000       0.00079202       0.00088929      -0.09239408      -0.00994532      -0.01607998      -0.17661777
Cu       7.70039285       5.13359523      13.67392546       0.00000000       0.00000000       0.00000000       0.00000348       0.00040959      -0.09684921       0.00304233      -0.04919857      -0.16143326
Cu       1.28339881       1.28339881      15.51088819       0.00000000       0.00000000       0.00000000      -0.01469815       0.02191425      -0.29773629      -0.06589522      -0.04575392      -0.42323590
Cu       3.85019642       1.28339881      15.51088819       0.00000000       0.00000000       0.00000000       0.01499254       0.02181485      -0.29807164       0.03690442      -0.01794138      -0.38004588
Cu       6.41699404       1.28339881      15.51088819       0.00000000       0.00000000       0.00000000      -0.01079831       0.02366442      -0.24307168      -0.02753248       0.00106630      -0.16990269
Cu       8.98379165       1.28339881      15.51088819       0.00000000       0.00000000       0.00000000       0.01038163       0.02338985      -0.24330219       0.04452633       0.01573078      -0.15424426
Cu       1.28339881       3.85019642      15.51088819       0.00000000       0.00000000       0.00000000       0.08024732       0.04114655      -0.17708143       0.03133286       0.12518180      -0.31713702
Cu       3.85019642       3.85019642      15.51088819       0.00000000       0.00000000       0.00000000      -0.08001170       0.04148323      -0.17723043      -0.03747212       0.09783393      -0.28628896
Cu       6.41699404       3.85019642      15.51088819       0.00000000       0.00000000       0.00000000      -0.00735056      -0.04009830      -0.26373072      -0.04621425      -0.04148083      -0.18471793
Cu       8.98379165       3.85019642      15.51088819       0.00000000       0.00000000       0.00000000       0.00703189      -0.03992705      -0.26404419       0.06864901      -0.04935772      -0.17178801
Cu       1.28339881       6.41699404      15.51088819       0.00000000       0.00000000       0.00000000       0.02105574      -0.03744787      -0.23010730       0.10540611      -0.08620771      -0.14293879
Cu       3.85019642       6.41699404      15.51088819       0.00000000       0.00000000       0.00000000      -0.02090402      -0.03753925      -0.22991127      -0.09383553      -0.08141858      -0.15964273
Cu       6.41699404       6.41699404      15.51088819       0.00000000       0.00000000       0.00000000       0.02873606       0.03701477      -0.30287250       0.04585635       0.06773611      -0.26235973
Cu       8.98379165       6.41699404      15.51088819       0.00000000       0.00000000       0.00000000      -0.02833957       0.03686325      -0.30281928      -0.03883890       0.06568171      -0.25921337
Cu       7.70028979       7.69943731      17.25128470       0.00002290      -0.00133943       0.15114733      -0.00013841      -0.00094561       0.15977881      -0.00339807       0.01558581      -0.07448833
Cu       5.13292514       7.70579906      17.24950130       0.00772108      -0.00242901       0.14495644       0.00927879      -0.00311443       0.15181801       0.01194264       0.01301329      -0.07903540
Cu       2.56583465       7.69525650      17.24176321      -0.00008431      -0.02275333       0.14179504       0.00002791      -0.00636749       0.14183812       0.00238617      -0.02457361      -0.09062846
Cu      10.26712551       7.70714323      17.24940544      -0.00762925      -0.00140352       0.14512156      -0.00938203      -0.00309062       0.15173828      -0.01160537       0.00145393      -0.07682146
Cu      10.28150452       2.57587790      17.26953497      -0.00831297      -0.00202708       0.14607975      -0.01856196      -0.00269710       0.14567797      -0.13467206      -0.03171070      -0.16474813
Cu       2.55954616       2.51200395      17.21196953      -0.00332928      -0.03227781       0.16807280      -0.00035347       0.00022884       0.14079502      -0.02120791      -0.04713036       0.10691785
Cu       5.12509210       2.57168369      17.26292610       0.01212289      -0.00360541       0.14065488       0.01823756      -0.00265995       0.14584234       0.12285319      -0.03074018      -0.18542740
Cu       7.70233807       2.56710855      17.25090602       0.00063939      -0.00034941       0.14980030       0.00006068       0.00006862       0.16002041      -0.00148594      -0.00523004      -0.06477678
Cu      10.24291010       5.14781001      17.23180095      -0.01246759       0.00844930       0.14152325      -0.01563785       0.00650742       0.14977893      -0.04299041       0.00722336      -0.07983973
Cu       2.57095925       5.18384404      17.32313452       0.00118779      -0.04353904       0.18357686       0.00004552      -0.01739759       0.17396839       0.01449079       0.17158982      -0.16641378
Cu       5.16705416       5.14835729      17.22968122       0.01196323       0.00702014       0.14263023       0.01518085       0.00655290       0.14977794       0.01729870      -0.01320591      -0.06322599
Cu       7.70351603       5.13213242      17.25158757       0.00021069       0.00060681       0.15045461      -0.00026218       0.00039659       0.16038772       0.00081223      -0.02660938      -0.05399428
O        2.50485740       2.27351124      19.96391989       0.05111662       0.00007388       0.10287959       0.00021914      -0.03227603       0.02367728       0.48272321       0.02131038       0.40907827
C        2.54655357       3.20057674      18.99050570      -0.00289886      -0.01699778       0.07019826       0.00030506       0.00266658       0.05246448       0.18232598      -0.02570375       0.39088456
H        2.86993168       2.67129065      20.78832013      -0.05167452       0.10550198       0.07561346       0.00002645      -0.02224770       0.00040054      -0.33904693      -0.17561196      -0.47083598
O        2.62684782       4.42182964      19.26156975      -0.02683638      -0.01996579       0.00499151       0.00061065      -0.01852806       0.04528921      -0.30338219       0.11426163       0.25595461
52
Lattice="10.26719046282867 0.0 0.0 0.0 7.700392847121503 0.0 0.0 0.0 27.347850919999996" Properties=species:S:1:pos:R:3:MACE_forces:R:3:forces:R:3:DFT_forces:R:3 method=neb MACE_energy=-207.44182200206524 energy=-207.65077670682652 stress="0.009273451154845076 -4.408335087359909e-07 -8.570739400643434e-07 -4.408335087359909e-07 0.008782818095491621 0.00016132177534819965 -8.570739400643434e-07 0.00016132177534819965 0.0011041063492616735" free_energy=-207.65077670682652 DFT_energy=-211.11826094 pbc="T T T"
Cu       1.28339881       1.28339881      11.83696273       0.00000000       0.00000000       0.00000000       0.00054538      -0.00039471       0.18436377      -0.00903844      -0.00369723       0.42732575
Cu       3.85019642       1.28339881      11.83696273       0.00000000       0.00000000       0.00000000      -0.00054435      -0.00039637       0.18436194       0.00855640      -0.00202103       0.42679540
Cu       6.41699404       1.28339881      11.83696273       0.00000000       0.00000000       0.00000000      -0.00092168       0.00050522       0.18406174      -0.03694915       0.00081898       0.43794930
Cu       8.98379165       1.28339881      11.83696273       0.00000000       0.00000000       0.00000000       0.00092019       0.00050763       0.18406538       0.03691926      -0.00107068       0.43802789
Cu       1.28339881       3.85019642      11.83696273       0.00000000       0.00000000       0.00000000      -0.00021878       0.00035897       0.18264049      -0.00545373       0.00582558       0.42529569
Cu       3.85019642       3.85019642      11.83696273       0.00000000       0.00000000       0.00000000       0.00021921       0.00036050       0.18263518       0.00572018       0.00498555       0.42522406
Cu       6.41699404       3.85019642      11.83696273       0.00000000       0.00000000       0.00000000      -0.00125783      -0.00015504       0.18493269      -0.02829688       0.00331643       0.44641783
Cu       8.98379165       3.85019642      11.83696273       0.00000000       0.00000000       0.00000000       0.00125715      -0.00015804       0.18493761       0.02785581       0.00420424       0.44733527
Cu       1.28339881       6.41699404      11.83696273       0.00000000       0.00000000       0.00000000       0.00048783       0.00011282       0.18565408      -0.01051535      -0.00224049       0.42458777
Cu       3.85019642       6.41699404      11.83696273       0.00000000       0.00000000       0.00000000      -0.00048421       0.00011340       0.18565294       0.01105721      -0.00254890       0.42603052
Cu       6.41699404       6.41699404      11.83696273       0.00000000       0.00000000       0.00000000      -0.00130941      -0.00031184       0.18548086      -0.03434279      -0.00595956       0.45442949
Cu       8.98379165       6.41699404      11.83696273       0.00000000       0.00000000       0.00000000       0.00130687      -0.00031181       0.18548192       0.03412983      -0.00500830       0.45594004
Cu       7.70039285      -0.00000000      13.67392546       0.00000000       0.00000000       0.00000000      -0.00000459      -0.00045606      -0.09168766      -0.00251920       0.03064416      -0.16572728
Cu       5.13359523      -0.00000000      13.67392546       0.00000000       0.00000000       0.00000000       0.00207406       0.00029677      -0.09746935      -0.02361861      -0.00912099      -0.16988488
Cu       2.56679762      -0.00000000      13.67392546       0.00000000       0.00000000       0.00000000       0.00000433      -0.00228964      -0.10780673       0.00159978      -0.02307340      -0.19808822
Cu       0.00000000      -0.00000000      13.67392546       0.00000000       0.00000000       0.00000000      -0.00207021       0.00027594      -0.09749658       0.02500882      -0.00724283      -0.16856276
Cu       0.00000000       2.56679762      13.67392546       0.00000000       0.00000000       0.00000000      -0.00304513      -0.00059061      -0.09536655      -0.00012939       0.02317578      -0.15825800
Cu       2.56679762       2.56679762      13.67392546       0.00000000       0.00000000       0.00000000       0.00001226       0.00334251      -0.08396598      -0.00041995       0.00775169      -0.09063386
Cu       5.13359523       2.56679762      13.67392546       0.00000000       0.00000000       0.00000000       0.00304599      -0.00059093      -0.09531575      -0.00066828       0.02368953      -0.15661484
Cu       7.70039285       2.56679762      13.67392546       0.00000000       0.00000000       0.00000000      -0.00002425       0.00024596      -0.08998245      -0.00003716       0.02145397      -0.14367199
Cu       0.00000000       5.13359523      13.67392546       0.00000000       0.00000000       0.00000000      -0.00080031       0.00090274      -0.09244471       0.00741790      -0.01595274      -0.18003128
Cu       2.56679762       5.13359523      13.67392546       0.00000000       0.00000000       0.00000000       0.00001242      -0.00204136      -0.09676406      -0.00070177       0.00679448      -0.14117720
Cu       5.13359523       5.13359523      13.67392546       0.00000000       0.00000000       0.00000000       0.00079202       0.00088929      -0.09239408      -0.00834871      -0.01472122      -0.17890762
Cu       7.70039285       5.13359523      13.67392546       0.00000000       0.00000000       0.00000000       0.00000348       0.00040959      -0.09684921       0.00196628      -0.04671588      -0.16228805
Cu       1.28339881       1.28339881      15.51088819       0.00000000       0.00000000       0.00000000      -0.01469815       0.02191425      -0.29773629      -0.01801991      -0.00127470      -0.35877193
Cu       3.85019642       1.28339881      15.51088819       0.00000000       0.00000000       0.00000000       0.01499254       0.02181485      -0.29807164       0.02626216      -0.00518441      -0.36511258
Cu       6.41699404       1.28339881      15.51088819       0.00000000       0.00000000       0.00000000      -0.01079831       0.02366442      -0.24307168      -0.03566144       0.01166608      -0.16121233
Cu       8.98379165       1.28339881      15.51088819       0.00000000       0.00000000       0.00000000       0.01038163       0.02338985      -0.24330219       0.02955956       0.00490775      -0.16624665
Cu       1.28339881       3.85019642      15.51088819       0.00000000       0.00000000       0.00000000       0.08024732       0.04114655      -0.17708143       0.03074279       0.09922460      -0.30545781
Cu       3.85019642       3.85019642      15.51088819       0.00000000       0.00000000       0.00000000      -0.08001170       0.04148323      -0.17723043      -0.03159034       0.10023296      -0.31205227
Cu       6.41699404       3.85019642      15.51088819       0.00000000       0.00000000       0.00000000      -0.00735056      -0.04009830      -0.26373072      -0.05741879      -0.04763599      -0.18072397
Cu       8.98379165       3.85019642      15.51088819       0.00000000       0.00000000       0.00000000       0.00703189      -0.03992705      -0.26404419       0.05076884      -0.04241198      -0.18453614
Cu       1.28339881       6.41699404      15.51088819       0.00000000       0.00000000       0.00000000       0.02105574      -0.03744787      -0.23010730       0.08263982      -0.06707430      -0.18130686
Cu       3.85019642       6.41699404      15.51088819       0.00000000       0.00000000       0.00000000      -0.02090402      -0.03753925      -0.22991127      -0.07645098      -0.06343213      -0.18496090
Cu       6.41699404       6.41699404      15.51088819       0.00000000       0.00000000       0.00000000       0.02873606       0.03701477      -0.30287250       0.04699566       0.07050729      -0.26319516
Cu       8.98379165       6.41699404      15.51088819       0.00000000       0.00000000       0.00000000      -0.02833957       0.03686325      -0.30281928      -0.03795264       0.06844964      -0.26018719
Cu       7.70297947       7.69562791      17.25126587      -0.00400505       0.00431966       0.15175859      -0.00013841      -0.00094561       0.15977881      -0.00368320       0.01965573      -0.07530701
Cu       5.13620578       7.71131538      17.24917203       0.00286930      -0.00825587       0.14563126       0.00927879      -0.00311443       0.15181801       0.00728111       0.00277903      -0.07809565
Cu       2.56945550       7.69635028      17.24130427      -0.00491392       0.01320097       0.13849540       0.00002791      -0.00636749       0.14183812      -0.00562321       0.01219804      -0.09604297
Cu      10.26989978       7.71019096      17.24912317      -0.01149962      -0.00776175       0.14620038      -0.00938203      -0.00309062       0.15173828      -0.01252971       0.00671965      -0.07565791
Cu      10.27415145       2.57796683      17.26314821      -0.00728083      -0.00951218       0.14709844      -0.01856196      -0.00269710       0.14567797      -0.11985733      -0.04414591      -0.16311348
Cu       2.56409929       2.51919170      17.22919893      -0.00145669      -0.01925128       0.15046383      -0.00035347       0.00022884       0.14079502      -0.00256477      -0.03937915       0.03270338
Cu       5.11986647       2.57902437      17.26636253       0.00929438      -0.01071667       0.14475660       0.01823756      -0.00265995       0.14584234       0.13551372      -0.04296458      -0.17733342
Cu       7.69791761       2.56327627      17.25057494       0.00181927       0.00525882       0.15079763       0.00006068       0.00006862       0.16002041      -0.00206501      -0.00150829      -0.06403564
Cu      10.23751041       5.15082514      17.23091767      -0.01302730       0.00262585       0.14126827      -0.01563785       0.00650742       0.14977893      -0.03175064      -0.00740872      -0.07457580
Cu       2.56586123       5.18754559      17.30120111       0.00211859      -0.01445272       0.20680626       0.00004552      -0.01739759       0.17396839      -0.00490895       0.19488811      -0.13804125
Cu       5.16581914       5.15256945      17.22943121       0.01465371       0.00275148       0.14085295       0.01518085       0.00655290       0.14977794       0.02623600      -0.00759378      -0.06707471
Cu       7.70105905       5.12823894      17.25188632       0.00097721       0.00636127       0.15092897      -0.00026218       0.00039659       0.16038772       0.00118328      -0.02001185      -0.05428399
O        2.60399981       2.35094448      19.96850372       0.01701704      -0.00445119       0.13561130       0.00021914      -0.03227603       0.02367728       0.10508225       0.10357577       0.48251616
C        2.60087222       3.26701748      18.98843147       0.00244727      -0.06628782       0.07204986       0.00030506       0.00266658       0.05246448       0.05719927      -0.06428359       0.36122143
H        2.66160246       2.82061262      20.83283652      -0.01106470       0.08099571       0.07881427       0.00002645      -0.02224770       0.00040054      -0.10369932      -0.30009533      -0.41929091
O        2.60017838       4.49368990      19.25404677      -0.00224141      -0.06132175      -0.02026743       0.00061065      -0.01852806       0.04528921      -0.05488026       0.06631293       0.20866253
52
Lattice="10.26719046282867 0.0 0.0 0.0 7.700392847121503 0.0 0.0 0.0 27.347850919999996" Properties=species:S:1:pos:R:3:MACE_forces:R:3:forces:R:3:DFT_forces:R:3 method=neb MACE_energy=-207.45808125874578 energy=-207.65077670682652 stress="0.009273451154845076 -4.408335087359909e-07 -8.570739400643434e-07 -4.408335087359909e-07 0.008782818095491621 0.00016132177534819965 -8.570739400643434e-07 0.00016132177534819965 0.0011041063492616735" free_energy=-207.65077670682652 DFT_energy=-211.14959442 pbc="T T T"
Cu       1.28339881       1.28339881      11.83696273       0.00000000       0.00000000       0.00000000       0.00054538      -0.00039471       0.18436377      -0.00901822      -0.00204678       0.42632215
Cu       3.85019642       1.28339881      11.83696273       0.00000000       0.00000000       0.00000000      -0.00054435      -0.00039637       0.18436194       0.00880636      -0.00010835       0.42457570
Cu       6.41699404       1.28339881      11.83696273       0.00000000       0.00000000       0.00000000      -0.00092168       0.00050522       0.18406174      -0.03881406       0.00234635       0.43801775
Cu       8.98379165       1.28339881      11.83696273       0.00000000       0.00000000       0.00000000       0.00092019       0.00050763       0.18406538       0.03824069       0.00026889       0.43774525
Cu       1.28339881       3.85019642      11.83696273       0.00000000       0.00000000       0.00000000      -0.00021878       0.00035897       0.18264049      -0.00517552       0.00333716       0.42601902
Cu       3.85019642       3.85019642      11.83696273       0.00000000       0.00000000       0.00000000       0.00021921       0.00036050       0.18263518       0.00553790       0.00139671       0.42622445
Cu       6.41699404       3.85019642      11.83696273       0.00000000       0.00000000       0.00000000      -0.00125783      -0.00015504       0.18493269      -0.02899142       0.00019618       0.44685267
Cu       8.98379165       3.85019642      11.83696273       0.00000000       0.00000000       0.00000000       0.00125715      -0.00015804       0.18493761       0.02910289       0.00195417       0.44805852
Cu       1.28339881       6.41699404      11.83696273       0.00000000       0.00000000       0.00000000       0.00048783       0.00011282       0.18565408      -0.01064120      -0.00135286       0.42470600
Cu       3.85019642       6.41699404      11.83696273       0.00000000       0.00000000       0.00000000      -0.00048421       0.00011340       0.18565294       0.01112540      -0.00066241       0.42684278
Cu       6.41699404       6.41699404      11.83696273       0.00000000       0.00000000       0.00000000      -0.00130941      -0.00031184       0.18548086      -0.03681793      -0.00348394       0.45613665
Cu       8.98379165       6.41699404      11.83696273       0.00000000       0.00000000       0.00000000       0.00130687      -0.00031181       0.18548192       0.03708436      -0.00320250       0.45814327
Cu       7.70039285      -0.00000000      13.67392546       0.00000000       0.00000000       0.00000000      -0.00000459      -0.00045606      -0.09168766      -0.00296887       0.02514977      -0.16607308
Cu       5.13359523      -0.00000000      13.67392546       0.00000000       0.00000000       0.00000000       0.00207406       0.00029677      -0.09746935      -0.02464637      -0.01054283      -0.17226596
Cu       2.56679762      -0.00000000      13.67392546       0.00000000       0.00000000       0.00000000       0.00000433      -0.00228964      -0.10780673       0.00160047      -0.02213924      -0.19819054
Cu       0.00000000      -0.00000000      13.67392546       0.00000000       0.00000000       0.00000000      -0.00207021       0.00027594      -0.09749658       0.02649612      -0.00758531      -0.17104112
Cu       0.00000000       2.56679762      13.67392546       0.00000000       0.00000000       0.00000000      -0.00304513      -0.00059061      -0.09536655       0.00082344       0.02628872      -0.16039334
Cu       2.56679762       2.56679762      13.67392546       0.00000000       0.00000000       0.00000000       0.00001226       0.00334251      -0.08396598      -0.00044730       0.01019646      -0.09207365
Cu       5.13359523       2.56679762      13.67392546       0.00000000       0.00000000       0.00000000       0.00304599      -0.00059093      -0.09531575      -0.00165387       0.02724551      -0.15725965
Cu       7.70039285       2.56679762      13.67392546       0.00000000       0.00000000       0.00000000      -0.00002425       0.00024596      -0.08998245      -0.00007922       0.02745741      -0.14660198
Cu       0.00000000       5.13359523      13.67392546       0.00000000       0.00000000       0.00000000      -0.00080031       0.00090274      -0.09244471       0.00965904      -0.01812618      -0.17931948
Cu       2.56679762       5.13359523      13.67392546       0.00000000       0.00000000       0.00000000       0.00001242      -0.00204136      -0.09676406      -0.00006777       0.00472667      -0.13918796
Cu       5.13359523       5.13359523      13.67392546       0.00000000       0.00000000       0.00000000       0.00079202       0.00088929      -0.09239408      -0.00992387      -0.01644993      -0.17766332
Cu       7.70039285       5.13359523      13.67392546       0.00000000       0.00000000       0.00000000       0.00000348       0.00040959      -0.09684921       0.00178447      -0.04779678      -0.16208953
Cu       1.28339881       1.28339881      15.51088819       0.00000000       0.00000000       0.00000000      -0.01469815       0.02191425      -0.29773629      -0.00797266      -0.00903767      -0.36020065
Cu       3.85019642       1.28339881      15.51088819       0.00000000       0.00000000       0.00000000       0.01499254       0.02181485      -0.29807164       0.02827971      -0.01838989      -0.37465496
Cu       6.41699404       1.28339881      15.51088819       0.00000000       0.00000000       0.00000000      -0.01079831       0.02366442      -0.24307168      -0.03514849       0.01383635      -0.16096894
Cu       8.98379165       1.28339881      15.51088819       0.00000000       0.00000000       0.00000000       0.01038163       0.02338985      -0.24330219       0.03196152       0.00340677      -0.16764647
Cu       1.28339881       3.85019642      15.51088819       0.00000000       0.00000000       0.00000000       0.08024732       0.04114655      -0.17708143       0.05693546       0.04706359      -0.27046840
Cu       3.85019642       3.85019642      15.51088819       0.00000000       0.00000000       0.00000000      -0.08001170       0.04148323      -0.17723043      -0.05652535       0.05239536      -0.28432729
Cu       6.41699404       3.85019642      15.51088819       0.00000000       0.00000000       0.00000000      -0.00735056      -0.04009830      -0.26373072      -0.06685481      -0.05753678      -0.17542552
Cu       8.98379165       3.85019642      15.51088819       0.00000000       0.00000000       0.00000000       0.00703189      -0.03992705      -0.26404419       0.05362185      -0.04933285      -0.18253282
Cu       1.28339881       6.41699404      15.51088819       0.00000000       0.00000000       0.00000000       0.02105574      -0.03744787      -0.23010730       0.08135570      -0.06132784      -0.19701164
Cu       3.85019642       6.41699404      15.51088819       0.00000000       0.00000000       0.00000000      -0.02090402      -0.03753925      -0.22991127      -0.06800661      -0.05872323      -0.19953487
Cu       6.41699404       6.41699404      15.51088819       0.00000000       0.00000000       0.00000000       0.02873606       0.03701477      -0.30287250       0.05099540       0.07773304      -0.26539468
Cu       8.98379165       6.41699404      15.51088819       0.00000000       0.00000000       0.00000000      -0.02833957       0.03686325      -0.30281928      -0.03398042       0.07571420      -0.26259833
Cu       7.70673192       7.69053036      17.25100704      -0.01036156       0.01196899       0.15313603      -0.00013841      -0.00094561       0.15977881      -0.00895804       0.02407739      -0.07516757
Cu       5.13957723       7.71653482      17.24923166      -0.00284467      -0.01588320       0.14596646       0.00927879      -0.00311443       0.15181801       0.00373774      -0.00971300      -0.07808353
Cu       2.57358905       7.68050279      17.24505960      -0.01110221       0.01420254       0.13973302       0.00002791      -0.00636749       0.14183812      -0.01031524       0.00640673      -0.11040968
Cu      10.27431119       7.71523390      17.24924504      -0.01812469      -0.01490170       0.14617738      -0.00938203      -0.00309062       0.15173828      -0.01905304      -0.00193425      -0.07582076
Cu      10.27448795       2.58125292      17.26427011      -0.01168242      -0.01535244       0.14284690      -0.01856196      -0.00269710       0.14567797      -0.12524048      -0.04410103      -0.17050221
Cu       2.56424660       2.47729812      17.24811510       0.00294359       0.02583410       0.17027023      -0.00035347       0.00022884       0.14079502       0.00648474       0.03668899       0.05112676
Cu       5.11633244       2.58242509      17.26907987       0.01344279      -0.01564560       0.14272791       0.01823756      -0.00265995       0.14584234       0.14621206      -0.03999040      -0.18140256
Cu       7.69667903       2.55865130      17.25009484       0.00227599       0.01278436       0.15225387       0.00006068       0.00006862       0.16002041      -0.00142544       0.00728473      -0.06249106
Cu      10.23523932       5.15605951      17.22958844      -0.01127156      -0.00563631       0.14420774      -0.01563785       0.00650742       0.14977893      -0.02209932      -0.01998763      -0.06669907
Cu       2.56558385       5.17353224      17.28983465       0.00103402      -0.00184103       0.19696536       0.00004552      -0.01739759       0.17396839      -0.00902250       0.20346017      -0.14728434
Cu       5.16746756       5.15767742      17.22834592       0.01106581      -0.00592056       0.14375752       0.01518085       0.00655290       0.14977794       0.01764820      -0.01824555      -0.06054840
Cu       7.70094351       5.12308213      17.25173448       0.00019368       0.01415853       0.15277381      -0.00026218       0.00039659       0.16038772       0.00021191      -0.00949487      -0.05201609
O        2.61162623       2.39242383      20.04104952       0.00648844      -0.01013942       0.03821208       0.00021914      -0.03227603       0.02367728       0.01237529       0.14176999       0.42547399
C        2.60621600       3.23908676      19.00185442       0.00196439       0.01023580       0.09956071       0.00030506       0.00266658       0.05246448       0.01624425      -0.03039577       0.41396360
H        2.60124931       2.93340033      20.86713698       0.00128027       0.00963996       0.05332526       0.00002645      -0.02224770       0.00040054      -0.04954900      -0.25657487      -0.35764803
O        2.59317570       4.48047425      19.20783642      -0.00011085      -0.00334307       0.04814861       0.00061065      -0.01852806       0.04528921       0.00707206      -0.00211857       0.13078893
52
Lattice="10.26719046282867 0.0 0.0 0.0 7.700392847121503 0.0 0.0 0.0 27.347850919999996" Properties=species:S:1:pos:R:3:MACE_forces:R:3:forces:R:3:DFT_forces:R:3 method=neb MACE_energy=-207.45088919790223 energy=-207.65077670682652 stress="0.009273451154845076 -4.408335087359909e-07 -8.570739400643434e-07 -4.408335087359909e-07 0.008782818095491621 0.00016132177534819965 -8.570739400643434e-07 0.00016132177534819965 0.0011041063492616735" free_energy=-207.65077670682652 DFT_energy=-211.10854134 pbc="T T T"
Cu       1.28339881       1.28339881      11.83696273       0.00000000       0.00000000       0.00000000       0.00054538      -0.00039471       0.18436377      -0.00891471      -0.00130313       0.42429957
Cu       3.85019642       1.28339881      11.83696273       0.00000000       0.00000000       0.00000000      -0.00054435      -0.00039637       0.18436194       0.00833463      -0.00000865       0.42476454
Cu       6.41699404       1.28339881      11.83696273       0.00000000       0.00000000       0.00000000      -0.00092168       0.00050522       0.18406174      -0.03796680       0.00213073       0.43764806
Cu       8.98379165       1.28339881      11.83696273       0.00000000       0.00000000       0.00000000       0.00092019       0.00050763       0.18406538       0.03899105       0.00061815       0.43762830
Cu       1.28339881       3.85019642      11.83696273       0.00000000       0.00000000       0.00000000      -0.00021878       0.00035897       0.18264049      -0.00524796       0.00252510       0.42482017
Cu       3.85019642       3.85019642      11.83696273       0.00000000       0.00000000       0.00000000       0.00021921       0.00036050       0.18263518       0.00536278       0.00080415       0.42610418
Cu       6.41699404       3.85019642      11.83696273       0.00000000       0.00000000       0.00000000      -0.00125783      -0.00015504       0.18493269      -0.02860643       0.00072051       0.44611676
Cu       8.98379165       3.85019642      11.83696273       0.00000000       0.00000000       0.00000000       0.00125715      -0.00015804       0.18493761       0.02931583       0.00141794       0.44727689
Cu       1.28339881       6.41699404      11.83696273       0.00000000       0.00000000       0.00000000       0.00048783       0.00011282       0.18565408      -0.01083849      -0.00132159       0.42542249
Cu       3.85019642       6.41699404      11.83696273       0.00000000       0.00000000       0.00000000      -0.00048421       0.00011340       0.18565294       0.01065415      -0.00043611       0.42535718
Cu       6.41699404       6.41699404      11.83696273       0.00000000       0.00000000       0.00000000      -0.00130941      -0.00031184       0.18548086      -0.03718466      -0.00397475       0.45819507
Cu       8.98379165       6.41699404      11.83696273       0.00000000       0.00000000       0.00000000       0.00130687      -0.00031181       0.18548192       0.03739391      -0.00312308       0.45640632
Cu       7.70039285      -0.00000000      13.67392546       0.00000000       0.00000000       0.00000000      -0.00000459      -0.00045606      -0.09168766      -0.00083483       0.02442333      -0.16597018
Cu       5.13359523      -0.00000000      13.67392546       0.00000000       0.00000000       0.00000000       0.00207406       0.00029677      -0.09746935      -0.02543793      -0.00912955      -0.17195431
Cu       2.56679762      -0.00000000      13.67392546       0.00000000       0.00000000       0.00000000       0.00000433      -0.00228964      -0.10780673       0.00105695      -0.02153124      -0.19775189
Cu       0.00000000      -0.00000000      13.67392546       0.00000000       0.00000000       0.00000000      -0.00207021       0.00027594      -0.09749658       0.02532442      -0.00895350      -0.17113486
Cu       0.00000000       2.56679762      13.67392546       0.00000000       0.00000000       0.00000000      -0.00304513      -0.00059061      -0.09536655       0.00156160       0.02613052      -0.15819308
Cu       2.56679762       2.56679762      13.67392546       0.00000000       0.00000000       0.00000000       0.00001226       0.00334251      -0.08396598      -0.00007816       0.01048449      -0.09246653
Cu       5.13359523       2.56679762      13.67392546       0.00000000       0.00000000       0.00000000       0.00304599      -0.00059093      -0.09531575      -0.00169623       0.02777036      -0.15915161
Cu       7.70039285       2.56679762      13.67392546       0.00000000       0.00000000       0.00000000      -0.00002425       0.00024596      -0.08998245       0.00074482       0.02753684      -0.14675958
Cu       0.00000000       5.13359523      13.67392546       0.00000000       0.00000000       0.00000000      -0.00080031       0.00090274      -0.09244471       0.00957348      -0.01702926      -0.17936864
Cu       2.56679762       5.13359523      13.67392546       0.00000000       0.00000000       0.00000000       0.00001242      -0.00204136      -0.09676406      -0.00052779       0.00413472      -0.13887740
Cu       5.13359523       5.13359523      13.67392546       0.00000000       0.00000000       0.00000000       0.00079202       0.00088929      -0.09239408      -0.01104831      -0.01800603      -0.17685213
Cu       7.70039285       5.13359523      13.67392546       0.00000000       0.00000000       0.00000000       0.00000348       0.00040959      -0.09684921       0.00269513      -0.04746006      -0.16216034
Cu       1.28339881       1.28339881      15.51088819       0.00000000       0.00000000       0.00000000      -0.01469815       0.02191425      -0.29773629      -0.00472331      -0.00204083      -0.35429679
Cu       3.85019642       1.28339881      15.51088819       0.00000000       0.00000000       0.00000000       0.01499254       0.02181485      -0.29807164       0.00195534       0.00950578      -0.33595053
Cu       6.41699404       1.28339881      15.51088819       0.00000000       0.00000000       0.00000000      -0.01079831       0.02366442      -0.24307168      -0.03306966       0.00967468      -0.16298743
Cu       8.98379165       1.28339881      15.51088819       0.00000000       0.00000000       0.00000000       0.01038163       0.02338985      -0.24330219       0.03487264       0.00895588      -0.16172405
Cu       1.28339881       3.85019642      15.51088819       0.00000000       0.00000000       0.00000000       0.08024732       0.04114655      -0.17708143       0.06387887       0.04606461      -0.26809191
Cu       3.85019642       3.85019642      15.51088819       0.00000000       0.00000000       0.00000000      -0.08001170       0.04148323      -0.17723043      -0.07354256       0.03481582      -0.25065570
Cu       6.41699404       3.85019642      15.51088819       0.00000000       0.00000000       0.00000000      -0.00735056      -0.04009830      -0.26373072      -0.06078847      -0.05373829      -0.17869108
Cu       8.98379165       3.85019642      15.51088819       0.00000000       0.00000000       0.00000000       0.00703189      -0.03992705      -0.26404419       0.05844908      -0.05335143      -0.17750713
Cu       1.28339881       6.41699404      15.51088819       0.00000000       0.00000000       0.00000000       0.02105574      -0.03744787      -0.23010730       0.08446245      -0.06336252      -0.18964444
Cu       3.85019642       6.41699404      15.51088819       0.00000000       0.00000000       0.00000000      -0.02090402      -0.03753925      -0.22991127      -0.07333158      -0.05773880      -0.19377113
Cu       6.41699404       6.41699404      15.51088819       0.00000000       0.00000000       0.00000000       0.02873606       0.03701477      -0.30287250       0.04779449       0.07768205      -0.26220359
Cu       8.98379165       6.41699404      15.51088819       0.00000000       0.00000000       0.00000000      -0.02833957       0.03686325      -0.30281928      -0.03531927       0.07410141      -0.26011590
Cu       7.70445854       7.69357529      17.25134261      -0.00621773       0.00740028       0.15123417      -0.00013841      -0.00094561       0.15977881      -0.00701239       0.01924625      -0.07657970
Cu       5.13700905       7.71355900      17.24965176       0.00056010      -0.01120698       0.14495548       0.00927879      -0.00311443       0.15181801       0.00689901      -0.00278975      -0.07931491
Cu       2.57077682       7.68514992      17.24550729      -0.00720122       0.00699407       0.13688181       0.00002791      -0.00636749       0.14183812      -0.00629813      -0.00112338      -0.11083474
Cu      10.27170915       7.71218595      17.24908305      -0.01407078      -0.01055487       0.14509320      -0.00938203      -0.00309062       0.15173828      -0.01402063       0.00239124      -0.07347315
Cu      10.27666548       2.57896744      17.26595195      -0.00675873      -0.00893283       0.14872172      -0.01856196      -0.00269710       0.14567797      -0.12774568      -0.04214261      -0.15624503
Cu       2.55922652       2.48204800      17.26198519      -0.01721374      -0.01216483       0.09976981      -0.00035347       0.00022884       0.14079502      -0.03015887       0.00126978      -0.00093939
Cu       5.11859204       2.57890478      17.26850938       0.01789098      -0.01376524       0.13219112       0.01823756      -0.00265995       0.14584234       0.13775516      -0.03333014      -0.19749922
Cu       7.69766439       2.56171133      17.25043450       0.00545000       0.00797378       0.14984260       0.00006068       0.00006862       0.16002041       0.00001726       0.00271958      -0.06359087
Cu      10.23632359       5.15257170      17.23020263      -0.00972456      -0.00230407       0.14296455      -0.01563785       0.00650742       0.14977893      -0.02813924      -0.00727519      -0.07134733
Cu       2.56449436       5.17761684      17.29333720       0.00086439      -0.01208805       0.18643492       0.00004552      -0.01739759       0.17396839       0.00409085       0.19150929      -0.15886257
Cu       5.16805873       5.15502742      17.22843710       0.01158710      -0.00187589       0.14169537       0.01518085       0.00655290       0.14977794       0.01260830      -0.02057556      -0.05909736
Cu       7.70134930       5.12618543      17.25216943       0.00237250       0.00943628       0.15048768      -0.00026218       0.00039659       0.16038772       0.00088441      -0.01418504      -0.05384356
O        2.65268533       2.39993619      20.06108108       0.05173741      -0.02654836       0.00750623       0.00021914      -0.03227603       0.02367728       0.45400978       0.09397033       0.35933588
C        2.59684427       3.23993795      19.01649367       0.01684425       0.02464213       0.06116785       0.00030506       0.00266658       0.05246448       0.20202192      -0.02636344       0.44450686
H        2.96273447       2.91859397      20.84137627      -0.05581836       0.03154282       0.09495919       0.00002645      -0.02224770       0.00040054      -0.33099714      -0.22169258      -0.44055800
O        2.60182442       4.48293067      19.20906287       0.00013610       0.00580749       0.08268034       0.00061065      -0.01852806       0.04528921      -0.28717907       0.03138296       0.22058381
52
Lattice="10.26719046282867 0.0 0.0 0.0 7.700392847121503 0.0 0.0 0.0 27.347850919999996" Properties=species:S:1:pos:R:3:MACE_forces:R:3:forces:R:3:DFT_forces:R:3 method=neb MACE_energy=-207.424270548605 energy=-207.65077670682652 stress="0.009273451154845076 -4.408335087359909e-07 -8.570739400643434e-07 -4.408335087359909e-07 0.008782818095491621 0.00016132177534819965 -8.570739400643434e-07 0.00016132177534819965 0.0011041063492616735" free_energy=-207.65077670682652 DFT_energy=-211.05111533 pbc="T T T"
Cu       1.28339881       1.28339881      11.83696273       0.00000000       0.00000000       0.00000000       0.00054538      -0.00039471       0.18436377      -0.00917386      -0.00148720       0.42511472
Cu       3.85019642       1.28339881      11.83696273       0.00000000       0.00000000       0.00000000      -0.00054435      -0.00039637       0.18436194       0.00800295      -0.00074639       0.42777406
Cu       6.41699404       1.28339881      11.83696273       0.00000000       0.00000000       0.00000000      -0.00092168       0.00050522       0.18406174      -0.03718038       0.00135861       0.43861329
Cu       8.98379165       1.28339881      11.83696273       0.00000000       0.00000000       0.00000000       0.00092019       0.00050763       0.18406538       0.03960816       0.00038247       0.43849025
Cu       1.28339881       3.85019642      11.83696273       0.00000000       0.00000000       0.00000000      -0.00021878       0.00035897       0.18264049      -0.00488411       0.00248726       0.42543638
Cu       3.85019642       3.85019642      11.83696273       0.00000000       0.00000000       0.00000000       0.00021921       0.00036050       0.18263518       0.00435598       0.00157690       0.42762740
Cu       6.41699404       3.85019642      11.83696273       0.00000000       0.00000000       0.00000000      -0.00125783      -0.00015504       0.18493269      -0.02809827       0.00177748       0.44763410
Cu       8.98379165       3.85019642      11.83696273       0.00000000       0.00000000       0.00000000       0.00125715      -0.00015804       0.18493761       0.02878230       0.00132224       0.44861315
Cu       1.28339881       6.41699404      11.83696273       0.00000000       0.00000000       0.00000000       0.00048783       0.00011282       0.18565408      -0.01112708      -0.00107947       0.42808809
Cu       3.85019642       6.41699404      11.83696273       0.00000000       0.00000000       0.00000000      -0.00048421       0.00011340       0.18565294       0.01032861      -0.00094434       0.42553601
Cu       6.41699404       6.41699404      11.83696273       0.00000000       0.00000000       0.00000000      -0.00130941      -0.00031184       0.18548086      -0.03736307      -0.00459727       0.45951608
Cu       8.98379165       6.41699404      11.83696273       0.00000000       0.00000000       0.00000000       0.00130687      -0.00031181       0.18548192       0.03717400      -0.00295081       0.45478204
Cu       7.70039285      -0.00000000      13.67392546       0.00000000       0.00000000       0.00000000      -0.00000459      -0.00045606      -0.09168766       0.00152346       0.02466555      -0.16623960
Cu       5.13359523      -0.00000000      13.67392546       0.00000000       0.00000000       0.00000000       0.00207406       0.00029677      -0.09746935      -0.02593926      -0.00808868      -0.17173013
Cu       2.56679762      -0.00000000      13.67392546       0.00000000       0.00000000       0.00000000       0.00000433      -0.00228964      -0.10780673       0.00060867      -0.02182080      -0.19915092
Cu       0.00000000      -0.00000000      13.67392546       0.00000000       0.00000000       0.00000000      -0.00207021       0.00027594      -0.09749658       0.02376397      -0.01008083      -0.17197843
Cu       0.00000000       2.56679762      13.67392546       0.00000000       0.00000000       0.00000000      -0.00304513      -0.00059061      -0.09536655       0.00015597       0.02534193      -0.15671924
Cu       2.56679762       2.56679762      13.67392546       0.00000000       0.00000000       0.00000000       0.00001226       0.00334251      -0.08396598       0.00048069       0.00873503      -0.09271152
Cu       5.13359523       2.56679762      13.67392546       0.00000000       0.00000000       0.00000000       0.00304599      -0.00059093      -0.09531575      -0.00003870       0.02710295      -0.16201631
Cu       7.70039285       2.56679762      13.67392546       0.00000000       0.00000000       0.00000000      -0.00002425       0.00024596      -0.08998245       0.00075563       0.02726928      -0.14591353
Cu       0.00000000       5.13359523      13.67392546       0.00000000       0.00000000       0.00000000      -0.00080031       0.00090274      -0.09244471       0.00828807      -0.01582796      -0.17879554
Cu       2.56679762       5.13359523      13.67392546       0.00000000       0.00000000       0.00000000       0.00001242      -0.00204136      -0.09676406      -0.00145101       0.00565056      -0.13830044
Cu       5.13359523       5.13359523      13.67392546       0.00000000       0.00000000       0.00000000       0.00079202       0.00088929      -0.09239408      -0.01059261      -0.01849652      -0.17706948
Cu       7.70039285       5.13359523      13.67392546       0.00000000       0.00000000       0.00000000       0.00000348       0.00040959      -0.09684921       0.00274105      -0.04727329      -0.16159602
Cu       1.28339881       1.28339881      15.51088819       0.00000000       0.00000000       0.00000000      -0.01469815       0.02191425      -0.29773629      -0.04730419      -0.04312356      -0.41186485
Cu       3.85019642       1.28339881      15.51088819       0.00000000       0.00000000       0.00000000       0.01499254       0.02181485      -0.29807164       0.02227902      -0.00851503      -0.35860036
Cu       6.41699404       1.28339881      15.51088819       0.00000000       0.00000000       0.00000000      -0.01079831       0.02366442      -0.24307168      -0.02579393       0.00402086      -0.16917871
Cu       8.98379165       1.28339881      15.51088819       0.00000000       0.00000000       0.00000000       0.01038163       0.02338985      -0.24330219       0.03907333       0.01503786      -0.15640267
Cu       1.28339881       3.85019642      15.51088819       0.00000000       0.00000000       0.00000000       0.08024732       0.04114655      -0.17708143       0.03791298       0.07316152      -0.31147037
Cu       3.85019642       3.85019642      15.51088819       0.00000000       0.00000000       0.00000000      -0.08001170       0.04148323      -0.17723043      -0.05866093       0.04587481      -0.26444367
Cu       6.41699404       3.85019642      15.51088819       0.00000000       0.00000000       0.00000000      -0.00735056      -0.04009830      -0.26373072      -0.05613273      -0.04730199      -0.18369767
Cu       8.98379165       3.85019642      15.51088819       0.00000000       0.00000000       0.00000000       0.00703189      -0.03992705      -0.26404419       0.06516743      -0.05679885      -0.17278519
Cu       1.28339881       6.41699404      15.51088819       0.00000000       0.00000000       0.00000000       0.02105574      -0.03744787      -0.23010730       0.07649665      -0.05811338      -0.20273144
Cu       3.85019642       6.41699404      15.51088819       0.00000000       0.00000000       0.00000000      -0.02090402      -0.03753925      -0.22991127      -0.06396268      -0.05291339      -0.20812299
Cu       6.41699404       6.41699404      15.51088819       0.00000000       0.00000000       0.00000000       0.02873606       0.03701477      -0.30287250       0.04767374       0.07679001      -0.26260609
Cu       8.98379165       6.41699404      15.51088819       0.00000000       0.00000000       0.00000000      -0.02833957       0.03686325      -0.30281928      -0.03605716       0.07229176      -0.26190046
Cu       7.70434052       7.69386453      17.25129507      -0.00585629       0.00705461       0.15142960      -0.00013841      -0.00094561       0.15977881      -0.00820821       0.01980115      -0.07676210
Cu       5.13686658       7.71327595      17.24968075       0.00153419      -0.01159596       0.14534806       0.00927879      -0.00311443       0.15181801       0.00721710      -0.00168499      -0.08063421
Cu       2.57040914       7.68491791      17.24480612      -0.00645780       0.01632731       0.13826235       0.00002791      -0.00636749       0.14183812      -0.00408272       0.00892932      -0.11040626
Cu      10.27127084       7.71188952      17.24888444      -0.01454196      -0.00934468       0.14519452      -0.00938203      -0.00309062       0.15173828      -0.01521469       0.00086749      -0.07531763
Cu      10.27938560       2.57961361      17.26805557      -0.00455266      -0.00698059       0.15762876      -0.01856196      -0.00269710       0.14567797      -0.14239605      -0.04296278      -0.15313709
Cu       2.55411037       2.48044758      17.23595309      -0.02274172       0.03092486       0.20295059      -0.00035347       0.00022884       0.14079502      -0.03918175       0.03837767       0.12046418
Cu       5.12154320       2.57789719      17.26600090       0.02314734      -0.01509287       0.12523534       0.01823756      -0.00265995       0.14584234       0.12817493      -0.03308331      -0.20299115
Cu       7.69837525       2.56205418      17.25048162       0.01041401       0.00758244       0.15064684       0.00006068       0.00006862       0.16002041       0.00517641       0.00219637      -0.06299306
Cu      10.23634485       5.15242238      17.23025301      -0.01451938       0.00026676       0.14128662      -0.01563785       0.00650742       0.14977893      -0.03778055       0.00020060      -0.07652806
Cu       2.56457561       5.18439319      17.28812922       0.00133696      -0.00646059       0.15663871       0.00004552      -0.01739759       0.17396839       0.01488724       0.20251012      -0.19963731
Cu       5.16879652       5.15507238      17.22842506       0.01483834      -0.00180257       0.14165802       0.01518085       0.00655290       0.14977794       0.01488091      -0.02428020      -0.06174050
Cu       7.70170698       5.12650897      17.25209350       0.00267612       0.00863188       0.15100031      -0.00026218       0.00039659       0.16038772       0.00061026      -0.01625029      -0.05231214
O        2.65973038       2.40590085      20.03260731       0.04758047      -0.04318701       0.05043450       0.00021914      -0.03227603       0.02367728       0.56575519       0.03490148       0.37589049
C        2.56770156       3.24491127      18.98940328       0.07380395       0.01765902       0.08768561       0.00030506       0.00266658       0.05246448       0.20780687      -0.06368717       0.45080527
H        3.09223866       2.90399307      20.76782277      -0.08061352       0.01311976       0.09247194       0.00002645      -0.02224770       0.00040054      -0.32596491      -0.16282309      -0.41665310
O        2.59878427       4.48775299      19.18607032      -0.03589115      -0.00461970       0.08650650       0.00061065      -0.01852806       0.04528921      -0.37309271       0.02230034       0.26075269
52
Lattice="10.26719046282867 0.0 0.0 0.0 7.700392847121503 0.0 0.0 0.0 27.347850919999996" Properties=species:S:1:pos:R:3:MACE_forces:R:3:forces:R:3:DFT_forces:R:3 method=neb MACE_energy=-207.39554993583937 energy=-207.65077670682652 stress="0.009273451154845076 -4.408335087359909e-07 -8.570739400643434e-07 -4.408335087359909e-07 0.008782818095491621 0.00016132177534819965 -8.570739400643434e-07 0.00016132177534819965 0.0011041063492616735" free_energy=-207.65077670682652 DFT_energy=-210.89895655 pbc="T T T"
Cu       1.28339881       1.28339881      11.83696273       0.00000000       0.00000000       0.00000000       0.00054538      -0.00039471       0.18436377      -0.00860946      -0.00139459       0.42457421
Cu       3.85019642       1.28339881      11.83696273       0.00000000       0.00000000       0.00000000      -0.00054435      -0.00039637       0.18436194       0.00772824      -0.00067623       0.42654201
Cu       6.41699404       1.28339881      11.83696273       0.00000000       0.00000000       0.00000000      -0.00092168       0.00050522       0.18406174      -0.03679089       0.00045514       0.43797809
Cu       8.98379165       1.28339881      11.83696273       0.00000000       0.00000000       0.00000000       0.00092019       0.00050763       0.18406538       0.03845235      -0.00057527       0.43823607
Cu       1.28339881       3.85019642      11.83696273       0.00000000       0.00000000       0.00000000      -0.00021878       0.00035897       0.18264049      -0.00456565       0.00289391       0.42399095
Cu       3.85019642       3.85019642      11.83696273       0.00000000       0.00000000       0.00000000       0.00021921       0.00036050       0.18263518       0.00466861       0.00125452       0.42585530
Cu       6.41699404       3.85019642      11.83696273       0.00000000       0.00000000       0.00000000      -0.00125783      -0.00015504       0.18493269      -0.02732798       0.00219471       0.44706387
Cu       8.98379165       3.85019642      11.83696273       0.00000000       0.00000000       0.00000000       0.00125715      -0.00015804       0.18493761       0.02800611       0.00225630       0.44806954
Cu       1.28339881       6.41699404      11.83696273       0.00000000       0.00000000       0.00000000       0.00048783       0.00011282       0.18565408      -0.01079536      -0.00151937       0.42756497
Cu       3.85019642       6.41699404      11.83696273       0.00000000       0.00000000       0.00000000      -0.00048421       0.00011340       0.18565294       0.01055068      -0.00029415       0.42564540
Cu       6.41699404       6.41699404      11.83696273       0.00000000       0.00000000       0.00000000      -0.00130941      -0.00031184       0.18548086      -0.03637866      -0.00392954       0.45786997
Cu       8.98379165       6.41699404      11.83696273       0.00000000       0.00000000       0.00000000       0.00130687      -0.00031181       0.18548192       0.03588573      -0.00287512       0.45385109
Cu       7.70039285      -0.00000000      13.67392546       0.00000000       0.00000000       0.00000000      -0.00000459      -0.00045606      -0.09168766       0.00082331       0.02540853      -0.16630353
Cu       5.13359523      -0.00000000      13.67392546       0.00000000       0.00000000       0.00000000       0.00207406       0.00029677      -0.09746935      -0.02423805      -0.00870510      -0.17163361
Cu       2.56679762      -0.00000000      13.67392546       0.00000000       0.00000000       0.00000000       0.00000433      -0.00228964      -0.10780673       0.00048142      -0.02237565      -0.19822289
Cu       0.00000000      -0.00000000      13.67392546       0.00000000       0.00000000       0.00000000      -0.00207021       0.00027594      -0.09749658       0.02238558      -0.01042477      -0.17098728
Cu       0.00000000       2.56679762      13.67392546       0.00000000       0.00000000       0.00000000      -0.00304513      -0.00059061      -0.09536655       0.00064263       0.02457770      -0.15603010
Cu       2.56679762       2.56679762      13.67392546       0.00000000       0.00000000       0.00000000       0.00001226       0.00334251      -0.08396598      -0.00010638       0.00836961      -0.09292119
Cu       5.13359523       2.56679762      13.67392546       0.00000000       0.00000000       0.00000000       0.00304599      -0.00059093      -0.09531575       0.00000950       0.02693834      -0.15988997
Cu       7.70039285       2.56679762      13.67392546       0.00000000       0.00000000       0.00000000      -0.00002425       0.00024596      -0.08998245       0.00083791       0.02634066      -0.14525651
Cu       0.00000000       5.13359523      13.67392546       0.00000000       0.00000000       0.00000000      -0.00080031       0.00090274      -0.09244471       0.00776762      -0.01464336      -0.17946401
Cu       2.56679762       5.13359523      13.67392546       0.00000000       0.00000000       0.00000000       0.00001242      -0.00204136      -0.09676406      -0.00131418       0.00637427      -0.13939035
Cu       5.13359523       5.13359523      13.67392546       0.00000000       0.00000000       0.00000000       0.00079202       0.00088929      -0.09239408      -0.01020413      -0.01767087      -0.17653167
Cu       7.70039285       5.13359523      13.67392546       0.00000000       0.00000000       0.00000000       0.00000348       0.00040959      -0.09684921       0.00382285      -0.04665980      -0.16176033
Cu       1.28339881       1.28339881      15.51088819       0.00000000       0.00000000       0.00000000      -0.01469815       0.02191425      -0.29773629      -0.02917748      -0.02588864      -0.38491222
Cu       3.85019642       1.28339881      15.51088819       0.00000000       0.00000000       0.00000000       0.01499254       0.02181485      -0.29807164       0.01880363      -0.00320952      -0.35178841
Cu       6.41699404       1.28339881      15.51088819       0.00000000       0.00000000       0.00000000      -0.01079831       0.02366442      -0.24307168      -0.03029759       0.00956684      -0.16513536
Cu       8.98379165       1.28339881      15.51088819       0.00000000       0.00000000       0.00000000       0.01038163       0.02338985      -0.24330219       0.03631086       0.01283800      -0.15948612
Cu       1.28339881       3.85019642      15.51088819       0.00000000       0.00000000       0.00000000       0.08024732       0.04114655      -0.17708143       0.04330613       0.06412464      -0.29740495
Cu       3.85019642       3.85019642      15.51088819       0.00000000       0.00000000       0.00000000      -0.08001170       0.04148323      -0.17723043      -0.05917435       0.04463773      -0.26529756
Cu       6.41699404       3.85019642      15.51088819       0.00000000       0.00000000       0.00000000      -0.00735056      -0.04009830      -0.26373072      -0.05962496      -0.05019049      -0.18072253
Cu       8.98379165       3.85019642      15.51088819       0.00000000       0.00000000       0.00000000       0.00703189      -0.03992705      -0.26404419       0.06003499      -0.05388243      -0.17598103
Cu       1.28339881       6.41699404      15.51088819       0.00000000       0.00000000       0.00000000       0.02105574      -0.03744787      -0.23010730       0.07784095      -0.06313866      -0.19456212
Cu       3.85019642       6.41699404      15.51088819       0.00000000       0.00000000       0.00000000      -0.02090402      -0.03753925      -0.22991127      -0.06327233      -0.05597578      -0.20216250
Cu       6.41699404       6.41699404      15.51088819       0.00000000       0.00000000       0.00000000       0.02873606       0.03701477      -0.30287250       0.04790639       0.07473626      -0.26237514
Cu       8.98379165       6.41699404      15.51088819       0.00000000       0.00000000       0.00000000      -0.02833957       0.03686325      -0.30281928      -0.03430291       0.07101899      -0.26078397
Cu       7.70518073       7.69272453      17.25115465      -0.00680012       0.00889491       0.15143684      -0.00013841      -0.00094561       0.15977881      -0.00928234       0.02244253      -0.07536155
Cu       5.13786508       7.71456064      17.24970472       0.00038438      -0.01232424       0.14571892       0.00927879      -0.00311443       0.15181801       0.00655197      -0.00190212      -0.07926115
Cu       2.57151662       7.68309436      17.24426075      -0.00904050       0.01465905       0.13500142       0.00002791      -0.00636749       0.14183812      -0.00710109       0.01172507      -0.10619041
Cu      10.27236741       7.71319137      17.24907142      -0.01612383      -0.01203043       0.14483819      -0.00938203      -0.00309062       0.15173828      -0.01511881      -0.00180781      -0.07359353
Cu      10.27687278       2.58035707      17.26612870      -0.00079973      -0.00745632       0.15567266      -0.01856196      -0.00269710       0.14567797      -0.11365488      -0.04462185      -0.14056139
Cu       2.55881534       2.48369395      17.24399923      -0.03075770       0.02746881       0.15078418      -0.00035347       0.00022884       0.14079502      -0.05611051       0.03931362       0.11960749
Cu       5.11783603       2.58026591      17.26939602       0.02313252      -0.01556369       0.13155691       0.01823756      -0.00265995       0.14584234       0.14236809      -0.03469873      -0.21280683
Cu       7.69726168       2.56082592      17.25041388       0.00583310       0.00920521       0.15082928       0.00006068       0.00006862       0.16002041      -0.00190642       0.00358624      -0.06368454
Cu      10.23705100       5.15293780      17.23077169      -0.00792612      -0.00447927       0.14525087      -0.01563785       0.00650742       0.14977893      -0.03768859       0.00090609      -0.07794876
Cu       2.56419677       5.17879400      17.28934294      -0.00097977      -0.01003610       0.18425371       0.00004552      -0.01739759       0.17396839       0.01453911       0.19000730      -0.16120284
Cu       5.16766116       5.15570016      17.22887181       0.01275035      -0.00214536       0.14298821       0.01518085       0.00655290       0.14977794       0.01747588      -0.02299084      -0.06168410
Cu       7.70133210       5.12531204      17.25195740       0.00336471       0.01074966       0.15086476      -0.00026218       0.00039659       0.16038772       0.00031102      -0.01633535      -0.05248967
O        2.63491658       2.37952604      20.04172047       0.06754231      -0.04255254       0.02418746       0.00021914      -0.03227603       0.02367728       0.82165145      -0.11195528       0.30661865
C        2.58771392       3.24042577      19.00325569      -0.00609269      -0.00808306       0.07061262       0.00030506       0.00266658       0.05246448       0.36517465      -0.10365356       0.45067059
H        3.29528595       2.73257975      20.68413582      -0.06872116       0.07538314       0.10680582       0.00002645      -0.02224770       0.00040054      -0.65166397      -0.06899413      -0.57308823
O        2.60325952       4.47939072      19.20438468       0.02191762      -0.03475138       0.07502590       0.00061065      -0.01852806       0.04528921      -0.48563072       0.11902204       0.38273815
52
Lattice="10.26719046282867 0.0 0.0 0.0 7.700392847121503 0.0 0.0 0.0 27.347850919999996" Properties=species:S:1:pos:R:3:MACE_forces:R:3:forces:R:3:DFT_forces:R:3 method=neb MACE_energy=-207.36588240885024 energy=-207.65077670682652 stress="0.009273451154845076 -4.408335087359909e-07 -8.570739400643434e-07 -4.408335087359909e-07 0.008782818095491621 0.00016132177534819965 -8.570739400643434e-07 0.00016132177534819965 0.0011041063492616735" free_energy=-207.65077670682652 DFT_energy=-210.75685183 pbc="T T T"
Cu       1.28339881       1.28339881      11.83696273       0.00000000       0.00000000       0.00000000       0.00054538      -0.00039471       0.18436377      -0.00798570      -0.00165604       0.42472295
Cu       3.85019642       1.28339881      11.83696273       0.00000000       0.00000000       0.00000000      -0.00054435      -0.00039637       0.18436194       0.00734102      -0.00088936       0.42632256
Cu       6.41699404       1.28339881      11.83696273       0.00000000       0.00000000       0.00000000      -0.00092168       0.00050522       0.18406174      -0.03617173      -0.00079406       0.43768139
Cu       8.98379165       1.28339881      11.83696273       0.00000000       0.00000000       0.00000000       0.00092019       0.00050763       0.18406538       0.03763394      -0.00192953       0.43826420
Cu       1.28339881       3.85019642      11.83696273       0.00000000       0.00000000       0.00000000      -0.00021878       0.00035897       0.18264049      -0.00382793       0.00256252       0.42333389
Cu       3.85019642       3.85019642      11.83696273       0.00000000       0.00000000       0.00000000       0.00021921       0.00036050       0.18263518       0.00474307       0.00120416       0.42431882
Cu       6.41699404       3.85019642      11.83696273       0.00000000       0.00000000       0.00000000      -0.00125783      -0.00015504       0.18493269      -0.02675050       0.00297514       0.44677967
Cu       8.98379165       3.85019642      11.83696273       0.00000000       0.00000000       0.00000000       0.00125715      -0.00015804       0.18493761       0.02691365       0.00314990       0.44765805
Cu       1.28339881       6.41699404      11.83696273       0.00000000       0.00000000       0.00000000       0.00048783       0.00011282       0.18565408      -0.01014040      -0.00130830       0.42739816
Cu       3.85019642       6.41699404      11.83696273       0.00000000       0.00000000       0.00000000      -0.00048421       0.00011340       0.18565294       0.01084645      -0.00023946       0.42619260
Cu       6.41699404       6.41699404      11.83696273       0.00000000       0.00000000       0.00000000      -0.00130941      -0.00031184       0.18548086      -0.03561442      -0.00379806       0.45556025
Cu       8.98379165       6.41699404      11.83696273       0.00000000       0.00000000       0.00000000       0.00130687      -0.00031181       0.18548192       0.03484489      -0.00287734       0.45322292
Cu       7.70039285      -0.00000000      13.67392546       0.00000000       0.00000000       0.00000000      -0.00000459      -0.00045606      -0.09168766       0.00042936       0.02591082      -0.16608009
Cu       5.13359523      -0.00000000      13.67392546       0.00000000       0.00000000       0.00000000       0.00207406       0.00029677      -0.09746935      -0.02235401      -0.00941406      -0.17094686
Cu       2.56679762      -0.00000000      13.67392546       0.00000000       0.00000000       0.00000000       0.00000433      -0.00228964      -0.10780673       0.00088984      -0.02356292      -0.19763233
Cu       0.00000000      -0.00000000      13.67392546       0.00000000       0.00000000       0.00000000      -0.00207021       0.00027594      -0.09749658       0.02111526      -0.01066247      -0.17033287
Cu       0.00000000       2.56679762      13.67392546       0.00000000       0.00000000       0.00000000      -0.00304513      -0.00059061      -0.09536655      -0.00011834       0.02408046      -0.15632487
Cu       2.56679762       2.56679762      13.67392546       0.00000000       0.00000000       0.00000000       0.00001226       0.00334251      -0.08396598      -0.00034974       0.00769358      -0.09285889
Cu       5.13359523       2.56679762      13.67392546       0.00000000       0.00000000       0.00000000       0.00304599      -0.00059093      -0.09531575       0.00092315       0.02619681      -0.15763608
Cu       7.70039285       2.56679762      13.67392546       0.00000000       0.00000000       0.00000000      -0.00002425       0.00024596      -0.08998245       0.00074551       0.02539264      -0.14377895
Cu       0.00000000       5.13359523      13.67392546       0.00000000       0.00000000       0.00000000      -0.00080031       0.00090274      -0.09244471       0.00707992      -0.01420268      -0.17888023
Cu       2.56679762       5.13359523      13.67392546       0.00000000       0.00000000       0.00000000       0.00001242      -0.00204136      -0.09676406      -0.00146720       0.00759151      -0.14004544
Cu       5.13359523       5.13359523      13.67392546       0.00000000       0.00000000       0.00000000       0.00079202       0.00088929      -0.09239408      -0.00933794      -0.01678083      -0.17580011
Cu       7.70039285       5.13359523      13.67392546       0.00000000       0.00000000       0.00000000       0.00000348       0.00040959      -0.09684921       0.00440001      -0.04634131      -0.16144855
Cu       1.28339881       1.28339881      15.51088819       0.00000000       0.00000000       0.00000000      -0.01469815       0.02191425      -0.29773629      -0.03005662      -0.02141722      -0.37885440
Cu       3.85019642       1.28339881      15.51088819       0.00000000       0.00000000       0.00000000       0.01499254       0.02181485      -0.29807164       0.02498215      -0.00582371      -0.35766285
Cu       6.41699404       1.28339881      15.51088819       0.00000000       0.00000000       0.00000000      -0.01079831       0.02366442      -0.24307168      -0.03405041       0.01361446      -0.16130021
Cu       8.98379165       1.28339881      15.51088819       0.00000000       0.00000000       0.00000000       0.01038163       0.02338985      -0.24330219       0.03431906       0.01305170      -0.15972186
Cu       1.28339881       3.85019642      15.51088819       0.00000000       0.00000000       0.00000000       0.08024732       0.04114655      -0.17708143       0.03960191       0.06449939      -0.29665211
Cu       3.85019642       3.85019642      15.51088819       0.00000000       0.00000000       0.00000000      -0.08001170       0.04148323      -0.17723043      -0.05089448       0.05098354      -0.27440059
Cu       6.41699404       3.85019642      15.51088819       0.00000000       0.00000000       0.00000000      -0.00735056      -0.04009830      -0.26373072      -0.06145752      -0.05171600      -0.17738783
Cu       8.98379165       3.85019642      15.51088819       0.00000000       0.00000000       0.00000000       0.00703189      -0.03992705      -0.26404419       0.05763942      -0.05133712      -0.17691970
Cu       1.28339881       6.41699404      15.51088819       0.00000000       0.00000000       0.00000000       0.02105574      -0.03744787      -0.23010730       0.07380213      -0.06281590      -0.19287401
Cu       3.85019642       6.41699404      15.51088819       0.00000000       0.00000000       0.00000000      -0.02090402      -0.03753925      -0.22991127      -0.06088006      -0.05562723      -0.20067627
Cu       6.41699404       6.41699404      15.51088819       0.00000000       0.00000000       0.00000000       0.02873606       0.03701477      -0.30287250       0.04655997       0.07212453      -0.26169023
Cu       8.98379165       6.41699404      15.51088819       0.00000000       0.00000000       0.00000000      -0.02833957       0.03686325      -0.30281928      -0.03321627       0.06775393      -0.25784267
Cu       7.70450476       7.69363504      17.25111139      -0.00593667       0.00760949       0.15104890      -0.00013841      -0.00094561       0.15977881      -0.00849518       0.02291808      -0.07497736
Cu       5.13723990       7.71390288      17.25004286       0.00203603      -0.01150263       0.14476287       0.00927879      -0.00311443       0.15181801       0.00724745       0.00029851      -0.07937176
Cu       2.57091386       7.68432790      17.24341015      -0.00742823       0.01724877       0.13649154       0.00002791      -0.00636749       0.14183812      -0.00602065       0.01686893      -0.10070511
Cu      10.27168200       7.71251729      17.24912541      -0.01462157      -0.01144976       0.14502073      -0.00938203      -0.00309062       0.15173828      -0.01393663      -0.00158030      -0.07274001
Cu      10.27628433       2.58001615      17.26620851      -0.00812258      -0.00928777       0.14994463      -0.01856196      -0.00269710       0.14567797      -0.10448375      -0.04483000      -0.13970645
Cu       2.55996891       2.48977180      17.24073465      -0.01444474       0.01303903       0.15181632      -0.00035347       0.00022884       0.14079502      -0.03755293       0.02942321       0.17761883
Cu       5.11601785       2.58011173      17.27186862       0.01530018      -0.01365550       0.13855754       0.01823756      -0.00265995       0.14584234       0.14327487      -0.03463479      -0.21506656
Cu       7.69702211       2.56165245      17.25062417       0.00243929       0.00772235       0.15039612       0.00006068       0.00006862       0.16002041      -0.00655093       0.00219622      -0.06432815
Cu      10.23824866       5.15138566      17.23179393      -0.00842258      -0.00191411       0.14506755      -0.01563785       0.00650742       0.14977893      -0.04281505       0.00492680      -0.08293101
Cu       2.56373473       5.18038819      17.28869626       0.00179827      -0.02586294       0.21188142       0.00004552      -0.01739759       0.17396839       0.01584574       0.16884988      -0.13530735
Cu       5.16696698       5.15457818      17.22954994       0.01151802      -0.00015097       0.14259035       0.01518085       0.00655290       0.14977794       0.02146091      -0.01814513      -0.06551741
Cu       7.70143660       5.12619414      17.25195478       0.00316631       0.00950734       0.15031558      -0.00026218       0.00039659       0.16038772       0.00058177      -0.01898433      -0.05248960
O        2.60178656       2.36271915      20.04822021       0.02875103      -0.03409244       0.04045747       0.00021914      -0.03227603       0.02367728       0.80659376      -0.19334408       0.32621269
C        2.59771424       3.23443177      19.00785869      -0.01421665      -0.02663755       0.06936227       0.00030506       0.00266658       0.05246448       0.35337351      -0.13446101       0.46496601
H        3.40472524       2.55376768      20.58783873      -0.03061415       0.08999475       0.07328945       0.00002645      -0.02224770       0.00040054      -0.68279947       0.03594789      -0.69426053
O        2.60768840       4.47029770      19.21036220       0.03343056      -0.02575005       0.05920921       0.00061065      -0.01852806       0.04528921      -0.45586084       0.13895867       0.38489629
52
Lattice="10.26719046282867 0.0 0.0 0.0 7.700392847121503 0.0 0.0 0.0 27.347850919999996" Properties=species:S:1:pos:R:3:MACE_forces:R:3:forces:R:3:DFT_forces:R:3 method=neb MACE_energy=-207.35330818130157 energy=-207.65077670682652 stress="0.009273451154845076 -4.408335087359909e-07 -8.570739400643434e-07 -4.408335087359909e-07 0.008782818095491621 0.00016132177534819965 -8.570739400643434e-07 0.00016132177534819965 0.0011041063492616735" free_energy=-207.65077670682652 DFT_energy=-210.65393273 pbc="T T T"
Cu       1.28339881       1.28339881      11.83696273       0.00000000       0.00000000       0.00000000       0.00054538      -0.00039471       0.18436377      -0.00714670      -0.00178816       0.42470877
Cu       3.85019642       1.28339881      11.83696273       0.00000000       0.00000000       0.00000000      -0.00054435      -0.00039637       0.18436194       0.00683989      -0.00072089       0.42439779
Cu       6.41699404       1.28339881      11.83696273       0.00000000       0.00000000       0.00000000      -0.00092168       0.00050522       0.18406174      -0.03650540      -0.00142504       0.43733688
Cu       8.98379165       1.28339881      11.83696273       0.00000000       0.00000000       0.00000000       0.00092019       0.00050763       0.18406538       0.03642346      -0.00307704       0.43842711
Cu       1.28339881       3.85019642      11.83696273       0.00000000       0.00000000       0.00000000      -0.00021878       0.00035897       0.18264049      -0.00295973       0.00164112       0.42315392
Cu       3.85019642       3.85019642      11.83696273       0.00000000       0.00000000       0.00000000       0.00021921       0.00036050       0.18263518       0.00484661       0.00068752       0.42158956
Cu       6.41699404       3.85019642      11.83696273       0.00000000       0.00000000       0.00000000      -0.00125783      -0.00015504       0.18493269      -0.02725810       0.00276702       0.44622700
Cu       8.98379165       3.85019642      11.83696273       0.00000000       0.00000000       0.00000000       0.00125715      -0.00015804       0.18493761       0.02562606       0.00385360       0.44678851
Cu       1.28339881       6.41699404      11.83696273       0.00000000       0.00000000       0.00000000       0.00048783       0.00011282       0.18565408      -0.00924663      -0.00106428       0.42562550
Cu       3.85019642       6.41699404      11.83696273       0.00000000       0.00000000       0.00000000      -0.00048421       0.00011340       0.18565294       0.01118914      -0.00042943       0.42704567
Cu       6.41699404       6.41699404      11.83696273       0.00000000       0.00000000       0.00000000      -0.00130941      -0.00031184       0.18548086      -0.03576439      -0.00346726       0.45231055
Cu       8.98379165       6.41699404      11.83696273       0.00000000       0.00000000       0.00000000       0.00130687      -0.00031181       0.18548192       0.03402191      -0.00309894       0.45466071
Cu       7.70039285      -0.00000000      13.67392546       0.00000000       0.00000000       0.00000000      -0.00000459      -0.00045606      -0.09168766      -0.00188541       0.02528308      -0.16549670
Cu       5.13359523      -0.00000000      13.67392546       0.00000000       0.00000000       0.00000000       0.00207406       0.00029677      -0.09746935      -0.02069555      -0.01077532      -0.17019760
Cu       2.56679762      -0.00000000      13.67392546       0.00000000       0.00000000       0.00000000       0.00000433      -0.00228964      -0.10780673       0.00185178      -0.02510042      -0.19586298
Cu       0.00000000      -0.00000000      13.67392546       0.00000000       0.00000000       0.00000000      -0.00207021       0.00027594      -0.09749658       0.02127679      -0.01045862      -0.16948460
Cu       0.00000000       2.56679762      13.67392546       0.00000000       0.00000000       0.00000000      -0.00304513      -0.00059061      -0.09536655      -0.00054429       0.02464863      -0.15861145
Cu       2.56679762       2.56679762      13.67392546       0.00000000       0.00000000       0.00000000       0.00001226       0.00334251      -0.08396598      -0.00143728       0.00846873      -0.09254957
Cu       5.13359523       2.56679762      13.67392546       0.00000000       0.00000000       0.00000000       0.00304599      -0.00059093      -0.09531575       0.00147368       0.02601412      -0.15341664
Cu       7.70039285       2.56679762      13.67392546       0.00000000       0.00000000       0.00000000      -0.00002425       0.00024596      -0.08998245      -0.00011601       0.02555877      -0.14277678
Cu       0.00000000       5.13359523      13.67392546       0.00000000       0.00000000       0.00000000      -0.00080031       0.00090274      -0.09244471       0.00697448      -0.01521773      -0.17767850
Cu       2.56679762       5.13359523      13.67392546       0.00000000       0.00000000       0.00000000       0.00001242      -0.00204136      -0.09676406      -0.00140619       0.00782860      -0.13971714
Cu       5.13359523       5.13359523      13.67392546       0.00000000       0.00000000       0.00000000       0.00079202       0.00088929      -0.09239408      -0.00918153      -0.01600250      -0.17417894
Cu       7.70039285       5.13359523      13.67392546       0.00000000       0.00000000       0.00000000       0.00000348       0.00040959      -0.09684921       0.00400740      -0.04658694      -0.16102351
Cu       1.28339881       1.28339881      15.51088819       0.00000000       0.00000000       0.00000000      -0.01469815       0.02191425      -0.29773629      -0.01494467      -0.00275335      -0.35193927
Cu       3.85019642       1.28339881      15.51088819       0.00000000       0.00000000       0.00000000       0.01499254       0.02181485      -0.29807164       0.03470884      -0.01275182      -0.37213984
Cu       6.41699404       1.28339881      15.51088819       0.00000000       0.00000000       0.00000000      -0.01079831       0.02366442      -0.24307168      -0.04565730       0.02332487      -0.15198784
Cu       8.98379165       1.28339881      15.51088819       0.00000000       0.00000000       0.00000000       0.01038163       0.02338985      -0.24330219       0.02636047       0.00652920      -0.16576779
Cu       1.28339881       3.85019642      15.51088819       0.00000000       0.00000000       0.00000000       0.08024732       0.04114655      -0.17708143       0.05623266       0.04995930      -0.26421033
Cu       3.85019642       3.85019642      15.51088819       0.00000000       0.00000000       0.00000000      -0.08001170       0.04148323      -0.17723043      -0.04922082       0.05680655      -0.27991383
Cu       6.41699404       3.85019642      15.51088819       0.00000000       0.00000000       0.00000000      -0.00735056      -0.04009830      -0.26373072      -0.07144114      -0.05984995      -0.16689107
Cu       8.98379165       3.85019642      15.51088819       0.00000000       0.00000000       0.00000000       0.00703189      -0.03992705      -0.26404419       0.05053421      -0.04466486      -0.18168212
Cu       1.28339881       6.41699404      15.51088819       0.00000000       0.00000000       0.00000000       0.02105574      -0.03744787      -0.23010730       0.08194589      -0.07065005      -0.17639908
Cu       3.85019642       6.41699404      15.51088819       0.00000000       0.00000000       0.00000000      -0.02090402      -0.03753925      -0.22991127      -0.07159330      -0.06269776      -0.18571174
Cu       6.41699404       6.41699404      15.51088819       0.00000000       0.00000000       0.00000000       0.02873606       0.03701477      -0.30287250       0.04468974       0.07044885      -0.26172469
Cu       8.98379165       6.41699404      15.51088819       0.00000000       0.00000000       0.00000000      -0.02833957       0.03686325      -0.30281928      -0.03176518       0.06528790      -0.25356352
Cu       7.70365990       7.69460295      17.25105241      -0.00451224       0.00594470       0.15072291      -0.00013841      -0.00094561       0.15977881      -0.00615677       0.02270955      -0.07369709
Cu       5.13661466       7.71310098      17.25015206       0.00326404      -0.00893398       0.14412790       0.00927879      -0.00311443       0.15181801       0.00641950       0.00288324      -0.07681041
Cu       2.57037487       7.68567009      17.24376690      -0.00625132      -0.00259423       0.13808909       0.00002791      -0.00636749       0.14183812      -0.00563433      -0.00407821      -0.10051442
Cu      10.27120024       7.71153164      17.24931146      -0.01326012      -0.01129659       0.14475422      -0.00938203      -0.00309062       0.15173828      -0.01284034      -0.00167807      -0.07191643
Cu      10.27267860       2.57822847      17.26337204      -0.00609440      -0.00912577       0.14445253      -0.01856196      -0.00269710       0.14567797      -0.07925224      -0.03871000      -0.14018244
Cu       2.56875184       2.48977032      17.24591486      -0.01622294      -0.00196556       0.14907397      -0.00035347       0.00022884       0.14079502      -0.03455673       0.02826924       0.21220425
Cu       5.11072113       2.58034567      17.27837019       0.01728738      -0.01195422       0.14329164       0.01823756      -0.00265995       0.14584234       0.16294556      -0.03568501      -0.21951266
Cu       7.69545921       2.56250427      17.25066592      -0.00411812       0.00653136       0.14993941       0.00006068       0.00006862       0.16002041      -0.01462232       0.00117347      -0.06438696
Cu      10.23959720       5.14994337      17.23288000      -0.00653208      -0.00157984       0.14510117      -0.01563785       0.00650742       0.14977893      -0.04351531       0.00275610      -0.08640444
Cu       2.56373806       5.17645203      17.29684478       0.00266929      -0.01169184       0.18866849       0.00004552      -0.01739759       0.17396839       0.00848095       0.18088806      -0.16793554
Cu       5.16577697       5.15359985      17.23008186       0.01151536       0.00137164       0.14224764       0.01518085       0.00655290       0.14977794       0.02799859      -0.01126098      -0.06912857
Cu       7.70136857       5.12715574      17.25188234       0.00255768       0.00820530       0.14962293      -0.00026218       0.00039659       0.16038772       0.00053914      -0.02157196      -0.05256813
O        2.54898970       2.35636985      20.07465127       0.00918625      -0.01387458       0.05519355       0.00021914      -0.03227603       0.02367728       0.69574077      -0.15509384       0.42887161
C        2.62424315       3.22040486      19.02264929      -0.04825318      -0.00488658       0.06830133       0.00030506       0.00266658       0.05246448       0.25646369      -0.17668172       0.49439784
H        3.42452485       2.36941767      20.52628878       0.01685169       0.05332634       0.02702608       0.00002645      -0.02224770       0.00040054      -0.59112277       0.13583733      -0.80465286
O        2.61821369       4.45608008      19.21620896       0.04113570      -0.00439663       0.03935360       0.00061065      -0.01852806       0.04528921      -0.38112081       0.06371531       0.28288976
52
Lattice="10.26719046282867 0.0 0.0 0.0 7.700392847121503 0.0 0.0 0.0 27.347850919999996" Properties=species:S:1:pos:R:3:MACE_forces:R:3:forces:R:3:DFT_forces:R:3 method=neb MACE_energy=-207.35678073875863 energy=-207.65077670682652 stress="0.009273451154845076 -4.408335087359909e-07 -8.570739400643434e-07 -4.408335087359909e-07 0.008782818095491621 0.00016132177534819965 -8.570739400643434e-07 0.00016132177534819965 0.0011041063492616735" free_energy=-207.65077670682652 DFT_energy=-210.62332178 pbc="T T T"
Cu       1.28339881       1.28339881      11.83696273       0.00000000       0.00000000       0.00000000       0.00054538      -0.00039471       0.18436377      -0.00724929      -0.00137863       0.42219657
Cu       3.85019642       1.28339881      11.83696273       0.00000000       0.00000000       0.00000000      -0.00054435      -0.00039637       0.18436194       0.00620791      -0.00027825       0.42385588
Cu       6.41699404       1.28339881      11.83696273       0.00000000       0.00000000       0.00000000      -0.00092168       0.00050522       0.18406174      -0.03643671      -0.00135437       0.43668269
Cu       8.98379165       1.28339881      11.83696273       0.00000000       0.00000000       0.00000000       0.00092019       0.00050763       0.18406538       0.03740840      -0.00271765       0.43886398
Cu       1.28339881       3.85019642      11.83696273       0.00000000       0.00000000       0.00000000      -0.00021878       0.00035897       0.18264049      -0.00259711      -0.00058192       0.42277634
Cu       3.85019642       3.85019642      11.83696273       0.00000000       0.00000000       0.00000000       0.00021921       0.00036050       0.18263518       0.00511188       0.00035191       0.42049097
Cu       6.41699404       3.85019642      11.83696273       0.00000000       0.00000000       0.00000000      -0.00125783      -0.00015504       0.18493269      -0.02820271       0.00292904       0.44521745
Cu       8.98379165       3.85019642      11.83696273       0.00000000       0.00000000       0.00000000       0.00125715      -0.00015804       0.18493761       0.02542485       0.00283648       0.44604811
Cu       1.28339881       6.41699404      11.83696273       0.00000000       0.00000000       0.00000000       0.00048783       0.00011282       0.18565408      -0.00877499       0.00007640       0.42485138
Cu       3.85019642       6.41699404      11.83696273       0.00000000       0.00000000       0.00000000      -0.00048421       0.00011340       0.18565294       0.01149449      -0.00150387       0.42658493
Cu       6.41699404       6.41699404      11.83696273       0.00000000       0.00000000       0.00000000      -0.00130941      -0.00031184       0.18548086      -0.03674753      -0.00412222       0.45098079
Cu       8.98379165       6.41699404      11.83696273       0.00000000       0.00000000       0.00000000       0.00130687      -0.00031181       0.18548192       0.03433531      -0.00284922       0.45544980
Cu       7.70039285      -0.00000000      13.67392546       0.00000000       0.00000000       0.00000000      -0.00000459      -0.00045606      -0.09168766      -0.00094763       0.02384994      -0.16519671
Cu       5.13359523      -0.00000000      13.67392546       0.00000000       0.00000000       0.00000000       0.00207406       0.00029677      -0.09746935      -0.02113220      -0.01062913      -0.16897877
Cu       2.56679762      -0.00000000      13.67392546       0.00000000       0.00000000       0.00000000       0.00000433      -0.00228964      -0.10780673       0.00254319      -0.02522137      -0.19509749
Cu       0.00000000      -0.00000000      13.67392546       0.00000000       0.00000000       0.00000000      -0.00207021       0.00027594      -0.09749658       0.02094489      -0.01151951      -0.17006287
Cu       0.00000000       2.56679762      13.67392546       0.00000000       0.00000000       0.00000000      -0.00304513      -0.00059061      -0.09536655      -0.00094289       0.02623753      -0.15969924
Cu       2.56679762       2.56679762      13.67392546       0.00000000       0.00000000       0.00000000       0.00001226       0.00334251      -0.08396598      -0.00023783       0.00980920      -0.09238646
Cu       5.13359523       2.56679762      13.67392546       0.00000000       0.00000000       0.00000000       0.00304599      -0.00059093      -0.09531575       0.00099517       0.02617593      -0.15184680
Cu       7.70039285       2.56679762      13.67392546       0.00000000       0.00000000       0.00000000      -0.00002425       0.00024596      -0.08998245      -0.00065043       0.02651983      -0.14287404
Cu       0.00000000       5.13359523      13.67392546       0.00000000       0.00000000       0.00000000      -0.00080031       0.00090274      -0.09244471       0.00740411      -0.01633374      -0.17652210
Cu       2.56679762       5.13359523      13.67392546       0.00000000       0.00000000       0.00000000       0.00001242      -0.00204136      -0.09676406      -0.00183170       0.00641474      -0.13879674
Cu       5.13359523       5.13359523      13.67392546       0.00000000       0.00000000       0.00000000       0.00079202       0.00088929      -0.09239408      -0.00996273      -0.01697574      -0.17376422
Cu       7.70039285       5.13359523      13.67392546       0.00000000       0.00000000       0.00000000       0.00000348       0.00040959      -0.09684921       0.00405899      -0.04717556      -0.16098971
Cu       1.28339881       1.28339881      15.51088819       0.00000000       0.00000000       0.00000000      -0.01469815       0.02191425      -0.29773629      -0.00927131      -0.00559407      -0.34592331
Cu       3.85019642       1.28339881      15.51088819       0.00000000       0.00000000       0.00000000       0.01499254       0.02181485      -0.29807164       0.02349534      -0.00332966      -0.35349208
Cu       6.41699404       1.28339881      15.51088819       0.00000000       0.00000000       0.00000000      -0.01079831       0.02366442      -0.24307168      -0.05389925       0.02464068      -0.15200520
Cu       8.98379165       1.28339881      15.51088819       0.00000000       0.00000000       0.00000000       0.01038163       0.02338985      -0.24330219       0.02267151       0.00827623      -0.16249052
Cu       1.28339881       3.85019642      15.51088819       0.00000000       0.00000000       0.00000000       0.08024732       0.04114655      -0.17708143       0.07471210       0.03552387      -0.24463300
Cu       3.85019642       3.85019642      15.51088819       0.00000000       0.00000000       0.00000000      -0.08001170       0.04148323      -0.17723043      -0.05872271       0.03545967      -0.25389929
Cu       6.41699404       3.85019642      15.51088819       0.00000000       0.00000000       0.00000000      -0.00735056      -0.04009830      -0.26373072      -0.07821423      -0.06128859      -0.16366283
Cu       8.98379165       3.85019642      15.51088819       0.00000000       0.00000000       0.00000000       0.00703189      -0.03992705      -0.26404419       0.04975192      -0.04687851      -0.17831180
Cu       1.28339881       6.41699404      15.51088819       0.00000000       0.00000000       0.00000000       0.02105574      -0.03744787      -0.23010730       0.08458355      -0.07588390      -0.17243071
Cu       3.85019642       6.41699404      15.51088819       0.00000000       0.00000000       0.00000000      -0.02090402      -0.03753925      -0.22991127      -0.07505619      -0.06595171      -0.18429211
Cu       6.41699404       6.41699404      15.51088819       0.00000000       0.00000000       0.00000000       0.02873606       0.03701477      -0.30287250       0.03978417       0.07157878      -0.26092935
Cu       8.98379165       6.41699404      15.51088819       0.00000000       0.00000000       0.00000000      -0.02833957       0.03686325      -0.30281928      -0.03099186       0.06177963      -0.24885107
Cu       7.70115112       7.69816253      17.25084834      -0.00050869       0.00082421       0.15101441      -0.00013841      -0.00094561       0.15977881      -0.00331886       0.01814558      -0.07077486
Cu       5.13396188       7.71080108      17.25034509       0.00698660      -0.00757904       0.14339411       0.00927879      -0.00311443       0.15181801       0.00771306       0.00717219      -0.07331383
Cu       2.56781203       7.68344911      17.24573754      -0.00135897       0.00266089       0.13654599       0.00002791      -0.00636749       0.14183812       0.00028671      -0.00028541      -0.10852782
Cu      10.26870628       7.70680606      17.24908851      -0.00790084      -0.00239402       0.14550339      -0.00938203      -0.00309062       0.15173828      -0.00779446       0.00633722      -0.06991489
Cu      10.27394734       2.57422487      17.26227983      -0.02072015      -0.00260259       0.15047900      -0.01856196      -0.00269710       0.14567797      -0.09573367      -0.02955186      -0.13628842
Cu       2.56527079       2.48237942      17.25726122       0.00049271       0.00555550       0.15631743      -0.00035347       0.00022884       0.14079502      -0.00775741       0.04749956       0.22908769
Cu       5.11117605       2.57630332      17.28396938       0.00639885      -0.00581678       0.12189209       0.01823756      -0.00265995       0.14584234       0.14287906      -0.03084504      -0.24033119
Cu       7.69121011       2.56603896      17.25068674       0.01509183       0.00140393       0.14942179       0.00006068       0.00006862       0.16002041       0.00391599      -0.00291943      -0.06267540
Cu      10.24223152       5.14548149      17.23399154      -0.01137792       0.00517653       0.14162707      -0.01563785       0.00650742       0.14977893      -0.05061162       0.00962251      -0.09060228
Cu       2.56495818       5.17763896      17.30025033       0.00456111      -0.02660281       0.17236801       0.00004552      -0.01739759       0.17396839       0.00720821       0.15949711      -0.18299156
Cu       5.16566165       5.15079141      17.23017167       0.01457033       0.00342868       0.14177115       0.01518085       0.00655290       0.14977794       0.03291810      -0.00767470      -0.06963563
Cu       7.70229332       5.13078272      17.25147489       0.00224439       0.00236242       0.15050292      -0.00026218       0.00039659       0.16038772       0.00139089      -0.02604108      -0.04983511
O        2.53384508       2.37488762      20.11259707       0.01870234       0.01310245       0.04503725       0.00021914      -0.03227603       0.02367728       0.62932171      -0.06641227       0.48036645
C        2.62070656       3.21398915      19.03832159       0.00839752       0.02733456       0.06698060       0.00030506       0.00266658       0.05246448       0.10313024      -0.20252776       0.50444041
H        3.44796677       2.26763690      20.46545520       0.00354258      -0.00809540      -0.00287342       0.00002645      -0.02224770       0.00040054      -0.37198341       0.18222050      -0.83808703
O        2.63503218       4.45247820      19.21142375      -0.01958635       0.01549486       0.02715096       0.00061065      -0.01852806       0.04528921      -0.38062303      -0.02512936       0.18222097
52
Lattice="10.26719046282867 0.0 0.0 0.0 7.700392847121503 0.0 0.0 0.0 27.347850919999996" Properties=species:S:1:pos:R:3:MACE_forces:R:3:forces:R:3:DFT_forces:R:3 method=neb MACE_energy=-207.4136336920326 energy=-207.65077670682652 stress="0.009273451154845076 -4.408335087359909e-07 -8.570739400643434e-07 -4.408335087359909e-07 0.008782818095491621 0.00016132177534819965 -8.570739400643434e-07 0.00016132177534819965 0.0011041063492616735" free_energy=-207.65077670682652 DFT_energy=-210.72280013 pbc="T T T"
Cu       1.28339881       1.28339881      11.83696273       0.00000000       0.00000000       0.00000000       0.00054538      -0.00039471       0.18436377      -0.00627650      -0.00027645       0.42747991
Cu       3.85019642       1.28339881      11.83696273       0.00000000       0.00000000       0.00000000      -0.00054435      -0.00039637       0.18436194       0.00794896       0.00210956       0.41872433
Cu       6.41699404       1.28339881      11.83696273       0.00000000       0.00000000       0.00000000      -0.00092168       0.00050522       0.18406174      -0.03933509       0.00172944       0.43990396
Cu       8.98379165       1.28339881      11.83696273       0.00000000       0.00000000       0.00000000       0.00092019       0.00050763       0.18406538       0.03578008      -0.00085617       0.43840842
Cu       1.28339881       3.85019642      11.83696273       0.00000000       0.00000000       0.00000000      -0.00021878       0.00035897       0.18264049      -0.00095186       0.00086136       0.42660710
Cu       3.85019642       3.85019642      11.83696273       0.00000000       0.00000000       0.00000000       0.00021921       0.00036050       0.18263518       0.00487476      -0.00287838       0.42111534
Cu       6.41699404       3.85019642      11.83696273       0.00000000       0.00000000       0.00000000      -0.00125783      -0.00015504       0.18493269      -0.02905649      -0.00073452       0.44679078
Cu       8.98379165       3.85019642      11.83696273       0.00000000       0.00000000       0.00000000       0.00125715      -0.00015804       0.18493761       0.02541351       0.00332172       0.44768950
Cu       1.28339881       6.41699404      11.83696273       0.00000000       0.00000000       0.00000000       0.00048783       0.00011282       0.18565408      -0.00773523      -0.00249398       0.42240391
Cu       3.85019642       6.41699404      11.83696273       0.00000000       0.00000000       0.00000000      -0.00048421       0.00011340       0.18565294       0.01122100       0.00029393       0.43069206
Cu       6.41699404       6.41699404      11.83696273       0.00000000       0.00000000       0.00000000      -0.00130941      -0.00031184       0.18548086      -0.03807758      -0.00275528       0.44979679
Cu       8.98379165       6.41699404      11.83696273       0.00000000       0.00000000       0.00000000       0.00130687      -0.00031181       0.18548192       0.03588572      -0.00441881       0.45970010
Cu       7.70039285      -0.00000000      13.67392546       0.00000000       0.00000000       0.00000000      -0.00000459      -0.00045606      -0.09168766      -0.00447267       0.02168933      -0.16520662
Cu       5.13359523      -0.00000000      13.67392546       0.00000000       0.00000000       0.00000000       0.00207406       0.00029677      -0.09746935      -0.02319347      -0.01376623      -0.16937406
Cu       2.56679762      -0.00000000      13.67392546       0.00000000       0.00000000       0.00000000       0.00000433      -0.00228964      -0.10780673       0.00260191      -0.02062622      -0.19348927
Cu       0.00000000      -0.00000000      13.67392546       0.00000000       0.00000000       0.00000000      -0.00207021       0.00027594      -0.09749658       0.02607018      -0.00672362      -0.17006467
Cu       0.00000000       2.56679762      13.67392546       0.00000000       0.00000000       0.00000000      -0.00304513      -0.00059061      -0.09536655       0.00189016       0.02668774      -0.16462097
Cu       2.56679762       2.56679762      13.67392546       0.00000000       0.00000000       0.00000000       0.00001226       0.00334251      -0.08396598      -0.00332307       0.01104797      -0.09351456
Cu       5.13359523       2.56679762      13.67392546       0.00000000       0.00000000       0.00000000       0.00304599      -0.00059093      -0.09531575       0.00010463       0.03044222      -0.14799834
Cu       7.70039285       2.56679762      13.67392546       0.00000000       0.00000000       0.00000000      -0.00002425       0.00024596      -0.08998245      -0.00119574       0.02945742      -0.14674673
Cu       0.00000000       5.13359523      13.67392546       0.00000000       0.00000000       0.00000000      -0.00080031       0.00090274      -0.09244471       0.00830941      -0.02012273      -0.17710800
Cu       2.56679762       5.13359523      13.67392546       0.00000000       0.00000000       0.00000000       0.00001242      -0.00204136      -0.09676406      -0.00059779       0.00264872      -0.13730731
Cu       5.13359523       5.13359523      13.67392546       0.00000000       0.00000000       0.00000000       0.00079202       0.00088929      -0.09239408      -0.00858635      -0.01793184      -0.17430830
Cu       7.70039285       5.13359523      13.67392546       0.00000000       0.00000000       0.00000000       0.00000348       0.00040959      -0.09684921       0.00313817      -0.04840843      -0.16180448
Cu       1.28339881       1.28339881      15.51088819       0.00000000       0.00000000       0.00000000      -0.01469815       0.02191425      -0.29773629       0.02606737       0.03192814      -0.29123638
Cu       3.85019642       1.28339881      15.51088819       0.00000000       0.00000000       0.00000000       0.01499254       0.02181485      -0.29807164       0.03223616      -0.00437238      -0.36746579
Cu       6.41699404       1.28339881      15.51088819       0.00000000       0.00000000       0.00000000      -0.01079831       0.02366442      -0.24307168      -0.06766566       0.03603444      -0.13942488
Cu       8.98379165       1.28339881      15.51088819       0.00000000       0.00000000       0.00000000       0.01038163       0.02338985      -0.24330219       0.00918557      -0.00416566      -0.17514410
Cu       1.28339881       3.85019642      15.51088819       0.00000000       0.00000000       0.00000000       0.08024732       0.04114655      -0.17708143       0.09332920      -0.00305111      -0.21218546
Cu       3.85019642       3.85019642      15.51088819       0.00000000       0.00000000       0.00000000      -0.08001170       0.04148323      -0.17723043      -0.05990601       0.03089632      -0.26405448
Cu       6.41699404       3.85019642      15.51088819       0.00000000       0.00000000       0.00000000      -0.00735056      -0.04009830      -0.26373072      -0.09272085      -0.07097654      -0.15285042
Cu       8.98379165       3.85019642      15.51088819       0.00000000       0.00000000       0.00000000       0.00703189      -0.03992705      -0.26404419       0.04051209      -0.03978358      -0.18532522
Cu       1.28339881       6.41699404      15.51088819       0.00000000       0.00000000       0.00000000       0.02105574      -0.03744787      -0.23010730       0.06864510      -0.05354456      -0.20239217
Cu       3.85019642       6.41699404      15.51088819       0.00000000       0.00000000       0.00000000      -0.02090402      -0.03753925      -0.22991127      -0.07455196      -0.05269829      -0.19091261
Cu       6.41699404       6.41699404      15.51088819       0.00000000       0.00000000       0.00000000       0.02873606       0.03701477      -0.30287250       0.03889559       0.07202514      -0.25984445
Cu       8.98379165       6.41699404      15.51088819       0.00000000       0.00000000       0.00000000      -0.02833957       0.03686325      -0.30281928      -0.02788106       0.06339410      -0.24432621
Cu       7.70081219       7.69820162      17.25080310      -0.00032472       0.00071153       0.15087581      -0.00013841      -0.00094561       0.15977881      -0.00085425       0.01547544      -0.07231751
Cu       5.13402488       7.71092590      17.25043402       0.00708263      -0.00502054       0.14294600       0.00927879      -0.00311443       0.15181801       0.00223254       0.00333068      -0.07123956
Cu       2.56816153       7.68883899      17.24777421      -0.00137545      -0.00498962       0.13689452       0.00002791      -0.00636749       0.14183812       0.00105215      -0.01117741      -0.12448093
Cu      10.26877726       7.70633420      17.24899381      -0.00767796      -0.00422956       0.14516049      -0.00938203      -0.00309062       0.15173828      -0.00462466       0.01146726      -0.07185221
Cu      10.26907505       2.57198810      17.25798167      -0.02089296      -0.00559103       0.14227338      -0.01856196      -0.00269710       0.14567797      -0.07868789      -0.03419137      -0.14468133
Cu       2.57755468       2.47912392      17.27505488       0.00781926       0.00695306       0.19817069      -0.00035347       0.00022884       0.14079502       0.03942616       0.05510101       0.24807008
Cu       5.10651595       2.57857423      17.29109916       0.00537046      -0.00195581       0.13445523       0.01823756      -0.00265995       0.14584234       0.16344309      -0.03371129      -0.23794005
Cu       7.68959160       2.56610996      17.25052099       0.00737884       0.00143380       0.14920523       0.00006068       0.00006862       0.16002041      -0.00145854      -0.00243572      -0.06093512
Cu      10.23937855       5.14501572      17.23371725      -0.01336730       0.00312449       0.14192061      -0.01563785       0.00650742       0.14977893      -0.04878932       0.00258205      -0.09092322
Cu       2.56298463       5.18487550      17.28781601      -0.00068843      -0.01399891       0.15052459       0.00004552      -0.01739759       0.17396839      -0.01368600       0.15174598      -0.18322486
Cu       5.16436124       5.15004138      17.23111163       0.01079749       0.00389075       0.14262990       0.01518085       0.00655290       0.14977794       0.03967295       0.00686677      -0.07841430
Cu       7.70118453       5.13076494      17.25160805      -0.00007313       0.00230240       0.15026627      -0.00026218       0.00039659       0.16038772      -0.00066965      -0.02199444      -0.05112656
O        2.55518145       2.47229121      20.17885433       0.04551043       0.11368706       0.11406308       0.00021914      -0.03227603       0.02367728       0.51282386       0.33849774       0.65585982
C        2.65696761       3.24226095      19.05663106       0.04366790       0.06686296       0.09032249       0.00030506       0.00266658       0.05246448      -0.19921952      -0.18550543       0.51794594
H        3.41352162       2.00981013      20.30335245       0.00658313      -0.21428805      -0.12263664       0.00002645      -0.02224770       0.00040054       0.04889599      -0.01504312      -0.67640269
O        2.57548237       4.48414131      19.18186844      -0.05792223       0.04909146       0.00068442       0.00061065      -0.01852806       0.04528921      -0.44613907      -0.27499091      -0.20094422
52
Lattice="10.26719046282867 0.0 0.0 0.0 7.700392847121503 0.0 0.0 0.0 27.347850919999996" Properties=species:S:1:pos:R:3:MACE_forces:R:3:forces:R:3:DFT_forces:R:3 method=neb MACE_energy=-207.5147445279326 energy=-207.65077670682652 stress="0.009273451154845076 -4.408335087359909e-07 -8.570739400643434e-07 -4.408335087359909e-07 0.008782818095491621 0.00016132177534819965 -8.570739400643434e-07 0.00016132177534819965 0.0011041063492616735" free_energy=-207.65077670682652 DFT_energy=-210.93319395 pbc="T T T"
Cu       1.28339881       1.28339881      11.83696273       0.00000000       0.00000000       0.00000000       0.00054538      -0.00039471       0.18436377      -0.00580596       0.00185097       0.43157846
Cu       3.85019642       1.28339881      11.83696273       0.00000000       0.00000000       0.00000000      -0.00054435      -0.00039637       0.18436194       0.00909956       0.00472488       0.41677506
Cu       6.41699404       1.28339881      11.83696273       0.00000000       0.00000000       0.00000000      -0.00092168       0.00050522       0.18406174      -0.04136644       0.00444027       0.44335225
Cu       8.98379165       1.28339881      11.83696273       0.00000000       0.00000000       0.00000000       0.00092019       0.00050763       0.18406538       0.03475986       0.00164023       0.43865845
Cu       1.28339881       3.85019642      11.83696273       0.00000000       0.00000000       0.00000000      -0.00021878       0.00035897       0.18264049      -0.00003384       0.00192793       0.42919423
Cu       3.85019642       3.85019642      11.83696273       0.00000000       0.00000000       0.00000000       0.00021921       0.00036050       0.18263518       0.00420192      -0.00577645       0.42311291
Cu       6.41699404       3.85019642      11.83696273       0.00000000       0.00000000       0.00000000      -0.00125783      -0.00015504       0.18493269      -0.02921139      -0.00356530       0.44880036
Cu       8.98379165       3.85019642      11.83696273       0.00000000       0.00000000       0.00000000       0.00125715      -0.00015804       0.18493761       0.02575321       0.00267327       0.44987582
Cu       1.28339881       6.41699404      11.83696273       0.00000000       0.00000000       0.00000000       0.00048783       0.00011282       0.18565408      -0.00808210      -0.00531663       0.42145117
Cu       3.85019642       6.41699404      11.83696273       0.00000000       0.00000000       0.00000000      -0.00048421       0.00011340       0.18565294       0.01028513       0.00166423       0.43278823
Cu       6.41699404       6.41699404      11.83696273       0.00000000       0.00000000       0.00000000      -0.00130941      -0.00031184       0.18548086      -0.03906285      -0.00146111       0.45092172
Cu       8.98379165       6.41699404      11.83696273       0.00000000       0.00000000       0.00000000       0.00130687      -0.00031181       0.18548192       0.03716722      -0.00516536       0.46251120
Cu       7.70039285      -0.00000000      13.67392546       0.00000000       0.00000000       0.00000000      -0.00000459      -0.00045606      -0.09168766      -0.00681262       0.01991565      -0.16432407
Cu       5.13359523      -0.00000000      13.67392546       0.00000000       0.00000000       0.00000000       0.00207406       0.00029677      -0.09746935      -0.02586891      -0.01387061      -0.16963285
Cu       2.56679762      -0.00000000      13.67392546       0.00000000       0.00000000       0.00000000       0.00000433      -0.00228964      -0.10780673       0.00178035      -0.01485218      -0.19259015
Cu       0.00000000      -0.00000000      13.67392546       0.00000000       0.00000000       0.00000000      -0.00207021       0.00027594      -0.09749658       0.02949037      -0.00233079      -0.16875779
Cu       0.00000000       2.56679762      13.67392546       0.00000000       0.00000000       0.00000000      -0.00304513      -0.00059061      -0.09536655       0.00478042       0.02571830      -0.16570898
Cu       2.56679762       2.56679762      13.67392546       0.00000000       0.00000000       0.00000000       0.00001226       0.00334251      -0.08396598      -0.00526069       0.01097271      -0.09551076
Cu       5.13359523       2.56679762      13.67392546       0.00000000       0.00000000       0.00000000       0.00304599      -0.00059093      -0.09531575      -0.00167352       0.03409716      -0.14766588
Cu       7.70039285       2.56679762      13.67392546       0.00000000       0.00000000       0.00000000      -0.00002425       0.00024596      -0.08998245      -0.00085735       0.03086928      -0.15001715
Cu       0.00000000       5.13359523      13.67392546       0.00000000       0.00000000       0.00000000      -0.00080031       0.00090274      -0.09244471       0.00805840      -0.02237733      -0.17879367
Cu       2.56679762       5.13359523      13.67392546       0.00000000       0.00000000       0.00000000       0.00001242      -0.00204136      -0.09676406       0.00033277      -0.00033751      -0.13761245
Cu       5.13359523       5.13359523      13.67392546       0.00000000       0.00000000       0.00000000       0.00079202       0.00088929      -0.09239408      -0.00765280      -0.02040185      -0.17538122
Cu       7.70039285       5.13359523      13.67392546       0.00000000       0.00000000       0.00000000       0.00000348       0.00040959      -0.09684921       0.00281845      -0.04856643      -0.16247373
Cu       1.28339881       1.28339881      15.51088819       0.00000000       0.00000000       0.00000000      -0.01469815       0.02191425      -0.29773629       0.06399641       0.06801983      -0.23195782
Cu       3.85019642       1.28339881      15.51088819       0.00000000       0.00000000       0.00000000       0.01499254       0.02181485      -0.29807164       0.00977116       0.01711344      -0.34125428
Cu       6.41699404       1.28339881      15.51088819       0.00000000       0.00000000       0.00000000      -0.01079831       0.02366442      -0.24307168      -0.07649730       0.04234987      -0.13160294
Cu       8.98379165       1.28339881      15.51088819       0.00000000       0.00000000       0.00000000       0.01038163       0.02338985      -0.24330219       0.00067555      -0.01255430      -0.18414393
Cu       1.28339881       3.85019642      15.51088819       0.00000000       0.00000000       0.00000000       0.08024732       0.04114655      -0.17708143       0.11059387      -0.03973339      -0.18899986
Cu       3.85019642       3.85019642      15.51088819       0.00000000       0.00000000       0.00000000      -0.08001170       0.04148323      -0.17723043      -0.08034606       0.01247418      -0.24880479
Cu       6.41699404       3.85019642      15.51088819       0.00000000       0.00000000       0.00000000      -0.00735056      -0.04009830      -0.26373072      -0.09954348      -0.07277568      -0.14916975
Cu       8.98379165       3.85019642      15.51088819       0.00000000       0.00000000       0.00000000       0.00703189      -0.03992705      -0.26404419       0.03480026      -0.03698079      -0.19056211
Cu       1.28339881       6.41699404      15.51088819       0.00000000       0.00000000       0.00000000       0.02105574      -0.03744787      -0.23010730       0.05242670      -0.04457606      -0.22887785
Cu       3.85019642       6.41699404      15.51088819       0.00000000       0.00000000       0.00000000      -0.02090402      -0.03753925      -0.22991127      -0.07462406      -0.04992602      -0.19509820
Cu       6.41699404       6.41699404      15.51088819       0.00000000       0.00000000       0.00000000       0.02873606       0.03701477      -0.30287250       0.03553334       0.07262226      -0.25549385
Cu       8.98379165       6.41699404      15.51088819       0.00000000       0.00000000       0.00000000      -0.02833957       0.03686325      -0.30281928      -0.02575177       0.06473999      -0.24130742
Cu       7.69963648       7.70001309      17.25075708       0.00186905      -0.00218222       0.15076078      -0.00013841      -0.00094561       0.15977881       0.00162894       0.01009583      -0.07338843
Cu       5.13272092       7.71035777      17.25054762       0.00950793      -0.00089748       0.14318207       0.00927879      -0.00311443       0.15181801       0.00117605       0.00197401      -0.07063144
Cu       2.56746680       7.69038817      17.24826165       0.00024014      -0.00334119       0.13650355       0.00002791      -0.00636749       0.14183812       0.00119989      -0.00396416      -0.12621698
Cu      10.26806399       7.70374036      17.24879828      -0.00630058      -0.00104478       0.14549106      -0.00938203      -0.00309062       0.15173828       0.00048849       0.02209782      -0.07099235
Cu      10.26552730       2.56824552      17.25550948      -0.01445172      -0.00358504       0.13821973      -0.01856196      -0.00269710       0.14567797      -0.06293701      -0.03856581      -0.14081924
Cu       2.58349355       2.47595964      17.30697446       0.00560824       0.00728191       0.18009819      -0.00035347       0.00022884       0.14079502       0.05443813       0.05888593       0.15632898
Cu       5.10349493       2.57960696      17.29343255       0.01240975       0.00210127       0.14365928       0.01823756      -0.00265995       0.14584234       0.18025726      -0.03129723      -0.23387899
Cu       7.68921836       2.56796525      17.25018069       0.00065817      -0.00136696       0.14927316       0.00006068       0.00006862       0.16002041      -0.00772141      -0.00306357      -0.05998910
Cu      10.23695621       5.14190716      17.23315082      -0.01526313       0.00648199       0.14304674      -0.01563785       0.00650742       0.14977893      -0.04556137       0.00359762      -0.08773293
Cu       2.55926573       5.18652704      17.27828320      -0.00508693      -0.00336188       0.14378001       0.00004552      -0.01739759       0.17396839      -0.02275297       0.14724879      -0.16074232
Cu       5.16243340       5.14851075      17.23178819       0.00909765       0.00751238       0.14311544       0.01518085       0.00655290       0.14977794       0.04298096       0.01812517      -0.08201852
Cu       7.70005615       5.13254741      17.25165375      -0.00105862      -0.00033320       0.15029276      -0.00026218       0.00039659       0.16038772      -0.00297651      -0.01940472      -0.05268797
O        2.68860364       2.57823509      20.24011514       0.16142586       0.13829017       0.10188282       0.00021914      -0.03227603       0.02367728       0.57684145       0.28275044       0.52504171
C        2.70115847       3.28142044      19.07927256       0.07540899       0.01025803       0.07839303       0.00030506       0.00266658       0.05246448      -0.17931656      -0.03792619       0.48779954
H        3.38206303       1.88212165      20.21082409      -0.10631194      -0.25133039      -0.17924762       0.00002645      -0.02224770       0.00040054       0.08450825      -0.33031264      -0.45107486
O        2.52388016       4.51677715      19.17006827      -0.06491723       0.08300675       0.02104067       0.00061065      -0.01852806       0.04528921      -0.57012736      -0.09748797      -0.31227548
52
Lattice="10.26719046282867 0.0 0.0 0.0 7.700392847121503 0.0 0.0 0.0 27.347850919999996" Properties=species:S:1:pos:R:3:MACE_forces:R:3:forces:R:3:DFT_forces:R:3 method=neb MACE_energy=-207.58628079228802 energy=-207.65077670682652 stress="0.009273451154845076 -4.408335087359909e-07 -8.570739400643434e-07 -4.408335087359909e-07 0.008782818095491621 0.00016132177534819965 -8.570739400643434e-07 0.00016132177534819965 0.0011041063492616735" free_energy=-207.65077670682652 DFT_energy=-211.06239939 pbc="T T T"
Cu       1.28339881       1.28339881      11.83696273       0.00000000       0.00000000       0.00000000       0.00054538      -0.00039471       0.18436377      -0.00541464       0.00258461       0.43294722
Cu       3.85019642       1.28339881      11.83696273       0.00000000       0.00000000       0.00000000      -0.00054435      -0.00039637       0.18436194       0.00990070       0.00466896       0.41559404
Cu       6.41699404       1.28339881      11.83696273       0.00000000       0.00000000       0.00000000      -0.00092168       0.00050522       0.18406174      -0.04184757       0.00494657       0.44524336
Cu       8.98379165       1.28339881      11.83696273       0.00000000       0.00000000       0.00000000       0.00092019       0.00050763       0.18406538       0.03468202       0.00222178       0.43824610
Cu       1.28339881       3.85019642      11.83696273       0.00000000       0.00000000       0.00000000      -0.00021878       0.00035897       0.18264049      -0.00006273       0.00244141       0.42969811
Cu       3.85019642       3.85019642      11.83696273       0.00000000       0.00000000       0.00000000       0.00021921       0.00036050       0.18263518       0.00385651      -0.00610430       0.42349560
Cu       6.41699404       3.85019642      11.83696273       0.00000000       0.00000000       0.00000000      -0.00125783      -0.00015504       0.18493269      -0.02944768      -0.00428392       0.44999237
Cu       8.98379165       3.85019642      11.83696273       0.00000000       0.00000000       0.00000000       0.00125715      -0.00015804       0.18493761       0.02636534       0.00211959       0.45064744
Cu       1.28339881       6.41699404      11.83696273       0.00000000       0.00000000       0.00000000       0.00048783       0.00011282       0.18565408      -0.00834002      -0.00686246       0.42183340
Cu       3.85019642       6.41699404      11.83696273       0.00000000       0.00000000       0.00000000      -0.00048421       0.00011340       0.18565294       0.01003913       0.00215677       0.43268366
Cu       6.41699404       6.41699404      11.83696273       0.00000000       0.00000000       0.00000000      -0.00130941      -0.00031184       0.18548086      -0.03889705      -0.00114760       0.45203217
Cu       8.98379165       6.41699404      11.83696273       0.00000000       0.00000000       0.00000000       0.00130687      -0.00031181       0.18548192       0.03723882      -0.00541437       0.46302474
Cu       7.70039285      -0.00000000      13.67392546       0.00000000       0.00000000       0.00000000      -0.00000459      -0.00045606      -0.09168766      -0.00711684       0.01925763      -0.16407662
Cu       5.13359523      -0.00000000      13.67392546       0.00000000       0.00000000       0.00000000       0.00207406       0.00029677      -0.09746935      -0.02619176      -0.01415593      -0.17031456
Cu       2.56679762      -0.00000000      13.67392546       0.00000000       0.00000000       0.00000000       0.00000433      -0.00228964      -0.10780673       0.00140251      -0.01373258      -0.19277040
Cu       0.00000000      -0.00000000      13.67392546       0.00000000       0.00000000       0.00000000      -0.00207021       0.00027594      -0.09749658       0.03060660      -0.00183225      -0.16769869
Cu       0.00000000       2.56679762      13.67392546       0.00000000       0.00000000       0.00000000      -0.00304513      -0.00059061      -0.09536655       0.00582989       0.02483530      -0.16546953
Cu       2.56679762       2.56679762      13.67392546       0.00000000       0.00000000       0.00000000       0.00001226       0.00334251      -0.08396598      -0.00629566       0.01111927      -0.09630864
Cu       5.13359523       2.56679762      13.67392546       0.00000000       0.00000000       0.00000000       0.00304599      -0.00059093      -0.09531575      -0.00160609       0.03549312      -0.14897010
Cu       7.70039285       2.56679762      13.67392546       0.00000000       0.00000000       0.00000000      -0.00002425       0.00024596      -0.08998245      -0.00047965       0.03043034      -0.15140152
Cu       0.00000000       5.13359523      13.67392546       0.00000000       0.00000000       0.00000000      -0.00080031       0.00090274      -0.09244471       0.00756278      -0.02221627      -0.18016416
Cu       2.56679762       5.13359523      13.67392546       0.00000000       0.00000000       0.00000000       0.00001242      -0.00204136      -0.09676406       0.00028424      -0.00130141      -0.13856382
Cu       5.13359523       5.13359523      13.67392546       0.00000000       0.00000000       0.00000000       0.00079202       0.00088929      -0.09239408      -0.00700994      -0.02155296      -0.17701564
Cu       7.70039285       5.13359523      13.67392546       0.00000000       0.00000000       0.00000000       0.00000348       0.00040959      -0.09684921       0.00250605      -0.04797204      -0.16344517
Cu       1.28339881       1.28339881      15.51088819       0.00000000       0.00000000       0.00000000      -0.01469815       0.02191425      -0.29773629       0.07691054       0.08206228      -0.21015257
Cu       3.85019642       1.28339881      15.51088819       0.00000000       0.00000000       0.00000000       0.01499254       0.02181485      -0.29807164      -0.00461665       0.02939267      -0.32407301
Cu       6.41699404       1.28339881      15.51088819       0.00000000       0.00000000       0.00000000      -0.01079831       0.02366442      -0.24307168      -0.07939832       0.04473598      -0.12824866
Cu       8.98379165       1.28339881      15.51088819       0.00000000       0.00000000       0.00000000       0.01038163       0.02338985      -0.24330219      -0.00283820      -0.01563687      -0.18908164
Cu       1.28339881       3.85019642      15.51088819       0.00000000       0.00000000       0.00000000       0.08024732       0.04114655      -0.17708143       0.11453759      -0.05258084      -0.18309240
Cu       3.85019642       3.85019642      15.51088819       0.00000000       0.00000000       0.00000000      -0.08001170       0.04148323      -0.17723043      -0.09331182       0.00614949      -0.23538781
Cu       6.41699404       3.85019642      15.51088819       0.00000000       0.00000000       0.00000000      -0.00735056      -0.04009830      -0.26373072      -0.10042693      -0.07225808      -0.14795761
Cu       8.98379165       3.85019642      15.51088819       0.00000000       0.00000000       0.00000000       0.00703189      -0.03992705      -0.26404419       0.03348406      -0.03729556      -0.19409409
Cu       1.28339881       6.41699404      15.51088819       0.00000000       0.00000000       0.00000000       0.02105574      -0.03744787      -0.23010730       0.04737480      -0.04182096      -0.23641300
Cu       3.85019642       6.41699404      15.51088819       0.00000000       0.00000000       0.00000000      -0.02090402      -0.03753925      -0.22991127      -0.07803453      -0.04999351      -0.19184601
Cu       6.41699404       6.41699404      15.51088819       0.00000000       0.00000000       0.00000000       0.02873606       0.03701477      -0.30287250       0.03248514       0.07193262      -0.25187682
Cu       8.98379165       6.41699404      15.51088819       0.00000000       0.00000000       0.00000000      -0.02833957       0.03686325      -0.30281928      -0.02612928       0.06521127      -0.24196087
Cu       7.69866850       7.70136039      17.25068222       0.00417265      -0.00446222       0.15072965      -0.00013841      -0.00094561       0.15977881       0.00394889       0.00681547      -0.07389642
Cu       5.13172464       7.70981418      17.25083557       0.01130983       0.00172820       0.14301190       0.00927879      -0.00311443       0.15181801      -0.00094367       0.00309002      -0.07074540
Cu       2.56700740       7.69321495      17.24928437       0.00174289      -0.01326509       0.13435686       0.00002791      -0.00636749       0.14183812       0.00119128      -0.01105566      -0.12878573
Cu      10.26740023       7.70180485      17.24870280      -0.00459299       0.00180442       0.14599888      -0.00938203      -0.00309062       0.15173828       0.00427143       0.02760962      -0.07013856
Cu      10.26315571       2.56564683      17.25470623      -0.00268769       0.00064903       0.13857236      -0.01856196      -0.00269710       0.14567797      -0.05048197      -0.03911710      -0.13699787
Cu       2.58519681       2.47577893      17.32215650      -0.01138700       0.01030945       0.13762133      -0.00035347       0.00022884       0.14079502       0.03727351       0.06575521       0.10360053
Cu       5.10171731       2.57985100      17.29335619       0.02781333       0.00316225       0.13893633       0.01823756      -0.00265995       0.14584234       0.19563147      -0.02985338      -0.23733221
Cu       7.68981809       2.56931514      17.25002806      -0.00658406      -0.00333270       0.14923327       0.00006068       0.00006862       0.16002041      -0.01478125      -0.00489807      -0.06151938
Cu      10.23531053       5.13982476      17.23279504      -0.01418369       0.00837396       0.14471050      -0.01563785       0.00650742       0.14977893      -0.04127196       0.00470767      -0.08509035
Cu       2.55640079       5.18763257      17.27588607      -0.00751711      -0.00289964       0.15094168       0.00004552      -0.01739759       0.17396839      -0.01859570       0.13586029      -0.12572686
Cu       5.16066678       5.14751500      17.23253580       0.00730256       0.00956298       0.14346319       0.01518085       0.00655290       0.14977794       0.04440729       0.02141377      -0.08476048
Cu       7.69925509       5.13386674      17.25164976      -0.00197402      -0.00219627       0.15020151      -0.00026218       0.00039659       0.16038772      -0.00438139      -0.01840254      -0.05447205
O        2.80370233       2.62589967      20.25355524       0.17659926       0.09428477       0.04458095       0.00021914      -0.03227603       0.02367728       0.50419988       0.09111576       0.39892416
C        2.71807531       3.30203953      19.08533851       0.06710109      -0.02678338       0.07952891       0.00030506       0.00266658       0.05246448      -0.06437663       0.02580441       0.45179572
H        3.32367210       1.79730687      20.13929794      -0.15018855      -0.13958519      -0.16302014       0.00002645      -0.02224770       0.00040054       0.01162637      -0.49994694      -0.33876905
O        2.49045414       4.52984313      19.17497476      -0.00871571       0.04241130       0.05287905       0.00061065      -0.01852806       0.04528921      -0.52531894       0.19550374      -0.29114088
52
Lattice="10.26719046282867 0.0 0.0 0.0 7.700392847121503 0.0 0.0 0.0 27.347850919999996" Properties=species:S:1:pos:R:3:MACE_forces:R:3:forces:R:3:DFT_forces:R:3 method=neb MACE_energy=-207.63416715061655 energy=-207.65077670682652 stress="0.009273451154845076 -4.408335087359909e-07 -8.570739400643434e-07 -4.408335087359909e-07 0.008782818095491621 0.00016132177534819965 -8.570739400643434e-07 0.00016132177534819965 0.0011041063492616735" free_energy=-207.65077670682652 DFT_energy=-211.14166558 pbc="T T T"
Cu       1.28339881       1.28339881      11.83696273       0.00000000       0.00000000       0.00000000       0.00054538      -0.00039471       0.18436377      -0.00583783       0.00194171       0.43311405
Cu       3.85019642       1.28339881      11.83696273       0.00000000       0.00000000       0.00000000      -0.00054435      -0.00039637       0.18436194       0.01016265       0.00335491       0.41607060
Cu       6.41699404       1.28339881      11.83696273       0.00000000       0.00000000       0.00000000      -0.00092168       0.00050522       0.18406174      -0.04177543       0.00467897       0.44540534
Cu       8.98379165       1.28339881      11.83696273       0.00000000       0.00000000       0.00000000       0.00092019       0.00050763       0.18406538       0.03543752       0.00182816       0.43830215
Cu       1.28339881       3.85019642      11.83696273       0.00000000       0.00000000       0.00000000      -0.00021878       0.00035897       0.18264049      -0.00084844       0.00333065       0.42936147
Cu       3.85019642       3.85019642      11.83696273       0.00000000       0.00000000       0.00000000       0.00021921       0.00036050       0.18263518       0.00375220      -0.00460099       0.42404369
Cu       6.41699404       3.85019642      11.83696273       0.00000000       0.00000000       0.00000000      -0.00125783      -0.00015504       0.18493269      -0.03001816      -0.00353467       0.45083651
Cu       8.98379165       3.85019642      11.83696273       0.00000000       0.00000000       0.00000000       0.00125715      -0.00015804       0.18493761       0.02835546       0.00224820       0.45097342
Cu       1.28339881       6.41699404      11.83696273       0.00000000       0.00000000       0.00000000       0.00048783       0.00011282       0.18565408      -0.00878677      -0.00685500       0.42270017
Cu       3.85019642       6.41699404      11.83696273       0.00000000       0.00000000       0.00000000      -0.00048421       0.00011340       0.18565294       0.00979110       0.00238133       0.43160711
Cu       6.41699404       6.41699404      11.83696273       0.00000000       0.00000000       0.00000000      -0.00130941      -0.00031184       0.18548086      -0.03791676      -0.00134733       0.45333823
Cu       8.98379165       6.41699404      11.83696273       0.00000000       0.00000000       0.00000000       0.00130687      -0.00031181       0.18548192       0.03726235      -0.00522022       0.46141550
Cu       7.70039285      -0.00000000      13.67392546       0.00000000       0.00000000       0.00000000      -0.00000459      -0.00045606      -0.09168766      -0.00699899       0.02073201      -0.16406338
Cu       5.13359523      -0.00000000      13.67392546       0.00000000       0.00000000       0.00000000       0.00207406       0.00029677      -0.09746935      -0.02587117      -0.01387732      -0.16989511
Cu       2.56679762      -0.00000000      13.67392546       0.00000000       0.00000000       0.00000000       0.00000433      -0.00228964      -0.10780673       0.00138108      -0.01537763      -0.19181230
Cu       0.00000000      -0.00000000      13.67392546       0.00000000       0.00000000       0.00000000      -0.00207021       0.00027594      -0.09749658       0.03058152      -0.00357263      -0.16665151
Cu       0.00000000       2.56679762      13.67392546       0.00000000       0.00000000       0.00000000      -0.00304513      -0.00059061      -0.09536655       0.00494446       0.02511498      -0.16486072
Cu       2.56679762       2.56679762      13.67392546       0.00000000       0.00000000       0.00000000       0.00001226       0.00334251      -0.08396598      -0.00604527       0.01208870      -0.09470445
Cu       5.13359523       2.56679762      13.67392546       0.00000000       0.00000000       0.00000000       0.00304599      -0.00059093      -0.09531575      -0.00119968       0.03539802      -0.15009798
Cu       7.70039285       2.56679762      13.67392546       0.00000000       0.00000000       0.00000000      -0.00002425       0.00024596      -0.08998245       0.00035276       0.02909753      -0.15100226
Cu       0.00000000       5.13359523      13.67392546       0.00000000       0.00000000       0.00000000      -0.00080031       0.00090274      -0.09244471       0.00739910      -0.02078398      -0.18132394
Cu       2.56679762       5.13359523      13.67392546       0.00000000       0.00000000       0.00000000       0.00001242      -0.00204136      -0.09676406       0.00050555      -0.00090746      -0.13895441
Cu       5.13359523       5.13359523      13.67392546       0.00000000       0.00000000       0.00000000       0.00079202       0.00088929      -0.09239408      -0.00658585      -0.02141357      -0.17729224
Cu       7.70039285       5.13359523      13.67392546       0.00000000       0.00000000       0.00000000       0.00000348       0.00040959      -0.09684921       0.00224104      -0.04744412      -0.16377452
Cu       1.28339881       1.28339881      15.51088819       0.00000000       0.00000000       0.00000000      -0.01469815       0.02191425      -0.29773629       0.06677636       0.07084071      -0.22707444
Cu       3.85019642       1.28339881      15.51088819       0.00000000       0.00000000       0.00000000       0.01499254       0.02181485      -0.29807164      -0.00657809       0.02824672      -0.32099331
Cu       6.41699404       1.28339881      15.51088819       0.00000000       0.00000000       0.00000000      -0.01079831       0.02366442      -0.24307168      -0.07425634       0.04117261      -0.13269478
Cu       8.98379165       1.28339881      15.51088819       0.00000000       0.00000000       0.00000000       0.01038163       0.02338985      -0.24330219       0.00096795      -0.01257652      -0.18533478
Cu       1.28339881       3.85019642      15.51088819       0.00000000       0.00000000       0.00000000       0.08024732       0.04114655      -0.17708143       0.10498007      -0.03809025      -0.19581939
Cu       3.85019642       3.85019642      15.51088819       0.00000000       0.00000000       0.00000000      -0.08001170       0.04148323      -0.17723043      -0.09410986       0.01357080      -0.23215364
Cu       6.41699404       3.85019642      15.51088819       0.00000000       0.00000000       0.00000000      -0.00735056      -0.04009830      -0.26373072      -0.09660992      -0.06644264      -0.15047628
Cu       8.98379165       3.85019642      15.51088819       0.00000000       0.00000000       0.00000000       0.00703189      -0.03992705      -0.26404419       0.03554025      -0.03935499      -0.19174193
Cu       1.28339881       6.41699404      15.51088819       0.00000000       0.00000000       0.00000000       0.02105574      -0.03744787      -0.23010730       0.05189691      -0.04093960      -0.22936823
Cu       3.85019642       6.41699404      15.51088819       0.00000000       0.00000000       0.00000000      -0.02090402      -0.03753925      -0.22991127      -0.08107989      -0.04673013      -0.18717451
Cu       6.41699404       6.41699404      15.51088819       0.00000000       0.00000000       0.00000000       0.02873606       0.03701477      -0.30287250       0.03108010       0.07089011      -0.24916106
Cu       8.98379165       6.41699404      15.51088819       0.00000000       0.00000000       0.00000000      -0.02833957       0.03686325      -0.30281928      -0.02795317       0.06480279      -0.24358499
Cu       7.69883249       7.70146877      17.25053108       0.00431395      -0.00471161       0.15084127      -0.00013841      -0.00094561       0.15977881       0.00454145       0.00716619      -0.07412859
Cu       5.13184848       7.71029518      17.25110068       0.01204161      -0.00043920       0.14254433       0.00927879      -0.00311443       0.15181801      -0.00434235       0.00094246      -0.06976266
Cu       2.56767762       7.69581770      17.25190256       0.00230221      -0.01250363       0.13653645       0.00002791      -0.00636749       0.14183812      -0.00003690      -0.01397969      -0.13851871
Cu      10.26743807       7.70129091      17.24877543      -0.00401697       0.00320780       0.14629747      -0.00938203      -0.00309062       0.15173828       0.00821911       0.03010034      -0.06770893
Cu      10.26442688       2.56581814      17.25591182      -0.00787632       0.00221907       0.14044204      -0.01856196      -0.00269710       0.14567797      -0.06452513      -0.04130168      -0.13831466
Cu       2.57832403       2.48122363      17.31368416      -0.01243694       0.01374742       0.11714309      -0.00035347       0.00022884       0.14079502       0.03010837       0.07229235       0.09698154
Cu       5.10473786       2.57987941      17.28931083       0.02326206       0.00122678       0.13125324       0.01823756      -0.00265995       0.14584234       0.17578158      -0.03080700      -0.23133207
Cu       7.69047200       2.56937622      17.24997413      -0.00263568      -0.00344894       0.14930442       0.00006068       0.00006862       0.16002041      -0.00932100      -0.00578434      -0.06338978
Cu      10.23485957       5.13958576      17.23292046      -0.01251519       0.00847508       0.14543137      -0.01563785       0.00650742       0.14977893      -0.03849521       0.00485865      -0.08345421
Cu       2.55463601       5.18964195      17.27799102      -0.00543454      -0.01189652       0.17191170       0.00004552      -0.01739759       0.17396839      -0.01249998       0.11648266      -0.08102025
Cu       5.15925447       5.14803155      17.23310350       0.00906062       0.00916199       0.14216041       0.01518085       0.00655290       0.14977794       0.04572418       0.01904237      -0.08647527
Cu       7.69868079       5.13399859      17.25154201      -0.00160750      -0.00248762       0.15026581      -0.00026218       0.00039659       0.16038772      -0.00436375      -0.01847519      -0.05509046
O        2.87406403       2.61158733      20.22393971       0.09854613       0.02342970       0.01770609       0.00021914      -0.03227603       0.02367728       0.31648805      -0.09867667       0.34517339
C        2.71633387       3.30310137      19.07627452       0.04694767      -0.05671223       0.05259889       0.00030506       0.00266658       0.05246448       0.03868278       0.09425774       0.41824449
H        3.19281078       1.69598970      20.03863896      -0.09946511      -0.04239376      -0.09521092       0.00002645      -0.02224770       0.00040054      -0.05616158      -0.61969919      -0.35892478
O        2.49508923       4.52883839      19.19063920       0.04560605       0.04014475       0.05702385       0.00061065      -0.01852806       0.04528921      -0.34073645       0.44093110      -0.20943712
52
Lattice="10.26719046282867 0.0 0.0 0.0 7.700392847121503 0.0 0.0 0.0 27.347850919999996" Properties=species:S:1:pos:R:3:MACE_forces:R:3:forces:R:3:DFT_forces:R:3 method=neb MACE_energy=-207.6510762777035 energy=-207.65077670682652 stress="0.009273451154845076 -4.408335087359909e-07 -8.570739400643434e-07 -4.408335087359909e-07 0.008782818095491621 0.00016132177534819965 -8.570739400643434e-07 0.00016132177534819965 0.0011041063492616735" free_energy=-207.65077670682652 DFT_energy=-211.16706024 pbc="T T T"
Cu       1.28339881       1.28339881      11.83696273       0.00000000       0.00000000       0.00000000       0.00054538      -0.00039471       0.18436377      -0.00637167       0.00094663       0.43199801
Cu       3.85019642       1.28339881      11.83696273       0.00000000       0.00000000       0.00000000      -0.00054435      -0.00039637       0.18436194       0.00986378       0.00222492       0.41683594
Cu       6.41699404       1.28339881      11.83696273       0.00000000       0.00000000       0.00000000      -0.00092168       0.00050522       0.18406174      -0.04156595       0.00420000       0.44455800
Cu       8.98379165       1.28339881      11.83696273       0.00000000       0.00000000       0.00000000       0.00092019       0.00050763       0.18406538       0.03607261       0.00119163       0.43852730
Cu       1.28339881       3.85019642      11.83696273       0.00000000       0.00000000       0.00000000      -0.00021878       0.00035897       0.18264049      -0.00163922       0.00407026       0.42829945
Cu       3.85019642       3.85019642      11.83696273       0.00000000       0.00000000       0.00000000       0.00021921       0.00036050       0.18263518       0.00363888      -0.00312938       0.42419519
Cu       6.41699404       3.85019642      11.83696273       0.00000000       0.00000000       0.00000000      -0.00125783      -0.00015504       0.18493269      -0.03060513      -0.00253055       0.45061273
Cu       8.98379165       3.85019642      11.83696273       0.00000000       0.00000000       0.00000000       0.00125715      -0.00015804       0.18493761       0.03015480       0.00271312       0.45066969
Cu       1.28339881       6.41699404      11.83696273       0.00000000       0.00000000       0.00000000       0.00048783       0.00011282       0.18565408      -0.00918403      -0.00641902       0.42289896
Cu       3.85019642       6.41699404      11.83696273       0.00000000       0.00000000       0.00000000      -0.00048421       0.00011340       0.18565294       0.00943033       0.00223392       0.43024763
Cu       6.41699404       6.41699404      11.83696273       0.00000000       0.00000000       0.00000000      -0.00130941      -0.00031184       0.18548086      -0.03696313      -0.00180347       0.45390423
Cu       8.98379165       6.41699404      11.83696273       0.00000000       0.00000000       0.00000000       0.00130687      -0.00031181       0.18548192       0.03718715      -0.00513151       0.45934796
Cu       7.70039285      -0.00000000      13.67392546       0.00000000       0.00000000       0.00000000      -0.00000459      -0.00045606      -0.09168766      -0.00693270       0.02239906      -0.16472255
Cu       5.13359523      -0.00000000      13.67392546       0.00000000       0.00000000       0.00000000       0.00207406       0.00029677      -0.09746935      -0.02562984      -0.01354090      -0.16970104
Cu       2.56679762      -0.00000000      13.67392546       0.00000000       0.00000000       0.00000000       0.00000433      -0.00228964      -0.10780673       0.00134139      -0.01739620      -0.19094299
Cu       0.00000000      -0.00000000      13.67392546       0.00000000       0.00000000       0.00000000      -0.00207021       0.00027594      -0.09749658       0.03013278      -0.00537126      -0.16635457
Cu       0.00000000       2.56679762      13.67392546       0.00000000       0.00000000       0.00000000      -0.00304513      -0.00059061      -0.09536655       0.00358050       0.02576873      -0.16456956
Cu       2.56679762       2.56679762      13.67392546       0.00000000       0.00000000       0.00000000       0.00001226       0.00334251      -0.08396598      -0.00535307       0.01274917      -0.09351739
Cu       5.13359523       2.56679762      13.67392546       0.00000000       0.00000000       0.00000000       0.00304599      -0.00059093      -0.09531575      -0.00090475       0.03457170      -0.15167426
Cu       7.70039285       2.56679762      13.67392546       0.00000000       0.00000000       0.00000000      -0.00002425       0.00024596      -0.08998245       0.00086899       0.02771270      -0.15054062
Cu       0.00000000       5.13359523      13.67392546       0.00000000       0.00000000       0.00000000      -0.00080031       0.00090274      -0.09244471       0.00737099      -0.01978500      -0.18235239
Cu       2.56679762       5.13359523      13.67392546       0.00000000       0.00000000       0.00000000       0.00001242      -0.00204136      -0.09676406       0.00084783      -0.00022270      -0.13927100
Cu       5.13359523       5.13359523      13.67392546       0.00000000       0.00000000       0.00000000       0.00079202       0.00088929      -0.09239408      -0.00655224      -0.02089115      -0.17749444
Cu       7.70039285       5.13359523      13.67392546       0.00000000       0.00000000       0.00000000       0.00000348       0.00040959      -0.09684921       0.00208347      -0.04703729      -0.16421428
Cu       1.28339881       1.28339881      15.51088819       0.00000000       0.00000000       0.00000000      -0.01469815       0.02191425      -0.29773629       0.05290087       0.05398276      -0.24933933
Cu       3.85019642       1.28339881      15.51088819       0.00000000       0.00000000       0.00000000       0.01499254       0.02181485      -0.29807164      -0.00607074       0.02044642      -0.32326968
Cu       6.41699404       1.28339881      15.51088819       0.00000000       0.00000000       0.00000000      -0.01079831       0.02366442      -0.24307168      -0.06780389       0.03665573      -0.13833557
Cu       8.98379165       1.28339881      15.51088819       0.00000000       0.00000000       0.00000000       0.01038163       0.02338985      -0.24330219       0.00663896      -0.00874394      -0.18061228
Cu       1.28339881       3.85019642      15.51088819       0.00000000       0.00000000       0.00000000       0.08024732       0.04114655      -0.17708143       0.09396186      -0.01744547      -0.21073296
Cu       3.85019642       3.85019642      15.51088819       0.00000000       0.00000000       0.00000000      -0.08001170       0.04148323      -0.17723043      -0.09100379       0.02480023      -0.23713591
Cu       6.41699404       3.85019642      15.51088819       0.00000000       0.00000000       0.00000000      -0.00735056      -0.04009830      -0.26373072      -0.09168385      -0.06107653      -0.15420171
Cu       8.98379165       3.85019642      15.51088819       0.00000000       0.00000000       0.00000000       0.00703189      -0.03992705      -0.26404419       0.03875242      -0.04033729      -0.18898911
Cu       1.28339881       6.41699404      15.51088819       0.00000000       0.00000000       0.00000000       0.02105574      -0.03744787      -0.23010730       0.06180699      -0.04414219      -0.21494142
Cu       3.85019642       6.41699404      15.51088819       0.00000000       0.00000000       0.00000000      -0.02090402      -0.03753925      -0.22991127      -0.08625582      -0.04612058      -0.18072967
Cu       6.41699404       6.41699404      15.51088819       0.00000000       0.00000000       0.00000000       0.02873606       0.03701477      -0.30287250       0.03065189       0.06949851      -0.24815204
Cu       8.98379165       6.41699404      15.51088819       0.00000000       0.00000000       0.00000000      -0.02833957       0.03686325      -0.30281928      -0.02897135       0.06406806      -0.24488717
Cu       7.69921853       7.70134521      17.25037639       0.00396216      -0.00447505       0.15094806      -0.00013841      -0.00094561       0.15977881       0.00437485       0.00820937      -0.07426258
Cu       5.13213956       7.71022937      17.25112179       0.01267666      -0.00200017       0.14209805       0.00927879      -0.00311443       0.15181801      -0.00631724       0.00044281      -0.06987874
Cu       2.56828721       7.69672579      17.25513665       0.00200915      -0.00534015       0.13750766       0.00002791      -0.00636749       0.14183812      -0.00291873      -0.01123106      -0.15474654
Cu      10.26766579       7.70151373      17.24896289      -0.00490403       0.00309502       0.14586033      -0.00938203      -0.00309062       0.15173828       0.01132091       0.03000416      -0.06581000
Cu      10.26614462       2.56695689      17.25790944      -0.01297474       0.00227614       0.14132415      -0.01856196      -0.00269710       0.14567797      -0.07847665      -0.04335343      -0.14308780
Cu       2.57159776       2.48791648      17.29970755      -0.01148705       0.00932135       0.11347598      -0.00035347       0.00022884       0.14079502       0.02535856       0.06000536       0.12005659
Cu       5.10762763       2.57945692      17.28435533       0.01900283      -0.00101374       0.13070142       0.01823756      -0.00265995       0.14584234       0.15773684      -0.03252965      -0.21683834
Cu       7.69167930       2.56924149      17.24986497      -0.00041596      -0.00341818       0.14954673       0.00006068       0.00006862       0.16002041      -0.00644424      -0.00678597      -0.06446397
Cu      10.23545876       5.13983404      17.23321455      -0.01149428       0.00917365       0.14521758      -0.01563785       0.00650742       0.14977893      -0.03880905       0.00645188      -0.08465456
Cu       2.55449183       5.18930376      17.28322964      -0.00218962      -0.00883678       0.17441255       0.00004552      -0.01739759       0.17396839      -0.01020199       0.11672243      -0.07284948
Cu       5.15866645       5.14828143      17.23330453       0.01173745       0.00939159       0.14075209       0.01518085       0.00655290       0.14977794       0.04753388       0.01653081      -0.08702274
Cu       7.69856193       5.13394221      17.25144275      -0.00073037      -0.00240154       0.15018902      -0.00026218       0.00039659       0.16038772      -0.00372956      -0.01901361      -0.05532882
O        2.88720949       2.57561240      20.19234074       0.01957020      -0.02093306       0.01380156       0.00021914      -0.03227603       0.02367728       0.15619205      -0.20042877       0.34640699
C        2.70787307       3.29482866      19.06702050       0.03056695      -0.02458416       0.03306075       0.00030506       0.00266658       0.05246448       0.10236776       0.09522129       0.40850165
H        3.06223722       1.62893676      19.96717011      -0.03292930      -0.01669007      -0.03536090       0.00002645      -0.02224770       0.00040054      -0.10453388      -0.62026801      -0.41349547
O        2.51802388       4.52280090      19.20437160       0.07091710       0.01827412       0.04446318       0.00061065      -0.01852806       0.04528921      -0.16724882       0.55091327      -0.13793936
52
Lattice="10.26719046282867 0.0 0.0 0.0 7.700392847121503 0.0 0.0 0.0 27.347850919999996" Properties=species:S:1:pos:R:3:MACE_forces:R:3:forces:R:3:DFT_forces:R:3 method=neb MACE_energy=-207.65358994825604 energy=-207.65077670682652 stress="0.009273451154845076 -4.408335087359909e-07 -8.570739400643434e-07 -4.408335087359909e-07 0.008782818095491621 0.00016132177534819965 -8.570739400643434e-07 0.00016132177534819965 0.0011041063492616735" free_energy=-207.65077670682652 DFT_energy=-211.16930948 pbc="T T T"
Cu       1.28339881       1.28339881      11.83696273       0.00000000       0.00000000       0.00000000       0.00054538      -0.00039471       0.18436377      -0.00686978       0.00053614       0.42956614
Cu       3.85019642       1.28339881      11.83696273       0.00000000       0.00000000       0.00000000      -0.00054435      -0.00039637       0.18436194       0.00913233       0.00218018       0.41807642
Cu       6.41699404       1.28339881      11.83696273       0.00000000       0.00000000       0.00000000      -0.00092168       0.00050522       0.18406174      -0.04142195       0.00325861       0.44280563
Cu       8.98379165       1.28339881      11.83696273       0.00000000       0.00000000       0.00000000       0.00092019       0.00050763       0.18406538       0.03712845       0.00085282       0.43886881
Cu       1.28339881       3.85019642      11.83696273       0.00000000       0.00000000       0.00000000      -0.00021878       0.00035897       0.18264049      -0.00197176       0.00274718       0.42744412
Cu       3.85019642       3.85019642      11.83696273       0.00000000       0.00000000       0.00000000       0.00021921       0.00036050       0.18263518       0.00377551      -0.00275707       0.42390893
Cu       6.41699404       3.85019642      11.83696273       0.00000000       0.00000000       0.00000000      -0.00125783      -0.00015504       0.18493269      -0.03180699      -0.00185422       0.44968459
Cu       8.98379165       3.85019642      11.83696273       0.00000000       0.00000000       0.00000000       0.00125715      -0.00015804       0.18493761       0.03120527       0.00247465       0.44989466
Cu       1.28339881       6.41699404      11.83696273       0.00000000       0.00000000       0.00000000       0.00048783       0.00011282       0.18565408      -0.00927354      -0.00493557       0.42290899
Cu       3.85019642       6.41699404      11.83696273       0.00000000       0.00000000       0.00000000      -0.00048421       0.00011340       0.18565294       0.00965854       0.00107498       0.42897363
Cu       6.41699404       6.41699404      11.83696273       0.00000000       0.00000000       0.00000000      -0.00130941      -0.00031184       0.18548086      -0.03715593      -0.00215558       0.45391394
Cu       8.98379165       6.41699404      11.83696273       0.00000000       0.00000000       0.00000000       0.00130687      -0.00031181       0.18548192       0.03732419      -0.00489892       0.45838008
Cu       7.70039285      -0.00000000      13.67392546       0.00000000       0.00000000       0.00000000      -0.00000459      -0.00045606      -0.09168766      -0.00567693       0.02283071      -0.16569554
Cu       5.13359523      -0.00000000      13.67392546       0.00000000       0.00000000       0.00000000       0.00207406       0.00029677      -0.09746935      -0.02600719      -0.01322291      -0.16930643
Cu       2.56679762      -0.00000000      13.67392546       0.00000000       0.00000000       0.00000000       0.00000433      -0.00228964      -0.10780673       0.00146356      -0.02021773      -0.18976645
Cu       0.00000000      -0.00000000      13.67392546       0.00000000       0.00000000       0.00000000      -0.00207021       0.00027594      -0.09749658       0.02924662      -0.00733742      -0.16769203
Cu       0.00000000       2.56679762      13.67392546       0.00000000       0.00000000       0.00000000      -0.00304513      -0.00059061      -0.09536655       0.00197150       0.02727326      -0.16455813
Cu       2.56679762       2.56679762      13.67392546       0.00000000       0.00000000       0.00000000       0.00001226       0.00334251      -0.08396598      -0.00396184       0.01373887      -0.09264522
Cu       5.13359523       2.56679762      13.67392546       0.00000000       0.00000000       0.00000000       0.00304599      -0.00059093      -0.09531575      -0.00013285       0.03334350      -0.15364858
Cu       7.70039285       2.56679762      13.67392546       0.00000000       0.00000000       0.00000000      -0.00002425       0.00024596      -0.08998245       0.00032502       0.02816104      -0.14984358
Cu       0.00000000       5.13359523      13.67392546       0.00000000       0.00000000       0.00000000      -0.00080031       0.00090274      -0.09244471       0.00837527      -0.01982380      -0.18144620
Cu       2.56679762       5.13359523      13.67392546       0.00000000       0.00000000       0.00000000       0.00001242      -0.00204136      -0.09676406       0.00072265       0.00046311      -0.13926656
Cu       5.13359523       5.13359523      13.67392546       0.00000000       0.00000000       0.00000000       0.00079202       0.00088929      -0.09239408      -0.00757479      -0.02054659      -0.17741815
Cu       7.70039285       5.13359523      13.67392546       0.00000000       0.00000000       0.00000000       0.00000348       0.00040959      -0.09684921       0.00174753      -0.04788470      -0.16456067
Cu       1.28339881       1.28339881      15.51088819       0.00000000       0.00000000       0.00000000      -0.01469815       0.02191425      -0.29773629       0.03712089       0.02676214      -0.28116632
Cu       3.85019642       1.28339881      15.51088819       0.00000000       0.00000000       0.00000000       0.01499254       0.02181485      -0.29807164       0.00863858       0.00104315      -0.33840783
Cu       6.41699404       1.28339881      15.51088819       0.00000000       0.00000000       0.00000000      -0.01079831       0.02366442      -0.24307168      -0.06472914       0.03225438      -0.14148652
Cu       8.98379165       1.28339881      15.51088819       0.00000000       0.00000000       0.00000000       0.01038163       0.02338985      -0.24330219       0.01311335      -0.00323048      -0.17348959
Cu       1.28339881       3.85019642      15.51088819       0.00000000       0.00000000       0.00000000       0.08024732       0.04114655      -0.17708143       0.08984466      -0.00046038      -0.22183032
Cu       3.85019642       3.85019642      15.51088819       0.00000000       0.00000000       0.00000000      -0.08001170       0.04148323      -0.17723043      -0.07582964       0.02783282      -0.24707207
Cu       6.41699404       3.85019642      15.51088819       0.00000000       0.00000000       0.00000000      -0.00735056      -0.04009830      -0.26373072      -0.09061644      -0.06269938      -0.15471749
Cu       8.98379165       3.85019642      15.51088819       0.00000000       0.00000000       0.00000000       0.00703189      -0.03992705      -0.26404419       0.04558916      -0.04244541      -0.18179918
Cu       1.28339881       6.41699404      15.51088819       0.00000000       0.00000000       0.00000000       0.02105574      -0.03744787      -0.23010730       0.07288551      -0.04653041      -0.20164944
Cu       3.85019642       6.41699404      15.51088819       0.00000000       0.00000000       0.00000000      -0.02090402      -0.03753925      -0.22991127      -0.08531894      -0.04733566      -0.17977984
Cu       6.41699404       6.41699404      15.51088819       0.00000000       0.00000000       0.00000000       0.02873606       0.03701477      -0.30287250       0.03303026       0.06870165      -0.24972345
Cu       8.98379165       6.41699404      15.51088819       0.00000000       0.00000000       0.00000000      -0.02833957       0.03686325      -0.30281928      -0.02789658       0.06415346      -0.24526060
Cu       7.70019721       7.69955265      17.25027761       0.00169981      -0.00116431       0.15093669      -0.00013841      -0.00094561       0.15977881       0.00253257       0.01170958      -0.07426108
Cu       5.13302096       7.70997285      17.25090664       0.01106713      -0.00322424       0.14206914       0.00927879      -0.00311443       0.15181801      -0.00953014       0.00235089      -0.06794475
Cu       2.56855209       7.69043907      17.25900118       0.00043779       0.01400118       0.13285663       0.00002791      -0.00636749       0.14183812      -0.00294775       0.00236684      -0.17564916
Cu      10.26843147       7.70419657      17.24949248      -0.00787137      -0.00136005       0.14422175      -0.00938203      -0.00309062       0.15173828       0.01022729       0.02243323      -0.06719755
Cu      10.27020699       2.56976721      17.25944392      -0.01936201      -0.00073396       0.14584012      -0.01856196      -0.00269710       0.14567797      -0.09467169      -0.04202751      -0.14854166
Cu       2.57252211       2.48447896      17.28114201      -0.00957729       0.00441767       0.14745802      -0.00035347       0.00022884       0.14079502       0.02026212       0.04771068       0.18493216
Cu       5.11016931       2.57873797      17.28538840       0.01289461      -0.00303419       0.12401763       0.01823756      -0.00265995       0.14584234       0.14895853      -0.03761974      -0.22400638
Cu       7.69136200       2.56769941      17.24980922       0.00941904      -0.00134645       0.14953408       0.00006068       0.00006862       0.16002041       0.00441139      -0.00604757      -0.06356398
Cu      10.23772449       5.14292608      17.23346494      -0.01215659       0.00674541       0.14286244      -0.01563785       0.00650742       0.14977893      -0.04082058       0.00411707      -0.08577579
Cu       2.56014172       5.18640029      17.28743608      -0.00322313      -0.01825774       0.16970106       0.00004552      -0.01739759       0.17396839      -0.01349585       0.11070917      -0.08400883
Cu       5.16100188       5.14818697      17.23312839       0.00995432       0.00937964       0.14106322       0.01518085       0.00655290       0.14977794       0.04270873       0.01432204      -0.08467039
Cu       7.69986941       5.13224792      17.25146309      -0.00061911       0.00023723       0.14994677      -0.00026218       0.00039659       0.16038772      -0.00222133      -0.01873374      -0.05469744
O        2.75152035       2.52209600      20.18140773       0.06031099      -0.00181810      -0.02242900       0.00021914      -0.03227603       0.02367728       0.18508593      -0.20174706       0.32857452
C        2.66930391       3.26327807      19.06027664      -0.00032739       0.07642681       0.00355712       0.00030506       0.00266658       0.05246448       0.05668148       0.06330501       0.44615128
H        2.91165123       1.57704043      19.93891376      -0.04326716      -0.07698451       0.01568491       0.00002645      -0.02224770       0.00040054      -0.09628593      -0.50978555      -0.45824798
O        2.54342877       4.49954663      19.20021593       0.04347663      -0.01388013       0.07675058       0.00061065      -0.01852806       0.04528921      -0.16694933       0.52559026      -0.08328873
52
Lattice="10.26719046282867 0.0 0.0 0.0 7.700392847121503 0.0 0.0 0.0 27.347850919999996" Properties=species:S:1:pos:R:3:MACE_forces:R:3:forces:R:3:DFT_forces:R:3 method=neb MACE_energy=-207.64718182561126 energy=-207.65077670682652 stress="0.009273451154845076 -4.408335087359909e-07 -8.570739400643434e-07 -4.408335087359909e-07 0.008782818095491621 0.00016132177534819965 -8.570739400643434e-07 0.00016132177534819965 0.0011041063492616735" free_energy=-207.65077670682652 DFT_energy=-211.1607592 pbc="T T T"
Cu       1.28339881       1.28339881      11.83696273       0.00000000       0.00000000       0.00000000       0.00054538      -0.00039471       0.18436377      -0.00810474      -0.00056840       0.42639705
Cu       3.85019642       1.28339881      11.83696273       0.00000000       0.00000000       0.00000000      -0.00054435      -0.00039637       0.18436194       0.00857244       0.00130121       0.42215992
Cu       6.41699404       1.28339881      11.83696273       0.00000000       0.00000000       0.00000000      -0.00092168       0.00050522       0.18406174      -0.04037849       0.00242677       0.44089264
Cu       8.98379165       1.28339881      11.83696273       0.00000000       0.00000000       0.00000000       0.00092019       0.00050763       0.18406538       0.03889155       0.00048272       0.44004103
Cu       1.28339881       3.85019642      11.83696273       0.00000000       0.00000000       0.00000000      -0.00021878       0.00035897       0.18264049      -0.00241627       0.00161688       0.42665748
Cu       3.85019642       3.85019642      11.83696273       0.00000000       0.00000000       0.00000000       0.00021921       0.00036050       0.18263518       0.00394918      -0.00056016       0.42496962
Cu       6.41699404       3.85019642      11.83696273       0.00000000       0.00000000       0.00000000      -0.00125783      -0.00015504       0.18493269      -0.03246008      -0.00083897       0.44980084
Cu       8.98379165       3.85019642      11.83696273       0.00000000       0.00000000       0.00000000       0.00125715      -0.00015804       0.18493761       0.03210436       0.00135311       0.45047308
Cu       1.28339881       6.41699404      11.83696273       0.00000000       0.00000000       0.00000000       0.00048783       0.00011282       0.18565408      -0.00904696      -0.00222054       0.42531259
Cu       3.85019642       6.41699404      11.83696273       0.00000000       0.00000000       0.00000000      -0.00048421       0.00011340       0.18565294       0.00975715      -0.00092240       0.42842440
Cu       6.41699404       6.41699404      11.83696273       0.00000000       0.00000000       0.00000000      -0.00130941      -0.00031184       0.18548086      -0.03656875      -0.00300909       0.45445361
Cu       8.98379165       6.41699404      11.83696273       0.00000000       0.00000000       0.00000000       0.00130687      -0.00031181       0.18548192       0.03691740      -0.00351708       0.45678875
Cu       7.70039285      -0.00000000      13.67392546       0.00000000       0.00000000       0.00000000      -0.00000459      -0.00045606      -0.09168766      -0.00365983       0.02358433      -0.16649372
Cu       5.13359523      -0.00000000      13.67392546       0.00000000       0.00000000       0.00000000       0.00207406       0.00029677      -0.09746935      -0.02597513      -0.01325901      -0.16939872
Cu       2.56679762      -0.00000000      13.67392546       0.00000000       0.00000000       0.00000000       0.00000433      -0.00228964      -0.10780673       0.00159901      -0.02298441      -0.18929198
Cu       0.00000000      -0.00000000      13.67392546       0.00000000       0.00000000       0.00000000      -0.00207021       0.00027594      -0.09749658       0.02815772      -0.01048316      -0.16922445
Cu       0.00000000       2.56679762      13.67392546       0.00000000       0.00000000       0.00000000      -0.00304513      -0.00059061      -0.09536655      -0.00009599       0.02938942      -0.16336295
Cu       2.56679762       2.56679762      13.67392546       0.00000000       0.00000000       0.00000000       0.00001226       0.00334251      -0.08396598      -0.00146098       0.01402972      -0.09106874
Cu       5.13359523       2.56679762      13.67392546       0.00000000       0.00000000       0.00000000       0.00304599      -0.00059093      -0.09531575       0.00042652       0.03115534      -0.15694861
Cu       7.70039285       2.56679762      13.67392546       0.00000000       0.00000000       0.00000000      -0.00002425       0.00024596      -0.08998245       0.00003993       0.02858865      -0.14943153
Cu       0.00000000       5.13359523      13.67392546       0.00000000       0.00000000       0.00000000      -0.00080031       0.00090274      -0.09244471       0.00834686      -0.01917380      -0.18069519
Cu       2.56679762       5.13359523      13.67392546       0.00000000       0.00000000       0.00000000       0.00001242      -0.00204136      -0.09676406       0.00021002       0.00179440      -0.13879576
Cu       5.13359523       5.13359523      13.67392546       0.00000000       0.00000000       0.00000000       0.00079202       0.00088929      -0.09239408      -0.00764302      -0.01855454      -0.17842089
Cu       7.70039285       5.13359523      13.67392546       0.00000000       0.00000000       0.00000000       0.00000348       0.00040959      -0.09684921       0.00160019      -0.04840527      -0.16467718
Cu       1.28339881       1.28339881      15.51088819       0.00000000       0.00000000       0.00000000      -0.01469815       0.02191425      -0.29773629      -0.00458266      -0.00215527      -0.34181270
Cu       3.85019642       1.28339881      15.51088819       0.00000000       0.00000000       0.00000000       0.01499254       0.02181485      -0.29807164       0.03007325      -0.02084617      -0.37443371
Cu       6.41699404       1.28339881      15.51088819       0.00000000       0.00000000       0.00000000      -0.01079831       0.02366442      -0.24307168      -0.04298346       0.02235983      -0.15384443
Cu       8.98379165       1.28339881      15.51088819       0.00000000       0.00000000       0.00000000       0.01038163       0.02338985      -0.24330219       0.02761091       0.00523498      -0.16691187
Cu       1.28339881       3.85019642      15.51088819       0.00000000       0.00000000       0.00000000       0.08024732       0.04114655      -0.17708143       0.06469130       0.02528137      -0.25365759
Cu       3.85019642       3.85019642      15.51088819       0.00000000       0.00000000       0.00000000      -0.08001170       0.04148323      -0.17723043      -0.05752344       0.04036673      -0.27810996
Cu       6.41699404       3.85019642      15.51088819       0.00000000       0.00000000       0.00000000      -0.00735056      -0.04009830      -0.26373072      -0.07858988      -0.05878764      -0.16060786
Cu       8.98379165       3.85019642      15.51088819       0.00000000       0.00000000       0.00000000       0.00703189      -0.03992705      -0.26404419       0.05864385      -0.04510515      -0.17429952
Cu       1.28339881       6.41699404      15.51088819       0.00000000       0.00000000       0.00000000       0.02105574      -0.03744787      -0.23010730       0.07529533      -0.03697495      -0.20243700
Cu       3.85019642       6.41699404      15.51088819       0.00000000       0.00000000       0.00000000      -0.02090402      -0.03753925      -0.22991127      -0.07041649      -0.03650428      -0.19975225
Cu       6.41699404       6.41699404      15.51088819       0.00000000       0.00000000       0.00000000       0.02873606       0.03701477      -0.30287250       0.04084721       0.06808530      -0.25429451
Cu       8.98379165       6.41699404      15.51088819       0.00000000       0.00000000       0.00000000      -0.02833957       0.03686325      -0.30281928      -0.02834909       0.06634644      -0.24878519
Cu       7.70375060       7.69432739      17.25057196      -0.00499110       0.00635536       0.15007517      -0.00013841      -0.00094561       0.15977881      -0.00335347       0.01860627      -0.07673798
Cu       5.13714122       7.71284099      17.25001555       0.00336853      -0.01045231       0.14422300       0.00927879      -0.00311443       0.15181801      -0.01814474      -0.00080004      -0.06585390
Cu       2.57107751       7.68960496      17.25761265      -0.00530387       0.00703819       0.14736125       0.00002791      -0.00636749       0.14183812      -0.00546868      -0.01078362      -0.17668183
Cu      10.27102688       7.71160930      17.24978691      -0.01343817      -0.01135030       0.14458111      -0.00938203      -0.00309062       0.15173828       0.00779012       0.00511452      -0.06677402
Cu      10.27358948       2.57792911      17.26576319      -0.01397053      -0.01106426       0.13986896      -0.01856196      -0.00269710       0.14567797      -0.10702083      -0.04832919      -0.17068636
Cu       2.56761340       2.48063895      17.25456570       0.00105582       0.00912974       0.16547548      -0.00035347       0.00022884       0.14079502       0.01640514       0.05778987       0.23025852
Cu       5.11446113       2.58008621      17.27470971       0.01294123      -0.00846448       0.14643131       0.01823756      -0.00265995       0.14584234       0.14172890      -0.04534887      -0.18738811
Cu       7.69656877       2.56245325      17.24996211      -0.00135257       0.00707270       0.14923815       0.00006068       0.00006862       0.16002041      -0.00579718      -0.00060675      -0.06438391
Cu      10.23875467       5.15069258      17.23339941      -0.01134679      -0.00275432       0.14356204      -0.01563785       0.00650742       0.14977893      -0.04250287      -0.00468905      -0.08614277
Cu       2.56501613       5.18652784      17.28103098      -0.00071429      -0.01976874       0.18558476       0.00004552      -0.01739759       0.17396839      -0.01097714       0.11332185      -0.06758367
Cu       5.16367726       5.15257058      17.23233790       0.01009402      -0.00169186       0.14362956       0.01518085       0.00655290       0.14977794       0.03912010       0.00058885      -0.08153814
Cu       7.70083751       5.12692825      17.25163566       0.00002065       0.00829590       0.14995391      -0.00026218       0.00039659       0.16038772      -0.00011254      -0.01303528      -0.05577943
O        2.61611681       2.48438343      20.14398643       0.07284609      -0.03938139       0.07936244       0.00021914      -0.03227603       0.02367728       0.15251227      -0.27344314       0.46664603
C        2.62050784       3.24222344      19.03407190       0.00736164       0.03057450      -0.00779778       0.00030506       0.00266658       0.05246448      -0.01272679       0.14382438       0.49678803
H        2.71750328       1.53015138      19.90058972      -0.05105656      -0.03420652      -0.00980586       0.00002645      -0.02224770       0.00040054      -0.03758823      -0.55956372      -0.50701797
O        2.58356024       4.48190149      19.18404240      -0.00853295       0.05103043       0.11408540       0.00061065      -0.01852806       0.04528921      -0.13134298       0.59882702      -0.10673921
52
Lattice="10.26719046282867 0.0 0.0 0.0 7.700392847121503 0.0 0.0 0.0 27.347850919999996" Properties=species:S:1:pos:R:3:MACE_forces:R:3:forces:R:3:DFT_forces:R:3 method=neb MACE_energy=-207.6492466802777 energy=-207.65077670682652 stress="0.009273451154845076 -4.408335087359909e-07 -8.570739400643434e-07 -4.408335087359909e-07 0.008782818095491621 0.00016132177534819965 -8.570739400643434e-07 0.00016132177534819965 0.0011041063492616735" free_energy=-207.65077670682652 DFT_energy=-211.1666134 pbc="T T T"
Cu       1.28339881       1.28339881      11.83696273       0.00000000       0.00000000       0.00000000       0.00054538      -0.00039471       0.18436377      -0.00827255      -0.00021615       0.42550685
Cu       3.85019642       1.28339881      11.83696273       0.00000000       0.00000000       0.00000000      -0.00054435      -0.00039637       0.18436194       0.00813900       0.00147620       0.42304809
Cu       6.41699404       1.28339881      11.83696273       0.00000000       0.00000000       0.00000000      -0.00092168       0.00050522       0.18406174      -0.04012235       0.00230085       0.44091036
Cu       8.98379165       1.28339881      11.83696273       0.00000000       0.00000000       0.00000000       0.00092019       0.00050763       0.18406538       0.03916810       0.00065302       0.44053930
Cu       1.28339881       3.85019642      11.83696273       0.00000000       0.00000000       0.00000000      -0.00021878       0.00035897       0.18264049      -0.00270773       0.00097018       0.42627025
Cu       3.85019642       3.85019642      11.83696273       0.00000000       0.00000000       0.00000000       0.00021921       0.00036050       0.18263518       0.00371930      -0.00057602       0.42559977
Cu       6.41699404       3.85019642      11.83696273       0.00000000       0.00000000       0.00000000      -0.00125783      -0.00015504       0.18493269      -0.03277241      -0.00045515       0.44947441
Cu       8.98379165       3.85019642      11.83696273       0.00000000       0.00000000       0.00000000       0.00125715      -0.00015804       0.18493761       0.03254117       0.00094449       0.45054002
Cu       1.28339881       6.41699404      11.83696273       0.00000000       0.00000000       0.00000000       0.00048783       0.00011282       0.18565408      -0.00919015      -0.00179555       0.42567186
Cu       3.85019642       6.41699404      11.83696273       0.00000000       0.00000000       0.00000000      -0.00048421       0.00011340       0.18565294       0.00959157      -0.00106478       0.42794700
Cu       6.41699404       6.41699404      11.83696273       0.00000000       0.00000000       0.00000000      -0.00130941      -0.00031184       0.18548086      -0.03660674      -0.00311155       0.45501055
Cu       8.98379165       6.41699404      11.83696273       0.00000000       0.00000000       0.00000000       0.00130687      -0.00031181       0.18548192       0.03704421      -0.00309523       0.45665832
Cu       7.70039285      -0.00000000      13.67392546       0.00000000       0.00000000       0.00000000      -0.00000459      -0.00045606      -0.09168766      -0.00322074       0.02367258      -0.16642954
Cu       5.13359523      -0.00000000      13.67392546       0.00000000       0.00000000       0.00000000       0.00207406       0.00029677      -0.09746935      -0.02594391      -0.01292308      -0.16952213
Cu       2.56679762      -0.00000000      13.67392546       0.00000000       0.00000000       0.00000000       0.00000433      -0.00228964      -0.10780673       0.00142271      -0.02414302      -0.18832993
Cu       0.00000000      -0.00000000      13.67392546       0.00000000       0.00000000       0.00000000      -0.00207021       0.00027594      -0.09749658       0.02773548      -0.01115479      -0.16903385
Cu       0.00000000       2.56679762      13.67392546       0.00000000       0.00000000       0.00000000      -0.00304513      -0.00059061      -0.09536655      -0.00097488       0.02994078      -0.16273239
Cu       2.56679762       2.56679762      13.67392546       0.00000000       0.00000000       0.00000000       0.00001226       0.00334251      -0.08396598      -0.00091589       0.01484339      -0.09074410
Cu       5.13359523       2.56679762      13.67392546       0.00000000       0.00000000       0.00000000       0.00304599      -0.00059093      -0.09531575       0.00056751       0.03097494      -0.15835481
Cu       7.70039285       2.56679762      13.67392546       0.00000000       0.00000000       0.00000000      -0.00002425       0.00024596      -0.08998245       0.00004927       0.02890375      -0.14903339
Cu       0.00000000       5.13359523      13.67392546       0.00000000       0.00000000       0.00000000      -0.00080031       0.00090274      -0.09244471       0.00853138      -0.01895329      -0.17993922
Cu       2.56679762       5.13359523      13.67392546       0.00000000       0.00000000       0.00000000       0.00001242      -0.00204136      -0.09676406       0.00021447       0.00217668      -0.13911720
Cu       5.13359523       5.13359523      13.67392546       0.00000000       0.00000000       0.00000000       0.00079202       0.00088929      -0.09239408      -0.00839754      -0.01855820      -0.17796889
Cu       7.70039285       5.13359523      13.67392546       0.00000000       0.00000000       0.00000000       0.00000348       0.00040959      -0.09684921       0.00165070      -0.04865148      -0.16456914
Cu       1.28339881       1.28339881      15.51088819       0.00000000       0.00000000       0.00000000      -0.01469815       0.02191425      -0.29773629      -0.01343196      -0.01168009      -0.35649802
Cu       3.85019642       1.28339881      15.51088819       0.00000000       0.00000000       0.00000000       0.01499254       0.02181485      -0.29807164       0.03055868      -0.02320593      -0.37517756
Cu       6.41699404       1.28339881      15.51088819       0.00000000       0.00000000       0.00000000      -0.01079831       0.02366442      -0.24307168      -0.04012661       0.01968632      -0.15597103
Cu       8.98379165       1.28339881      15.51088819       0.00000000       0.00000000       0.00000000       0.01038163       0.02338985      -0.24330219       0.03084552       0.00749507      -0.16453172
Cu       1.28339881       3.85019642      15.51088819       0.00000000       0.00000000       0.00000000       0.08024732       0.04114655      -0.17708143       0.06231522       0.03208269      -0.25866604
Cu       3.85019642       3.85019642      15.51088819       0.00000000       0.00000000       0.00000000      -0.08001170       0.04148323      -0.17723043      -0.05940885       0.04007439      -0.27483529
Cu       6.41699404       3.85019642      15.51088819       0.00000000       0.00000000       0.00000000      -0.00735056      -0.04009830      -0.26373072      -0.07668783      -0.05620625      -0.16161025
Cu       8.98379165       3.85019642      15.51088819       0.00000000       0.00000000       0.00000000       0.00703189      -0.03992705      -0.26404419       0.06148068      -0.04656562      -0.17120953
Cu       1.28339881       6.41699404      15.51088819       0.00000000       0.00000000       0.00000000       0.02105574      -0.03744787      -0.23010730       0.08046626      -0.04229391      -0.19480575
Cu       3.85019642       6.41699404      15.51088819       0.00000000       0.00000000       0.00000000      -0.02090402      -0.03753925      -0.22991127      -0.07308231      -0.03990507      -0.19533377
Cu       6.41699404       6.41699404      15.51088819       0.00000000       0.00000000       0.00000000       0.02873606       0.03701477      -0.30287250       0.04039382       0.06747262      -0.25288240
Cu       8.98379165       6.41699404      15.51088819       0.00000000       0.00000000       0.00000000      -0.02833957       0.03686325      -0.30281928      -0.02902461       0.06625869      -0.24908315
Cu       7.70402348       7.69398525      17.25059160      -0.00561027       0.00698878       0.14988036      -0.00013841      -0.00094561       0.15977881      -0.00448362       0.01975609      -0.07694649
Cu       5.13733449       7.71309030      17.24993235       0.00302122      -0.01184884       0.14421237       0.00927879      -0.00311443       0.15181801      -0.01775196      -0.00214848      -0.06644415
Cu       2.57102632       7.68705334      17.25767835      -0.00595263       0.01124649       0.15054283       0.00002791      -0.00636749       0.14183812      -0.00637573      -0.00558630      -0.17691546
Cu      10.27114318       7.71200294      17.24981338      -0.01425526      -0.01157167       0.14458134      -0.00938203      -0.00309062       0.15173828       0.00886454       0.00353687      -0.06486618
Cu      10.27483941       2.57871033      17.26698174      -0.01519209      -0.01136354       0.14179092      -0.01856196      -0.00269710       0.14567797      -0.11346583      -0.04896957      -0.17152840
Cu       2.56506813       2.47973883      17.25010282       0.00185688       0.00084893       0.18116454      -0.00035347       0.00022884       0.14079502       0.01173579       0.04468025       0.25580746
Cu       5.11555582       2.57996171      17.27298708       0.01465212      -0.01083033       0.14512234       0.01823756      -0.00265995       0.14584234       0.13776082      -0.04561924      -0.18542224
Cu       7.69701322       2.56212741      17.24999276       0.00026374       0.00753420       0.14903101       0.00006068       0.00006862       0.16002041      -0.00346017      -0.00044400      -0.06443035
Cu      10.23933886       5.15116875      17.23352713      -0.01135290      -0.00236025       0.14348044      -0.01563785       0.00650742       0.14977893      -0.04310059      -0.00353296      -0.08610688
Cu       2.56542413       5.18377531      17.28508980       0.00066684      -0.02308454       0.18342429       0.00004552      -0.01739759       0.17396839      -0.00708934       0.11126023      -0.07042908
Cu       5.16327678       5.15283170      17.23249090       0.01133664      -0.00201740       0.14326160       0.01518085       0.00655290       0.14977794       0.03965221      -0.00137330      -0.08111151
Cu       7.70090181       5.12662112      17.25159718       0.00018305       0.00875235       0.14979617      -0.00026218       0.00039659       0.16038772       0.00007339      -0.01237857      -0.05572600
O        2.61453162       2.46761262      20.14394550       0.02200976      -0.06822189      -0.00631139       0.00021914      -0.03227603       0.02367728       0.05159757      -0.31697004       0.37194649
C        2.61093371       3.22799588      19.03529385       0.00197480       0.09628293       0.00002018       0.00030506       0.00266658       0.05246448       0.01596725       0.13558639       0.50038610
H        2.64154581       1.51191721      19.88340908      -0.00990775      -0.03892262       0.05009026       0.00002645      -0.02224770       0.00040054      -0.05539442      -0.50214832      -0.50782384
O        2.59194209       4.46818073      19.18615651       0.00108046       0.04138404       0.12116836       0.00061065      -0.01852806       0.04528921      -0.03007787       0.61897942      -0.04118715
52
Lattice="10.26719046282867 0.0 0.0 0.0 7.700392847121503 0.0 0.0 0.0 27.347850919999996" Properties=species:S:1:pos:R:3:MACE_forces:R:3:forces:R:3:DFT_forces:R:3 method=neb MACE_energy=-207.65077670682652 energy=-207.65077670682652 stress="0.009273451154845076 -4.408335087359909e-07 -8.570739400643434e-07 -4.408335087359909e-07 0.008782818095491621 0.00016132177534819965 -8.570739400643434e-07 0.00016132177534819965 0.0011041063492616735" free_energy=-207.65077670682652 DFT_energy=-211.17429433 pbc="T T T"
Cu       1.28339881       1.28339881      11.83696273       0.00000000       0.00000000       0.00000000       0.00054538      -0.00039471       0.18436377      -0.00838656      -0.00132553       0.42433414
Cu       3.85019642       1.28339881      11.83696273       0.00000000       0.00000000       0.00000000      -0.00054435      -0.00039637       0.18436194       0.00817445      -0.00022335       0.42377599
Cu       6.41699404       1.28339881      11.83696273       0.00000000       0.00000000       0.00000000      -0.00092168       0.00050522       0.18406174      -0.03974546       0.00147200       0.44092768
Cu       8.98379165       1.28339881      11.83696273       0.00000000       0.00000000       0.00000000       0.00092019       0.00050763       0.18406538       0.03991904       0.00029454       0.43978055
Cu       1.28339881       3.85019642      11.83696273       0.00000000       0.00000000       0.00000000      -0.00021878       0.00035897       0.18264049      -0.00342494       0.00258025       0.42531467
Cu       3.85019642       3.85019642      11.83696273       0.00000000       0.00000000       0.00000000       0.00021921       0.00036050       0.18263518       0.00341623       0.00257015       0.42515804
Cu       6.41699404       3.85019642      11.83696273       0.00000000       0.00000000       0.00000000      -0.00125783      -0.00015504       0.18493269      -0.03234205       0.00158265       0.44957081
Cu       8.98379165       3.85019642      11.83696273       0.00000000       0.00000000       0.00000000       0.00125715      -0.00015804       0.18493761       0.03208874       0.00169247       0.44998587
Cu       1.28339881       6.41699404      11.83696273       0.00000000       0.00000000       0.00000000       0.00048783       0.00011282       0.18565408      -0.00922025      -0.00211854       0.42625764
Cu       3.85019642       6.41699404      11.83696273       0.00000000       0.00000000       0.00000000      -0.00048421       0.00011340       0.18565294       0.00966499      -0.00304288       0.42626510
Cu       6.41699404       6.41699404      11.83696273       0.00000000       0.00000000       0.00000000      -0.00130941      -0.00031184       0.18548086      -0.03641731      -0.00548610       0.45592825
Cu       8.98379165       6.41699404      11.83696273       0.00000000       0.00000000       0.00000000       0.00130687      -0.00031181       0.18548192       0.03616847      -0.00436389       0.45670430
Cu       7.70039285      -0.00000000      13.67392546       0.00000000       0.00000000       0.00000000      -0.00000459      -0.00045606      -0.09168766      -0.00102220       0.02331513      -0.16729063
Cu       5.13359523      -0.00000000      13.67392546       0.00000000       0.00000000       0.00000000       0.00207406       0.00029677      -0.09746935      -0.02752323      -0.01153408      -0.16895807
Cu       2.56679762      -0.00000000      13.67392546       0.00000000       0.00000000       0.00000000       0.00000433      -0.00228964      -0.10780673       0.00095228      -0.02029099      -0.19093577
Cu       0.00000000      -0.00000000      13.67392546       0.00000000       0.00000000       0.00000000      -0.00207021       0.00027594      -0.09749658       0.02809140      -0.01055772      -0.16837915
Cu       0.00000000       2.56679762      13.67392546       0.00000000       0.00000000       0.00000000      -0.00304513      -0.00059061      -0.09536655       0.00126472       0.02943121      -0.15892371
Cu       2.56679762       2.56679762      13.67392546       0.00000000       0.00000000       0.00000000       0.00001226       0.00334251      -0.08396598      -0.00048178       0.01296505      -0.09163598
Cu       5.13359523       2.56679762      13.67392546       0.00000000       0.00000000       0.00000000       0.00304599      -0.00059093      -0.09531575      -0.00124907       0.02975169      -0.15935908
Cu       7.70039285       2.56679762      13.67392546       0.00000000       0.00000000       0.00000000      -0.00002425       0.00024596      -0.08998245      -0.00022856       0.02635640      -0.15000244
Cu       0.00000000       5.13359523      13.67392546       0.00000000       0.00000000       0.00000000      -0.00080031       0.00090274      -0.09244471       0.00786777      -0.01966381      -0.18121444
Cu       2.56679762       5.13359523      13.67392546       0.00000000       0.00000000       0.00000000       0.00001242      -0.00204136      -0.09676406      -0.00086991      -0.00024189      -0.13817982
Cu       5.13359523       5.13359523      13.67392546       0.00000000       0.00000000       0.00000000       0.00079202       0.00088929      -0.09239408      -0.00811412      -0.01911916      -0.18166664
Cu       7.70039285       5.13359523      13.67392546       0.00000000       0.00000000       0.00000000       0.00000348       0.00040959      -0.09684921       0.00119907      -0.04593834      -0.16586312
Cu       1.28339881       1.28339881      15.51088819       0.00000000       0.00000000       0.00000000      -0.01469815       0.02191425      -0.29773629       0.01348434       0.02538708      -0.31829165
Cu       3.85019642       1.28339881      15.51088819       0.00000000       0.00000000       0.00000000       0.01499254       0.02181485      -0.29807164      -0.01169449       0.02542344      -0.31955691
Cu       6.41699404       1.28339881      15.51088819       0.00000000       0.00000000       0.00000000      -0.01079831       0.02366442      -0.24307168      -0.03892559       0.01594691      -0.16482525
Cu       8.98379165       1.28339881      15.51088819       0.00000000       0.00000000       0.00000000       0.01038163       0.02338985      -0.24330219       0.03718222       0.01486779      -0.16626315
Cu       1.28339881       3.85019642      15.51088819       0.00000000       0.00000000       0.00000000       0.08024732       0.04114655      -0.17708143       0.07605503       0.03317114      -0.25472447
Cu       3.85019642       3.85019642      15.51088819       0.00000000       0.00000000       0.00000000      -0.08001170       0.04148323      -0.17723043      -0.07628901       0.03270668      -0.25444197
Cu       6.41699404       3.85019642      15.51088819       0.00000000       0.00000000       0.00000000      -0.00735056      -0.04009830      -0.26373072      -0.06851311      -0.05341616      -0.17714767
Cu       8.98379165       3.85019642      15.51088819       0.00000000       0.00000000       0.00000000       0.00703189      -0.03992705      -0.26404419       0.06968848      -0.05346842      -0.17708220
Cu       1.28339881       6.41699404      15.51088819       0.00000000       0.00000000       0.00000000       0.02105574      -0.03744787      -0.23010730       0.07737721      -0.03014576      -0.20715603
Cu       3.85019642       6.41699404      15.51088819       0.00000000       0.00000000       0.00000000      -0.02090402      -0.03753925      -0.22991127      -0.07826234      -0.03120903      -0.20633078
Cu       6.41699404       6.41699404      15.51088819       0.00000000       0.00000000       0.00000000       0.02873606       0.03701477      -0.30287250       0.03019102       0.06427529      -0.25684537
Cu       8.98379165       6.41699404      15.51088819       0.00000000       0.00000000       0.00000000      -0.02833957       0.03686325      -0.30281928      -0.02948310       0.06542958      -0.25697532
Cu       7.70044883       7.69926415      17.24808167      -0.00013841      -0.00094561       0.15977881      -0.00013841      -0.00094561       0.15977881      -0.00033803       0.01329979      -0.06643368
Cu       5.13308499       7.70665511      17.24781673       0.00927879      -0.00311443       0.15181801       0.00927879      -0.00311443       0.15181801      -0.01245815       0.01400232      -0.05693250
Cu       2.56683295       7.70680230      17.25720481       0.00002791      -0.00636749       0.14183812       0.00002791      -0.00636749       0.14183812      -0.00039964      -0.02118968      -0.17280587
Cu      10.26778174       7.70657304      17.24783691      -0.00938203      -0.00309062       0.15173828      -0.00938203      -0.00309062       0.15173828       0.01239873       0.01538108      -0.05671607
Cu      10.28083751       2.57411572      17.26896067      -0.01856196      -0.00269710       0.14567797      -0.01856196      -0.00269710       0.14567797      -0.12757722      -0.04538479      -0.17243420
Cu       2.56685942       2.50315820      17.27452766      -0.00035347       0.00022884       0.14079502      -0.00035347       0.00022884       0.14079502       0.00133553       0.04411013       0.18404363
Cu       5.11957660       2.57422520      17.26931511       0.01823756      -0.00265995       0.14584234       0.01823756      -0.00265995       0.14584234       0.12823731      -0.04405641      -0.17430606
Cu       7.70026109       2.56718267      17.24691987       0.00006068       0.00006862       0.16002041       0.00006068       0.00006862       0.16002041      -0.00006217      -0.00709274      -0.05360357
Cu      10.23925579       5.14531938      17.23115357      -0.01563785       0.00650742       0.14977893      -0.01563785       0.00650742       0.14977893      -0.04755419       0.00608829      -0.07653431
Cu       2.56673541       5.20175479      17.28232497       0.00004552      -0.01739759       0.17396839       0.00004552      -0.01739759       0.17396839      -0.00030880       0.10747734      -0.06889860
Cu       5.16180678       5.14542341      17.23110840       0.01518085       0.00655290       0.14977794       0.01518085       0.00655290       0.14977794       0.04676349       0.00720684      -0.07543042
Cu       7.70053571       5.13207144      17.24890997      -0.00026218       0.00039659       0.16038772      -0.00026218       0.00039659       0.16038772       0.00016989      -0.01974818      -0.04481049
O        2.57092309       2.53651513      20.16308576       0.00021914      -0.03227603       0.02367728       0.00021914      -0.03227603       0.02367728       0.00134104      -0.25544240       0.38987079
C        2.56956079       3.29321546      19.04964131       0.00030506       0.00266658       0.05246448       0.00030506       0.00266658       0.05246448       0.00140285       0.06734959       0.42422063
H        2.57192447       1.57755943      19.91701235       0.00002645      -0.02224770       0.00040054       0.00002645      -0.02224770       0.00040054      -0.00261540      -0.58824198      -0.44478695
O        2.56793314       4.53372379      19.20195239       0.00061065      -0.01852806       0.04528921       0.00061065      -0.01852806       0.04528921      -0.00092762       0.60916700      -0.09639572
