42
Lattice="7.700392847121503 0.0 0.0 0.0 8.891647766302935 0.0 0.0 0.0 26.3637743517507" Properties=species:S:1:pos:R:3:tags:I:1:initial_magmoms:R:1:MACE_forces:R:3:DFT_forces:R:3 _ConfigSet_loc=" / 0" MACE_energy=-172.81279349280325 DFT_energy=-174.75789467 pbc="T T T"
Cu       1.28339881       0.74097065      12.12125812        3       0.00000000       0.00000000       0.00000000       0.00000000      -0.01200674      -0.00545703       0.28879170
Cu       3.85019642       0.74097065      12.12125812        3       0.00000000       0.00000000       0.00000000       0.00000000       0.01340274      -0.02443147       0.26093362
Cu       6.41699404       0.74097065      12.12125812        3       0.00000000       0.00000000       0.00000000       0.00000000      -0.00076845      -0.04152156       0.29906277
Cu       0.00000000       2.96388259      12.12125812        3       0.00000000       0.00000000       0.00000000       0.00000000       0.04017963       0.00881114       0.28259943
Cu       2.56679762       2.96388259      12.12125812        3       0.00000000       0.00000000       0.00000000       0.00000000      -0.02165846       0.01151199       0.35191740
Cu       5.13359523       2.96388259      12.12125812        3       0.00000000       0.00000000       0.00000000       0.00000000      -0.01672342      -0.01700647       0.25475530
Cu       1.28339881       5.18679453      12.12125812        3       0.00000000       0.00000000       0.00000000       0.00000000      -0.01778507      -0.03311864       0.26009068
Cu       3.85019642       5.18679453      12.12125812        3       0.00000000       0.00000000       0.00000000       0.00000000      -0.00980662      -0.01737549       0.22423655
Cu       6.41699404       5.18679453      12.12125812        3       0.00000000       0.00000000       0.00000000       0.00000000       0.03198521       0.02554799       0.32726601
Cu       0.00000000       7.40970647      12.12125812        3       0.00000000       0.00000000       0.00000000       0.00000000      -0.01418864       0.00661341       0.29611598
Cu       2.56679762       7.40970647      12.12125812        3       0.00000000       0.00000000       0.00000000       0.00000000       0.00017038       0.02546705       0.24230787
Cu       5.13359523       7.40970647      12.12125812        3       0.00000000       0.00000000       0.00000000       0.00000000       0.02646186       0.03635529       0.31738762
Cu       0.00000000       1.48194129      14.24251623        2       0.00000000       0.00000000       0.00000000       0.00000000      -0.06928127       0.10076071      -0.27033493
Cu       2.56679762       1.48194129      14.24251623        2       0.00000000       0.00000000       0.00000000       0.00000000       0.07508523      -0.11670839      -0.12243365
Cu       5.13359523       1.48194129      14.24251623        2       0.00000000       0.00000000       0.00000000       0.00000000       0.03167673       0.14611045      -0.22545856
Cu       1.28339881       3.70485324      14.24251623        2       0.00000000       0.00000000       0.00000000       0.00000000      -0.03264442       0.00671842      -0.36423839
Cu       3.85019642       3.70485324      14.24251623        2       0.00000000       0.00000000       0.00000000       0.00000000       0.04096898       0.05207079      -0.47710456
Cu       6.41699404       3.70485324      14.24251623        2       0.00000000       0.00000000       0.00000000       0.00000000      -0.01417351      -0.13647242      -0.30814257
Cu       0.00000000       5.92776518      14.24251623        2       0.00000000       0.00000000       0.00000000       0.00000000       0.11200367       0.05581719      -0.19669001
Cu       2.56679762       5.92776518      14.24251623        2       0.00000000       0.00000000       0.00000000       0.00000000       0.02499718       0.09888179      -0.14002212
Cu       5.13359523       5.92776518      14.24251623        2       0.00000000       0.00000000       0.00000000       0.00000000      -0.12655214      -0.04931092      -0.16445247
Cu       1.28339881       8.15067712      14.24251623        2       0.00000000       0.00000000       0.00000000       0.00000000       0.12284464      -0.07481318      -0.18697050
Cu       3.85019642       8.15067712      14.24251623        2       0.00000000       0.00000000       0.00000000       0.00000000      -0.10553681      -0.02753409      -0.21839083
Cu       6.41699404       8.15067712      14.24251623        2       0.00000000       0.00000000       0.00000000       0.00000000       0.01260451      -0.01767921      -0.43434837
Cu       7.69125715       8.90004796      16.24431842        1       0.00000000       0.00627557      -0.01565627       0.15563075       0.01105910      -0.06854132      -0.01479092
Cu       2.58004285       9.00132531      16.33006006        1       0.00000000      -0.00392023      -0.00099902       0.13217118       0.02500319       0.11678668      -0.18435471
Cu       5.15928236       8.91063802      16.23720351        1       0.00000000       0.00692124      -0.00751770       0.15189390       0.00329331      -0.08159549       0.00250850
Cu       1.29538135       2.23919128      16.26661899        1       0.00000000       0.01336823      -0.00667823       0.14781121       0.07105272       0.06114056      -0.02328000
Cu       3.86178974       2.26828384      16.29305501        1       0.00000000       0.01633428       0.00908415       0.15940954      -0.12487052      -0.12716049      -0.14125235
Cu       6.47660855       2.17571887      16.33221146        1       0.00000000      -0.02527116       0.03973828       0.19238140       0.07860608      -0.07983215      -0.20346291
Cu       0.00793410       4.45499537      16.26268008        1       0.00000000       0.01073761       0.00260725       0.13617381       0.10348136       0.02741193      -0.06849377
Cu       2.56436721       4.42308569      16.25798406        1       0.00000000      -0.01033050      -0.00470162       0.13699177      -0.15428854       0.04878845      -0.07618767
Cu       5.13507990       4.45132230      16.27186884        1       0.00000000       0.01010445      -0.01223785       0.15377365       0.00298118      -0.10567252       0.14964094
Cu       1.20636258       6.62974896      16.33212935        1       0.00000000      -0.00334910       0.00129856       0.12893485      -0.05874008      -0.06342574      -0.13503415
Cu       3.93265381       6.64194853      16.32573096        1       0.00000000       0.00104923       0.00560291       0.12769653       0.00108805       0.04229941      -0.14953816
Cu       6.41927368       6.68416503      16.28046930        1       0.00000000       0.01416272       0.00753357       0.13032771       0.02692644      -0.01253442      -0.08746777
O        4.84234487       4.36343114      19.09587588        0       0.00000000      -0.03252096      -0.01822179       0.05865885      -0.25076091       0.20958941       0.56246162
C        5.34042070       3.65831788      18.06370989        0       0.00000000      -0.03388859      -0.02995808      -0.00030994      -0.24637318       0.06810158       0.33611813
H        4.30591198       5.12984801      18.76304320        0       0.00000000      -0.03416023      -0.01906506       0.01088037       0.04410850      -0.07429210       0.14075844
O        6.08558375       2.68710402      18.32428900        0       0.00000000      -0.01984782      -0.00910378       0.03015361       0.00392624       0.58440054      -0.42655768
O        2.55917674       7.43488771      17.58715375        0       0.50000000       0.00358163      -0.00552046       0.06180162       0.38426693      -0.59029588      -0.09850015
H        2.51402013       7.50704697      18.55432448        0       0.50000000      -0.00153866       0.00131394       0.03020917      -0.01201508       0.03159419       0.12055465
42
Lattice="7.700392847121503 0.0 0.0 0.0 8.891647766302935 0.0 0.0 0.0 26.3637743517507" Properties=species:S:1:pos:R:3:tags:I:1:initial_magmoms:R:1:MACE_forces:R:3:DFT_forces:R:3 _ConfigSet_loc=" / 1" MACE_energy=-172.8147978554172 DFT_energy=-174.7532276 pbc="T T T"
Cu       1.28339881       0.74097065      12.12125812        3       0.00000000       0.00000000       0.00000000       0.00000000      -0.01237309      -0.00566895       0.29401470
Cu       3.85019642       0.74097065      12.12125812        3       0.00000000       0.00000000       0.00000000       0.00000000       0.01332322      -0.02457775       0.26402538
Cu       6.41699404       0.74097065      12.12125812        3       0.00000000       0.00000000       0.00000000       0.00000000      -0.00018225      -0.04068085       0.29966099
Cu       0.00000000       2.96388259      12.12125812        3       0.00000000       0.00000000       0.00000000       0.00000000       0.04031546       0.00848829       0.28188036
Cu       2.56679762       2.96388259      12.12125812        3       0.00000000       0.00000000       0.00000000       0.00000000      -0.02186789       0.01018381       0.35348512
Cu       5.13359523       2.96388259      12.12125812        3       0.00000000       0.00000000       0.00000000       0.00000000      -0.01633165      -0.01685972       0.25352498
Cu       1.28339881       5.18679453      12.12125812        3       0.00000000       0.00000000       0.00000000       0.00000000      -0.02016052      -0.03209689       0.25886438
Cu       3.85019642       5.18679453      12.12125812        3       0.00000000       0.00000000       0.00000000       0.00000000      -0.00674742      -0.01695474       0.22334852
Cu       6.41699404       5.18679453      12.12125812        3       0.00000000       0.00000000       0.00000000       0.00000000       0.03187190       0.02812039       0.32778554
Cu       0.00000000       7.40970647      12.12125812        3       0.00000000       0.00000000       0.00000000       0.00000000      -0.01316215       0.00500037       0.29793947
Cu       2.56679762       7.40970647      12.12125812        3       0.00000000       0.00000000       0.00000000       0.00000000      -0.00137540       0.02722836       0.24162728
Cu       5.13359523       7.40970647      12.12125812        3       0.00000000       0.00000000       0.00000000       0.00000000       0.02712135       0.03527831       0.31795720
Cu       0.00000000       1.48194129      14.24251623        2       0.00000000       0.00000000       0.00000000       0.00000000      -0.06423800       0.09336921      -0.25266099
Cu       2.56679762       1.48194129      14.24251623        2       0.00000000       0.00000000       0.00000000       0.00000000       0.07593843      -0.13581901      -0.09260288
Cu       5.13359523       1.48194129      14.24251623        2       0.00000000       0.00000000       0.00000000       0.00000000       0.03181769       0.13977534      -0.21093693
Cu       1.28339881       3.70485324      14.24251623        2       0.00000000       0.00000000       0.00000000       0.00000000      -0.03184312      -0.00527312      -0.34548497
Cu       3.85019642       3.70485324      14.24251623        2       0.00000000       0.00000000       0.00000000       0.00000000       0.03969564       0.04334060      -0.46361697
Cu       6.41699404       3.70485324      14.24251623        2       0.00000000       0.00000000       0.00000000       0.00000000      -0.00617207      -0.13609156      -0.31152612
Cu       0.00000000       5.92776518      14.24251623        2       0.00000000       0.00000000       0.00000000       0.00000000       0.11044554       0.05071083      -0.20255278
Cu       2.56679762       5.92776518      14.24251623        2       0.00000000       0.00000000       0.00000000       0.00000000       0.02713661       0.09218907      -0.13880895
Cu       5.13359523       5.92776518      14.24251623        2       0.00000000       0.00000000       0.00000000       0.00000000      -0.10812664      -0.05829147      -0.17942585
Cu       1.28339881       8.15067712      14.24251623        2       0.00000000       0.00000000       0.00000000       0.00000000       0.11837731      -0.06748921      -0.18135250
Cu       3.85019642       8.15067712      14.24251623        2       0.00000000       0.00000000       0.00000000       0.00000000      -0.10033359      -0.02289503      -0.20580533
Cu       6.41699404       8.15067712      14.24251623        2       0.00000000       0.00000000       0.00000000       0.00000000       0.01412542      -0.00834888      -0.40896713
Cu       7.69470597       8.89780457      16.25174416        1       0.00000000      -0.00158496      -0.00568780       0.12651174       0.00176906      -0.05644809      -0.04175221
Cu       2.57911867       8.97681564      16.33787108        1       0.00000000       0.00245092       0.02348974       0.12827793       0.03681135       0.12693810      -0.15618961
Cu       5.15919405       8.91047262      16.24349884        1       0.00000000       0.01153177      -0.01114080       0.12399137       0.00913038      -0.08620539      -0.02737002
Cu       1.30104178       2.23156710      16.27202661        1       0.00000000       0.00472848      -0.01334541       0.12699669       0.06078118       0.05264136      -0.04434072
Cu       3.86063258       2.26143526      16.29707125        1       0.00000000       0.01629623       0.00221692       0.14885891      -0.12780290      -0.13884042      -0.14988147
Cu       6.47945483       2.17442742      16.33117874        1       0.00000000      -0.02527696       0.03968321       0.20395160       0.08152271      -0.08065962      -0.19494145
Cu       0.01158177       4.45426931      16.26383099        1       0.00000000       0.00842485      -0.01354686       0.12681456       0.09712015       0.00757044      -0.07600935
Cu       2.56449757       4.41800335      16.25970997        1       0.00000000      -0.00196330      -0.01054395       0.11873554      -0.14616895       0.04828877      -0.09674424
Cu       5.13840672       4.44601843      16.27051235        1       0.00000000       0.00470893      -0.01613830       0.14841740      -0.00172825      -0.11369673       0.14569672
Cu       1.20352241       6.63229144      16.32792713        1       0.00000000       0.01496389      -0.01651773       0.13501957      -0.04275143      -0.09372244      -0.14158849
Cu       3.94880465       6.63644180      16.31944476        1       0.00000000      -0.02505447       0.00629729       0.14189018      -0.03730214       0.03847788      -0.14325893
Cu       6.42472223       6.68372391      16.28273324        1       0.00000000       0.00836945       0.00426484       0.12277684       0.02488106      -0.01686354      -0.10520920
O        4.82861288       4.35574861      19.09368801        0       0.00000000      -0.03852619      -0.01823472       0.04330728      -0.26697106       0.20482916       0.54756758
C        5.33362664       3.65323314      18.06290312        0       0.00000000      -0.02774716      -0.04793637      -0.00785336      -0.24931100       0.06634027       0.34291028
H        4.28217033       5.11351463      18.75682499        0       0.00000000      -0.03099910      -0.01623469       0.02472581       0.02753488       0.02462714       0.09880914
O        6.08668932       2.68838480      18.32414902        0       0.00000000      -0.02189490      -0.00491118       0.03441945       0.01150234       0.57710534      -0.42839565
O        2.57147146       7.36974545      17.59285118        0       0.50000000      -0.01183118       0.07036298       0.03388512       0.40067048      -0.58369467      -0.08568763
H        2.51055162       7.40634532      18.56084651        0       0.50000000       0.00171974       0.01738849       0.04400025      -0.00694266       0.06067504       0.13601272
42
Lattice="7.700392847121503 0.0 0.0 0.0 8.891647766302935 0.0 0.0 0.0 26.3637743517507" Properties=species:S:1:pos:R:3:tags:I:1:initial_magmoms:R:1:MACE_forces:R:3:DFT_forces:R:3 _ConfigSet_loc=" / 2" MACE_energy=-172.81508204638408 DFT_energy=-174.74107928 pbc="T T T"
Cu       1.28339881       0.74097065      12.12125812        3       0.00000000       0.00000000       0.00000000       0.00000000      -0.01324631      -0.00598403       0.29543929
Cu       3.85019642       0.74097065      12.12125812        3       0.00000000       0.00000000       0.00000000       0.00000000       0.01357422      -0.02498508       0.26468659
Cu       6.41699404       0.74097065      12.12125812        3       0.00000000       0.00000000       0.00000000       0.00000000      -0.00012894      -0.03991744       0.29884178
Cu       0.00000000       2.96388259      12.12125812        3       0.00000000       0.00000000       0.00000000       0.00000000       0.04002111       0.00757749       0.28202820
Cu       2.56679762       2.96388259      12.12125812        3       0.00000000       0.00000000       0.00000000       0.00000000      -0.02226088       0.00888601       0.35336173
Cu       5.13359523       2.96388259      12.12125812        3       0.00000000       0.00000000       0.00000000       0.00000000      -0.01597254      -0.01787452       0.25332900
Cu       1.28339881       5.18679453      12.12125812        3       0.00000000       0.00000000       0.00000000       0.00000000      -0.02147854      -0.03188095       0.25903088
Cu       3.85019642       5.18679453      12.12125812        3       0.00000000       0.00000000       0.00000000       0.00000000      -0.00531494      -0.01626064       0.22348793
Cu       6.41699404       5.18679453      12.12125812        3       0.00000000       0.00000000       0.00000000       0.00000000       0.03192112       0.03011037       0.32749703
Cu       0.00000000       7.40970647      12.12125812        3       0.00000000       0.00000000       0.00000000       0.00000000      -0.01333210       0.00425297       0.29835538
Cu       2.56679762       7.40970647      12.12125812        3       0.00000000       0.00000000       0.00000000       0.00000000      -0.00127016       0.02847516       0.24304335
Cu       5.13359523       7.40970647      12.12125812        3       0.00000000       0.00000000       0.00000000       0.00000000       0.02715663       0.03469064       0.31896107
Cu       0.00000000       1.48194129      14.24251623        2       0.00000000       0.00000000       0.00000000       0.00000000      -0.06701610       0.09037534      -0.24555334
Cu       2.56679762       1.48194129      14.24251623        2       0.00000000       0.00000000       0.00000000       0.00000000       0.08095210      -0.15127335      -0.09217487
Cu       5.13359523       1.48194129      14.24251623        2       0.00000000       0.00000000       0.00000000       0.00000000       0.03733006       0.13548005      -0.20265277
Cu       1.28339881       3.70485324      14.24251623        2       0.00000000       0.00000000       0.00000000       0.00000000      -0.02976512      -0.02551967      -0.34472697
Cu       3.85019642       3.70485324      14.24251623        2       0.00000000       0.00000000       0.00000000       0.00000000       0.04507851       0.02181389      -0.47167033
Cu       6.41699404       3.70485324      14.24251623        2       0.00000000       0.00000000       0.00000000       0.00000000      -0.00135651      -0.13904300      -0.31846432
Cu       0.00000000       5.92776518      14.24251623        2       0.00000000       0.00000000       0.00000000       0.00000000       0.11258914       0.04091045      -0.19891946
Cu       2.56679762       5.92776518      14.24251623        2       0.00000000       0.00000000       0.00000000       0.00000000       0.03552188       0.08713620      -0.14143443
Cu       5.13359523       5.92776518      14.24251623        2       0.00000000       0.00000000       0.00000000       0.00000000      -0.10723653      -0.05756708      -0.16606649
Cu       1.28339881       8.15067712      14.24251623        2       0.00000000       0.00000000       0.00000000       0.00000000       0.12149228      -0.07301817      -0.16746692
Cu       3.85019642       8.15067712      14.24251623        2       0.00000000       0.00000000       0.00000000       0.00000000      -0.09798094      -0.02812940      -0.18809071
Cu       6.41699404       8.15067712      14.24251623        2       0.00000000       0.00000000       0.00000000       0.00000000       0.01728368      -0.01145290      -0.40299246
Cu       7.69742160       8.89431373      16.25374460        1       0.00000000       0.00094368      -0.02284190       0.11935906       0.00589800      -0.07224397      -0.04917285
Cu       2.58249844       8.96298576      16.34365493        1       0.00000000      -0.00040363       0.05383834       0.11079951       0.02878545       0.14079582      -0.15342055
Cu       5.16355310       8.90626542      16.24555085        1       0.00000000       0.00502245      -0.01948645       0.11790039       0.00023866      -0.09362322      -0.03416029
Cu       1.30752416       2.21472027      16.27409433        1       0.00000000      -0.01790433       0.02895614       0.12057043       0.03341357       0.10090231      -0.05128165
Cu       3.85958713       2.24541883      16.29974215        1       0.00000000       0.04242303       0.04602986       0.14436655      -0.10153202      -0.09417759      -0.15650695
Cu       6.48367815       2.17294871      16.33378498        1       0.00000000      -0.03310527       0.03131007       0.20540519       0.07750205      -0.09216158      -0.19657987
Cu       0.01771288       4.44400117      16.26331212        1       0.00000000      -0.00223520      -0.00514314       0.12433106       0.07973727       0.01805762      -0.07653555
Cu       2.56909015       4.40670156      16.25553549        1       0.00000000      -0.00687720      -0.00857559       0.13738282      -0.15121616       0.04923380      -0.07700751
Cu       5.13946447       4.43804844      16.26714373        1       0.00000000       0.00592894      -0.00750845       0.16192457      -0.00454855      -0.10305103       0.15985894
Cu       1.20918805       6.61877659      16.32761897        1       0.00000000       0.01891664       0.00369154       0.12877144      -0.04641899      -0.07162265      -0.15941834
Cu       3.95104487       6.63064264      16.32468644        1       0.00000000      -0.03485671       0.00521998       0.12548284      -0.03859746       0.03449986      -0.16354603
Cu       6.43095314       6.67976548      16.28411499        1       0.00000000      -0.01040419      -0.00574145       0.11436428       0.00073999      -0.03051508      -0.11651225
O        4.80256806       4.34320615      19.08987188        0       0.00000000      -0.03690624      -0.01968980       0.03963434      -0.26845585       0.19670473       0.54194850
C        5.31855375       3.64439138      18.06143881        0       0.00000000      -0.02550687      -0.05106388      -0.00882799      -0.25712696       0.04680620       0.33656886
H        4.25091838       5.09568796      18.74975869        0       0.00000000      -0.03248420      -0.01647983       0.02515199       0.05179597      -0.02467786       0.09170821
O        6.08340220       2.69027564      18.32695563        0       0.00000000      -0.02174271      -0.01398195       0.02240290       0.03229641       0.59420583      -0.42220400
O        2.56856017       7.35054833      17.60030717        0       0.50000000       0.00635086       0.02000709       0.02770628       0.40790275      -0.58461554      -0.08897046
H        2.50764070       7.29958434      18.56771264        0       0.50000000      -0.00396779       0.05399424       0.04216185      -0.01697523       0.11867999       0.13738259
42
Lattice="7.700392847121503 0.0 0.0 0.0 8.891647766302935 0.0 0.0 0.0 26.3637743517507" Properties=species:S:1:pos:R:3:tags:I:1:initial_magmoms:R:1:MACE_forces:R:3:DFT_forces:R:3 _ConfigSet_loc=" / 3" MACE_energy=-172.820034521647 DFT_energy=-174.72558413 pbc="T T T"
Cu       1.28339881       0.74097065      12.12125812        3       0.00000000       0.00000000       0.00000000       0.00000000      -0.01331826      -0.00555234       0.29806197
Cu       3.85019642       0.74097065      12.12125812        3       0.00000000       0.00000000       0.00000000       0.00000000       0.01268046      -0.02599103       0.26440599
Cu       6.41699404       0.74097065      12.12125812        3       0.00000000       0.00000000       0.00000000       0.00000000       0.00054713      -0.03905358       0.29763586
Cu       0.00000000       2.96388259      12.12125812        3       0.00000000       0.00000000       0.00000000       0.00000000       0.03889685       0.00702345       0.28472860
Cu       2.56679762       2.96388259      12.12125812        3       0.00000000       0.00000000       0.00000000       0.00000000      -0.02358732       0.00694820       0.35294371
Cu       5.13359523       2.96388259      12.12125812        3       0.00000000       0.00000000       0.00000000       0.00000000      -0.01395905      -0.01738014       0.25432725
Cu       1.28339881       5.18679453      12.12125812        3       0.00000000       0.00000000       0.00000000       0.00000000      -0.02337342      -0.03064852       0.26093065
Cu       3.85019642       5.18679453      12.12125812        3       0.00000000       0.00000000       0.00000000       0.00000000      -0.00305995      -0.01518464       0.22386801
Cu       6.41699404       5.18679453      12.12125812        3       0.00000000       0.00000000       0.00000000       0.00000000       0.03206406       0.03134043       0.32754283
Cu       0.00000000       7.40970647      12.12125812        3       0.00000000       0.00000000       0.00000000       0.00000000      -0.01363920       0.00341035       0.29793048
Cu       2.56679762       7.40970647      12.12125812        3       0.00000000       0.00000000       0.00000000       0.00000000      -0.00175182       0.03012103       0.24263586
Cu       5.13359523       7.40970647      12.12125812        3       0.00000000       0.00000000       0.00000000       0.00000000       0.02811130       0.03414600       0.31950674
Cu       0.00000000       1.48194129      14.24251623        2       0.00000000       0.00000000       0.00000000       0.00000000      -0.07400671       0.08603742      -0.23089693
Cu       2.56679762       1.48194129      14.24251623        2       0.00000000       0.00000000       0.00000000       0.00000000       0.09029001      -0.14577266      -0.08091266
Cu       5.13359523       1.48194129      14.24251623        2       0.00000000       0.00000000       0.00000000       0.00000000       0.03945255       0.13123870      -0.19098662
Cu       1.28339881       3.70485324      14.24251623        2       0.00000000       0.00000000       0.00000000       0.00000000      -0.02276075      -0.02819818      -0.34909686
Cu       3.85019642       3.70485324      14.24251623        2       0.00000000       0.00000000       0.00000000       0.00000000       0.03604735       0.01587420      -0.48864486
Cu       6.41699404       3.70485324      14.24251623        2       0.00000000       0.00000000       0.00000000       0.00000000      -0.00167054      -0.14817196      -0.31377023
Cu       0.00000000       5.92776518      14.24251623        2       0.00000000       0.00000000       0.00000000       0.00000000       0.11609411       0.03619412      -0.20283111
Cu       2.56679762       5.92776518      14.24251623        2       0.00000000       0.00000000       0.00000000       0.00000000       0.03465581       0.07224098      -0.14516183
Cu       5.13359523       5.92776518      14.24251623        2       0.00000000       0.00000000       0.00000000       0.00000000      -0.10867023      -0.05851585      -0.17938299
Cu       1.28339881       8.15067712      14.24251623        2       0.00000000       0.00000000       0.00000000       0.00000000       0.12775067      -0.07786330      -0.16877711
Cu       3.85019642       8.15067712      14.24251623        2       0.00000000       0.00000000       0.00000000       0.00000000      -0.09966983      -0.03001307      -0.19141252
Cu       6.41699404       8.15067712      14.24251623        2       0.00000000       0.00000000       0.00000000       0.00000000       0.01929742      -0.01507795      -0.40792185
Cu       7.69999598       8.88464881      16.25322118        1       0.00000000      -0.00416531      -0.00064986       0.12448885       0.00214523      -0.04093565      -0.04398173
Cu       2.58538937       8.95941296      16.34328210        1       0.00000000      -0.00405357       0.03779785       0.12484157       0.02280810       0.11250370      -0.12181712
Cu       5.16407408       8.89805551      16.24471447        1       0.00000000       0.00424511      -0.00285630       0.12105044       0.00046727      -0.07322570      -0.03219502
Cu       1.30655022       2.21129405      16.27391537        1       0.00000000      -0.00586854       0.01031603       0.12471055       0.04674474       0.08062197      -0.04452126
Cu       3.86645436       2.24779674      16.30290279        1       0.00000000       0.02428751       0.03370175       0.15939105      -0.13003023      -0.12496075      -0.15095213
Cu       6.48602981       2.16544476      16.34066775        1       0.00000000      -0.03363886       0.04399835       0.19816969       0.08640923      -0.08209215      -0.21619143
Cu       0.01859494       4.43727964      16.26199021        1       0.00000000       0.00086519       0.00092836       0.12547650       0.07566181       0.02427364      -0.06768557
Cu       2.56881072       4.39819079      16.25843737        1       0.00000000      -0.00803148       0.00371178       0.12262265      -0.16418039       0.06837064      -0.10178185
Cu       5.13923757       4.43739207      16.26343550        1       0.00000000       0.00337978      -0.00981531       0.15381416      -0.01946084      -0.10699482       0.14529740
Cu       1.21211278       6.61324344      16.32632395        1       0.00000000       0.00613108       0.00489112       0.12928287      -0.06403921      -0.07337735      -0.16422684
Cu       3.94701833       6.62566068      16.32120095        1       0.00000000      -0.01757171       0.00967186       0.12881869      -0.01054878       0.03451919      -0.16587232
Cu       6.42968058       6.67081384      16.28233761        1       0.00000000       0.00142578       0.01177177       0.12061706       0.01133500      -0.01477978      -0.10990851
O        4.73631586       4.32022772      19.07713307        0       0.00000000      -0.03706233      -0.02411281       0.03956861      -0.27430652       0.17998062       0.53164788
C        5.26678008       3.62402830      18.05346827        0       0.00000000      -0.03078941      -0.06839383      -0.02425220      -0.28424762       0.02835724       0.34737844
H        4.17776397       5.06608569      18.73292027        0       0.00000000      -0.03013988      -0.03351950       0.02536659       0.03825599       0.02116179       0.09072396
O        6.05240206       2.68830624      18.32604465        0       0.00000000      -0.01992153      -0.02093482       0.02519585       0.08675243       0.60927000      -0.40608760
O        2.57153112       7.32313952      17.60633839        0       0.50000000      -0.00673031       0.06580111       0.03387199       0.41427613      -0.59589338      -0.09146408
H        2.50454356       7.24226505      18.57168748        0       0.50000000      -0.00021360       0.05761654       0.02373261      -0.01446300       0.13604912       0.12691538
42
Lattice="7.700392847121503 0.0 0.0 0.0 8.891647766302935 0.0 0.0 0.0 26.3637743517507" Properties=species:S:1:pos:R:3:tags:I:1:initial_magmoms:R:1:MACE_forces:R:3:DFT_forces:R:3 _ConfigSet_loc=" / 4" MACE_energy=-172.84125829918338 DFT_energy=-174.7127835 pbc="T T T"
Cu       1.28339881       0.74097065      12.12125812        3       0.00000000       0.00000000       0.00000000       0.00000000      -0.01102550      -0.00566550       0.30269072
Cu       3.85019642       0.74097065      12.12125812        3       0.00000000       0.00000000       0.00000000       0.00000000       0.00969125      -0.02649873       0.26303979
Cu       6.41699404       0.74097065      12.12125812        3       0.00000000       0.00000000       0.00000000       0.00000000       0.00207391      -0.03803622       0.29885536
Cu       0.00000000       2.96388259      12.12125812        3       0.00000000       0.00000000       0.00000000       0.00000000       0.03540706       0.00985893       0.29095395
Cu       2.56679762       2.96388259      12.12125812        3       0.00000000       0.00000000       0.00000000       0.00000000      -0.02583504       0.00539695       0.35052820
Cu       5.13359523       2.96388259      12.12125812        3       0.00000000       0.00000000       0.00000000       0.00000000      -0.00738798      -0.01324760       0.25426895
Cu       1.28339881       5.18679453      12.12125812        3       0.00000000       0.00000000       0.00000000       0.00000000      -0.02462482      -0.02931161       0.26256180
Cu       3.85019642       5.18679453      12.12125812        3       0.00000000       0.00000000       0.00000000       0.00000000      -0.00032745      -0.01328329       0.22372128
Cu       6.41699404       5.18679453      12.12125812        3       0.00000000       0.00000000       0.00000000       0.00000000       0.03230883       0.02729875       0.32615418
Cu       0.00000000       7.40970647      12.12125812        3       0.00000000       0.00000000       0.00000000       0.00000000      -0.01438406       0.00212658       0.29704968
Cu       2.56679762       7.40970647      12.12125812        3       0.00000000       0.00000000       0.00000000       0.00000000      -0.00370410       0.02828193       0.24406820
Cu       5.13359523       7.40970647      12.12125812        3       0.00000000       0.00000000       0.00000000       0.00000000       0.03219884       0.03151841       0.31914722
Cu       0.00000000       1.48194129      14.24251623        2       0.00000000       0.00000000       0.00000000       0.00000000      -0.08997444       0.09615319      -0.21680737
Cu       2.56679762       1.48194129      14.24251623        2       0.00000000       0.00000000       0.00000000       0.00000000       0.09828516      -0.15151926      -0.05816979
Cu       5.13359523       1.48194129      14.24251623        2       0.00000000       0.00000000       0.00000000       0.00000000       0.03514065       0.14559557      -0.18411586
Cu       1.28339881       3.70485324      14.24251623        2       0.00000000       0.00000000       0.00000000       0.00000000      -0.01156027      -0.03901873      -0.35382522
Cu       3.85019642       3.70485324      14.24251623        2       0.00000000       0.00000000       0.00000000       0.00000000       0.01366922      -0.00301917      -0.52817262
Cu       6.41699404       3.70485324      14.24251623        2       0.00000000       0.00000000       0.00000000       0.00000000       0.00040734      -0.15020550      -0.31146131
Cu       0.00000000       5.92776518      14.24251623        2       0.00000000       0.00000000       0.00000000       0.00000000       0.11443927       0.03994337      -0.21090472
Cu       2.56679762       5.92776518      14.24251623        2       0.00000000       0.00000000       0.00000000       0.00000000       0.03595075       0.08263192      -0.11000918
Cu       5.13359523       5.92776518      14.24251623        2       0.00000000       0.00000000       0.00000000       0.00000000      -0.09482189      -0.04202272      -0.20881249
Cu       1.28339881       8.15067712      14.24251623        2       0.00000000       0.00000000       0.00000000       0.00000000       0.10900270      -0.08215400      -0.18266066
Cu       3.85019642       8.15067712      14.24251623        2       0.00000000       0.00000000       0.00000000       0.00000000      -0.07975555      -0.02364098      -0.22834083
Cu       6.41699404       8.15067712      14.24251623        2       0.00000000       0.00000000       0.00000000       0.00000000       0.01846047      -0.00911525      -0.40650010
Cu       7.69825197       8.89145012      16.25487052        1       0.00000000      -0.00456196      -0.00184512       0.12351652      -0.00170996      -0.04655883      -0.04550356
Cu       2.58623540       8.93017071      16.33607945        1       0.00000000      -0.00363164       0.05128490       0.13265289       0.02331983       0.20400903      -0.15424734
Cu       5.16646706       8.90760460      16.24440690        1       0.00000000       0.00608284      -0.00620321       0.11916080       0.00940576      -0.07625209      -0.03633957
Cu       1.30643091       2.20370017      16.27579390        1       0.00000000      -0.00598554       0.01403544       0.12355298       0.05106844       0.08052171      -0.04942847
Cu       3.85736785       2.24978948      16.30835711        1       0.00000000       0.04318080       0.05567266       0.18250932      -0.11850335      -0.12980605      -0.14607210
Cu       6.48534495       2.17698344      16.34996376        1       0.00000000      -0.03999395       0.04367728       0.20476908       0.10237787      -0.09482099      -0.23566864
Cu       0.02176514       4.43601961      16.25992641        1       0.00000000       0.00016884       0.00308173       0.12679329       0.05753808       0.02741860      -0.05387160
Cu       2.56614222       4.40226323      16.25656200        1       0.00000000      -0.00677849       0.00816894       0.12538413      -0.18299242       0.08222297      -0.12938500
Cu       5.13257634       4.44469842      16.25227619        1       0.00000000       0.00554531      -0.01496949       0.16343942      -0.04429255      -0.10545660       0.13903347
Cu       1.19995169       6.62184044      16.33038374        1       0.00000000       0.00420477      -0.00528133       0.13103837      -0.02014134      -0.08848654      -0.12369365
Cu       3.96520562       6.64528206      16.31810616        1       0.00000000      -0.02178357      -0.00683943       0.12649366      -0.04302451      -0.00981099      -0.15021807
Cu       6.43270528       6.67359361      16.28231702        1       0.00000000       0.00177108       0.01116112       0.12131328       0.00437067      -0.02325311      -0.10992703
O        4.59198880       4.28955749      19.04379288        0       0.00000000      -0.03666613      -0.04059193       0.04241165      -0.26674140       0.13276650       0.50308882
C        5.14946845       3.59316647      18.03331305        0       0.00000000      -0.03689641      -0.09330461      -0.05920142      -0.31660322       0.01099041       0.35113096
H        4.01822813       5.01912602      18.68851750        0       0.00000000      -0.03632600      -0.04940868       0.02491446       0.02267639       0.13164833       0.14009436
O        5.96889345       2.69064398      18.32352984        0       0.00000000      -0.01216117      -0.02218635       0.02141725       0.15832867       0.63538432      -0.34090854
O        2.58149536       7.30389746      17.61290502        0       0.50000000      -0.01181749       0.17156656       0.08497119       0.40041685      -0.58249529      -0.07931421
H        2.54897875       7.46744182      18.57038314        0       0.50000000       0.00212309      -0.01869456      -0.02063173      -0.00912813       0.00991156       0.08797092
42
Lattice="7.700392847121503 0.0 0.0 0.0 8.891647766302935 0.0 0.0 0.0 26.3637743517507" Properties=species:S:1:pos:R:3:tags:I:1:initial_magmoms:R:1:MACE_forces:R:3:DFT_forces:R:3 _ConfigSet_loc=" / 5" MACE_energy=-172.8077718807047 DFT_energy=-174.67709523 pbc="T T T"
Cu       1.28339881       0.74097065      12.12125812        3       0.00000000       0.00000000       0.00000000       0.00000000      -0.01090689      -0.00601595       0.31149712
Cu       3.85019642       0.74097065      12.12125812        3       0.00000000       0.00000000       0.00000000       0.00000000       0.00724833      -0.02660421       0.26934427
Cu       6.41699404       0.74097065      12.12125812        3       0.00000000       0.00000000       0.00000000       0.00000000       0.00529365      -0.03529128       0.30205148
Cu       0.00000000       2.96388259      12.12125812        3       0.00000000       0.00000000       0.00000000       0.00000000       0.03736622       0.01225973       0.28642117
Cu       2.56679762       2.96388259      12.12125812        3       0.00000000       0.00000000       0.00000000       0.00000000      -0.02588025       0.00591076       0.34510397
Cu       5.13359523       2.96388259      12.12125812        3       0.00000000       0.00000000       0.00000000       0.00000000      -0.00825596      -0.01079909       0.24941174
Cu       1.28339881       5.18679453      12.12125812        3       0.00000000       0.00000000       0.00000000       0.00000000      -0.02793543      -0.02839241       0.25882009
Cu       3.85019642       5.18679453      12.12125812        3       0.00000000       0.00000000       0.00000000       0.00000000       0.00325081      -0.01317798       0.22306020
Cu       6.41699404       5.18679453      12.12125812        3       0.00000000       0.00000000       0.00000000       0.00000000       0.03276751       0.02949241       0.32617526
Cu       0.00000000       7.40970647      12.12125812        3       0.00000000       0.00000000       0.00000000       0.00000000      -0.01046625      -0.00145791       0.30027781
Cu       2.56679762       7.40970647      12.12125812        3       0.00000000       0.00000000       0.00000000       0.00000000      -0.00753223       0.03000759       0.24743543
Cu       5.13359523       7.40970647      12.12125812        3       0.00000000       0.00000000       0.00000000       0.00000000       0.03231493       0.02727425       0.31823924
Cu       0.00000000       1.48194129      14.24251623        2       0.00000000       0.00000000       0.00000000       0.00000000      -0.09730848       0.09837579      -0.21109301
Cu       2.56679762       1.48194129      14.24251623        2       0.00000000       0.00000000       0.00000000       0.00000000       0.09823920      -0.15890389      -0.06271757
Cu       5.13359523       1.48194129      14.24251623        2       0.00000000       0.00000000       0.00000000       0.00000000       0.04167625       0.15046761      -0.18417784
Cu       1.28339881       3.70485324      14.24251623        2       0.00000000       0.00000000       0.00000000       0.00000000      -0.01686226      -0.05070022      -0.34367495
Cu       3.85019642       3.70485324      14.24251623        2       0.00000000       0.00000000       0.00000000       0.00000000       0.01639290      -0.01437253      -0.52994945
Cu       6.41699404       3.70485324      14.24251623        2       0.00000000       0.00000000       0.00000000       0.00000000       0.00295014      -0.14900120      -0.31021154
Cu       0.00000000       5.92776518      14.24251623        2       0.00000000       0.00000000       0.00000000       0.00000000       0.11721405       0.04547150      -0.20860931
Cu       2.56679762       5.92776518      14.24251623        2       0.00000000       0.00000000       0.00000000       0.00000000       0.03564654       0.08465266      -0.09019993
Cu       5.13359523       5.92776518      14.24251623        2       0.00000000       0.00000000       0.00000000       0.00000000      -0.08777216      -0.03807622      -0.22570467
Cu       1.28339881       8.15067712      14.24251623        2       0.00000000       0.00000000       0.00000000       0.00000000       0.08937085      -0.08267454      -0.20364056
Cu       3.85019642       8.15067712      14.24251623        2       0.00000000       0.00000000       0.00000000       0.00000000      -0.06135391      -0.02237335      -0.26392393
Cu       6.41699404       8.15067712      14.24251623        2       0.00000000       0.00000000       0.00000000       0.00000000       0.02366914      -0.00256739      -0.39389795
Cu       7.70152266       8.89406973      16.25805943        1       0.00000000      -0.00599285      -0.00062943       0.12361002      -0.01073105      -0.04410338      -0.04590147
Cu       2.58613777       8.89110732      16.32832237        1       0.00000000      -0.00414834       0.01074826       0.15030209       0.01200393       0.22915925      -0.13670516
Cu       5.16549391       8.91220618      16.24714167        1       0.00000000       0.00757813      -0.00489780       0.11900150       0.01962306      -0.07266895      -0.03216874
Cu       1.30964257       2.19543962      16.27702639        1       0.00000000      -0.00237814       0.00288907       0.12396364       0.05579564       0.05703456      -0.04452151
Cu       3.85389716       2.24344105      16.30918553        1       0.00000000       0.03742376       0.04490284       0.18070887      -0.12379453      -0.14951534      -0.14914715
Cu       6.48546524       2.17997422      16.35180616        1       0.00000000      -0.03995281       0.04357071       0.20463831       0.10582361      -0.09233675      -0.23468791
Cu       0.02365022       4.43850567      16.25804871        1       0.00000000       0.00123494      -0.00180811       0.12660063       0.06093951       0.01791341      -0.05495537
Cu       2.56550317       4.39789722      16.25235950        1       0.00000000      -0.00631579       0.00602698       0.12531849      -0.18063746       0.09307517      -0.13226548
Cu       5.13029052       4.44858174      16.24810973        1       0.00000000       0.00434544      -0.01844623       0.15973274      -0.05411261      -0.11104680       0.12904534
Cu       1.19438841       6.63955079      16.33196762        1       0.00000000      -0.00773667      -0.01305560       0.12730294      -0.01895939      -0.12651109      -0.11735723
Cu       3.97853358       6.66670533      16.31462156        1       0.00000000      -0.00441830      -0.01386686       0.12220243      -0.04355680      -0.04971579      -0.14990642
Cu       6.43523590       6.67490051      16.28262912        1       0.00000000       0.00443595       0.01044383       0.12201830       0.00765149      -0.01453308      -0.12337306
O        4.57900327       4.29912740      19.03691344        0       0.00000000      -0.04267273      -0.03407246       0.04042291      -0.25651068       0.11165136       0.48194433
C        5.13884852       3.60172161      18.02877369        0       0.00000000      -0.04448343      -0.08380957      -0.05817234      -0.30271386      -0.01003843       0.34103200
H        4.00297953       5.02865733      18.68456258        0       0.00000000      -0.04034974      -0.04231279       0.02023783       0.02303464       0.17255004       0.02849095
O        5.95939094       2.70096936      18.32135019        0       0.00000000      -0.01520720      -0.01881136       0.02335305       0.13622329       0.68217202      -0.30740608
O        2.59176077       7.17248944      17.65275819        0       0.50000000      -0.00837354       0.20051559      -0.02765635       0.38388103      -0.55784405      -0.07647671
H        2.55935423       7.53163203      18.55309530        0       0.50000000       0.00474549       0.01562650       0.08338896      -0.00308652       0.02125372       0.21432260
42
Lattice="7.700392847121503 0.0 0.0 0.0 8.891647766302935 0.0 0.0 0.0 26.3637743517507" Properties=species:S:1:pos:R:3:tags:I:1:initial_magmoms:R:1:MACE_forces:R:3:DFT_forces:R:3 _ConfigSet_loc=" / 6" MACE_energy=-172.7921640517263 DFT_energy=-174.65733213 pbc="T T T"
Cu       1.28339881       0.74097065      12.12125812        3       0.00000000       0.00000000       0.00000000       0.00000000      -0.01138483      -0.00676422       0.31740365
Cu       3.85019642       0.74097065      12.12125812        3       0.00000000       0.00000000       0.00000000       0.00000000       0.00470616      -0.02665903       0.27302058
Cu       6.41699404       0.74097065      12.12125812        3       0.00000000       0.00000000       0.00000000       0.00000000       0.00733580      -0.03386699       0.30319597
Cu       0.00000000       2.96388259      12.12125812        3       0.00000000       0.00000000       0.00000000       0.00000000       0.03929707       0.01382218       0.28160423
Cu       2.56679762       2.96388259      12.12125812        3       0.00000000       0.00000000       0.00000000       0.00000000      -0.02537624       0.00490936       0.34058475
Cu       5.13359523       2.96388259      12.12125812        3       0.00000000       0.00000000       0.00000000       0.00000000      -0.01151862      -0.00951573       0.24625130
Cu       1.28339881       5.18679453      12.12125812        3       0.00000000       0.00000000       0.00000000       0.00000000      -0.03179979      -0.02729745       0.25765206
Cu       3.85019642       5.18679453      12.12125812        3       0.00000000       0.00000000       0.00000000       0.00000000       0.00682264      -0.01255401       0.22401556
Cu       6.41699404       5.18679453      12.12125812        3       0.00000000       0.00000000       0.00000000       0.00000000       0.03215984       0.03161814       0.32644605
Cu       0.00000000       7.40970647      12.12125812        3       0.00000000       0.00000000       0.00000000       0.00000000      -0.00762324      -0.00408811       0.30239465
Cu       2.56679762       7.40970647      12.12125812        3       0.00000000       0.00000000       0.00000000       0.00000000      -0.01006989       0.03265105       0.25076118
Cu       5.13359523       7.40970647      12.12125812        3       0.00000000       0.00000000       0.00000000       0.00000000       0.03082089       0.02441141       0.31717571
Cu       0.00000000       1.48194129      14.24251623        2       0.00000000       0.00000000       0.00000000       0.00000000      -0.10257139       0.10032924      -0.20849932
Cu       2.56679762       1.48194129      14.24251623        2       0.00000000       0.00000000       0.00000000       0.00000000       0.09803275      -0.13189195      -0.09586048
Cu       5.13359523       1.48194129      14.24251623        2       0.00000000       0.00000000       0.00000000       0.00000000       0.04529027       0.15341683      -0.18230328
Cu       1.28339881       3.70485324      14.24251623        2       0.00000000       0.00000000       0.00000000       0.00000000      -0.02002551      -0.05247652      -0.33865736
Cu       3.85019642       3.70485324      14.24251623        2       0.00000000       0.00000000       0.00000000       0.00000000       0.01926910      -0.01624465      -0.52945435
Cu       6.41699404       3.70485324      14.24251623        2       0.00000000       0.00000000       0.00000000       0.00000000       0.00329343      -0.14686821      -0.30590343
Cu       0.00000000       5.92776518      14.24251623        2       0.00000000       0.00000000       0.00000000       0.00000000       0.12550556       0.05538390      -0.19634932
Cu       2.56679762       5.92776518      14.24251623        2       0.00000000       0.00000000       0.00000000       0.00000000       0.03454359       0.08132863      -0.08521996
Cu       5.13359523       5.92776518      14.24251623        2       0.00000000       0.00000000       0.00000000       0.00000000      -0.09411505      -0.02952152      -0.21655862
Cu       1.28339881       8.15067712      14.24251623        2       0.00000000       0.00000000       0.00000000       0.00000000       0.07346835      -0.08710300      -0.22070973
Cu       3.85019642       8.15067712      14.24251623        2       0.00000000       0.00000000       0.00000000       0.00000000      -0.04638210      -0.02693081      -0.29102374
Cu       6.41699404       8.15067712      14.24251623        2       0.00000000       0.00000000       0.00000000       0.00000000       0.02687814       0.00182368      -0.38490319
Cu       7.70403694       8.89469590      16.25990084        1       0.00000000      -0.00189267       0.00040581       0.12676160      -0.00952766      -0.03748244      -0.03983367
Cu       2.58630200       8.88975527      16.31291532        1       0.00000000      -0.00389819       0.00762803       0.12445337       0.01079648       0.22582354      -0.14481250
Cu       5.16395187       8.91356911      16.24893090        1       0.00000000       0.00511592      -0.00271568       0.12198534       0.02217746      -0.06169001      -0.02377458
Cu       1.30926101       2.19594106      16.27741637        1       0.00000000      -0.00281561       0.00284354       0.12463866       0.05887778       0.04515265      -0.03800030
Cu       3.85441527       2.24473213      16.30992556        1       0.00000000       0.03851686       0.04687643       0.18256392      -0.12608811      -0.15905689      -0.14495354
Cu       6.48539411       2.18097421      16.35224417        1       0.00000000      -0.04021042       0.04529494       0.20559398       0.10587952      -0.08698563      -0.22982513
Cu       0.02416522       4.44210036      16.25695553        1       0.00000000       0.00201007       0.00383920       0.12468695       0.06574021       0.02115770      -0.05972396
Cu       2.56506488       4.39586620      16.25032929        1       0.00000000      -0.00700736       0.00228489       0.12197074      -0.17873826       0.09860294      -0.13641573
Cu       5.12967006       4.45245460      16.24682055        1       0.00000000       0.00338884      -0.01210978       0.15707406      -0.06290797      -0.10423575       0.11940694
Cu       1.20060811       6.65453947      16.33555939        1       0.00000000       0.00310421       0.01118469       0.13320476      -0.01768900      -0.12771711      -0.11267736
Cu       3.97522908       6.68372132      16.31609843        1       0.00000000      -0.00960014       0.01373054       0.12360892      -0.04546855      -0.05262563      -0.14621570
Cu       6.43602495       6.67553634      16.28235002        1       0.00000000       0.00596021       0.01165216       0.12157245       0.00946657      -0.00248806      -0.13151010
O        4.57548172       4.30310124      19.03376080        0       0.00000000      -0.04913154      -0.02659717       0.03510609      -0.24399110       0.09287847       0.45615259
C        5.13558180       3.60517058      18.02682114        0       0.00000000      -0.04835998      -0.08047083      -0.06144486      -0.29754358      -0.01900647       0.32224724
H        3.99775054       5.03336571      18.68481495        0       0.00000000      -0.04929636      -0.03255327       0.02088720       0.03447449       0.04612919       0.07904679
O        5.95662621       2.70469932      18.32006088        0       0.00000000      -0.02255408      -0.00937760       0.01998110       0.12182944       0.70680686      -0.26363812
O        2.59744592       7.06467183      17.69412452        0       0.50000000       0.00115260       0.02329399       0.05381361       0.35955024      -0.52887351      -0.07411652
H        2.56276021       7.56479509      18.52527186        0       0.50000000       0.01159040       0.06691031       0.02089660       0.00660511       0.05569792       0.18358071
42
Lattice="7.700392847121503 0.0 0.0 0.0 8.891647766302935 0.0 0.0 0.0 26.3637743517507" Properties=species:S:1:pos:R:3:tags:I:1:initial_magmoms:R:1:MACE_forces:R:3:DFT_forces:R:3 _ConfigSet_loc=" / 7" MACE_energy=-172.82893911529501 DFT_energy=-174.67068233 pbc="T T T"
Cu       1.28339881       0.74097065      12.12125812        3       0.00000000       0.00000000       0.00000000       0.00000000      -0.01177701      -0.00872734       0.32548710
Cu       3.85019642       0.74097065      12.12125812        3       0.00000000       0.00000000       0.00000000       0.00000000       0.00184552      -0.02572686       0.27616976
Cu       6.41699404       0.74097065      12.12125812        3       0.00000000       0.00000000       0.00000000       0.00000000       0.00840081      -0.03347054       0.30377902
Cu       0.00000000       2.96388259      12.12125812        3       0.00000000       0.00000000       0.00000000       0.00000000       0.04202932       0.01594876       0.27507539
Cu       2.56679762       2.96388259      12.12125812        3       0.00000000       0.00000000       0.00000000       0.00000000      -0.02441192       0.00081775       0.33392103
Cu       5.13359523       2.96388259      12.12125812        3       0.00000000       0.00000000       0.00000000       0.00000000      -0.01666430      -0.01118341       0.24320737
Cu       1.28339881       5.18679453      12.12125812        3       0.00000000       0.00000000       0.00000000       0.00000000      -0.03951230      -0.02654575       0.25916319
Cu       3.85019642       5.18679453      12.12125812        3       0.00000000       0.00000000       0.00000000       0.00000000       0.01286977      -0.00989858       0.22709697
Cu       6.41699404       5.18679453      12.12125812        3       0.00000000       0.00000000       0.00000000       0.00000000       0.03226724       0.03542429       0.32380376
Cu       0.00000000       7.40970647      12.12125812        3       0.00000000       0.00000000       0.00000000       0.00000000      -0.00608695      -0.00834562       0.30387389
Cu       2.56679762       7.40970647      12.12125812        3       0.00000000       0.00000000       0.00000000       0.00000000      -0.01216026       0.03644523       0.25527341
Cu       5.13359523       7.40970647      12.12125812        3       0.00000000       0.00000000       0.00000000       0.00000000       0.02886464       0.02076464       0.31546939
Cu       0.00000000       1.48194129      14.24251623        2       0.00000000       0.00000000       0.00000000       0.00000000      -0.11088811       0.10260112      -0.20357441
Cu       2.56679762       1.48194129      14.24251623        2       0.00000000       0.00000000       0.00000000       0.00000000       0.09864457      -0.06649968      -0.16959762
Cu       5.13359523       1.48194129      14.24251623        2       0.00000000       0.00000000       0.00000000       0.00000000       0.04917329       0.15519604      -0.17575843
Cu       1.28339881       3.70485324      14.24251623        2       0.00000000       0.00000000       0.00000000       0.00000000      -0.02187880      -0.04946925      -0.33597624
Cu       3.85019642       3.70485324      14.24251623        2       0.00000000       0.00000000       0.00000000       0.00000000       0.02317941      -0.01375965      -0.52914965
Cu       6.41699404       3.70485324      14.24251623        2       0.00000000       0.00000000       0.00000000       0.00000000       0.00206679      -0.14277792      -0.29800400
Cu       0.00000000       5.92776518      14.24251623        2       0.00000000       0.00000000       0.00000000       0.00000000       0.14072082       0.07207762      -0.17032323
Cu       2.56679762       5.92776518      14.24251623        2       0.00000000       0.00000000       0.00000000       0.00000000       0.03311915       0.07188875      -0.09101442
Cu       5.13359523       5.92776518      14.24251623        2       0.00000000       0.00000000       0.00000000       0.00000000      -0.11006266      -0.01141593      -0.18996849
Cu       1.28339881       8.15067712      14.24251623        2       0.00000000       0.00000000       0.00000000       0.00000000       0.05390356      -0.10210834      -0.23338993
Cu       3.85019642       8.15067712      14.24251623        2       0.00000000       0.00000000       0.00000000       0.00000000      -0.02574244      -0.04167405      -0.31659323
Cu       6.41699404       8.15067712      14.24251623        2       0.00000000       0.00000000       0.00000000       0.00000000       0.02876381       0.00656723      -0.37307487
Cu       7.70766081       8.89356169      16.26228028        1       0.00000000       0.00542498      -0.00180338       0.13165238      -0.00213175      -0.02599809      -0.02927899
Cu       2.58644799       8.91181387      16.28753461        1       0.00000000      -0.00356736       0.05355387       0.07230656       0.01506979       0.22272460      -0.17587872
Cu       5.16146817       8.91308576      16.25118260        1       0.00000000       0.00009247      -0.00365528       0.12660358       0.01842299      -0.04690093      -0.01339058
Cu       1.30650279       2.20129919      16.27737977        1       0.00000000      -0.00849217       0.01352232       0.12460719       0.05766391       0.03908424      -0.02663166
Cu       3.85714404       2.25079911      16.31049782        1       0.00000000       0.04560510       0.06054855       0.18577084      -0.12550871      -0.16535850      -0.13351005
Cu       6.48492720       2.18162122      16.35304340        1       0.00000000      -0.04118459       0.04673166       0.20699658       0.10432161      -0.08305806      -0.22178663
Cu       0.02418998       4.44788379      16.25561682        1       0.00000000       0.00184150       0.01562271       0.12180960       0.06722712       0.02989521      -0.06556361
Cu       2.56450128       4.39380762      16.24847603        1       0.00000000      -0.00804774      -0.00172943       0.11809153      -0.17384251       0.09598899      -0.14576125
Cu       5.12971017       4.45865246      16.24540399        1       0.00000000       0.00378078       0.00022758       0.15413484      -0.07235824      -0.08904252       0.10539809
Cu       1.22196500       6.67072624      16.34411569        1       0.00000000       0.04631492       0.04358253       0.15115533       0.00942786      -0.10904225      -0.09652789
Cu       3.95663291       6.70274214      16.32192897        1       0.00000000      -0.04740539       0.05187077       0.13553369      -0.06455666      -0.03114933      -0.13321882
Cu       6.43671569       6.67680232      16.28166668        1       0.00000000       0.00768482       0.01453272       0.12010064       0.01393530       0.01480293      -0.13920796
O        4.57080553       4.30839206      19.02952995        0       0.00000000      -0.05859198      -0.01597194       0.02677943      -0.22746004       0.07146431       0.41377117
C        5.13087814       3.60985176      18.02455674        0       0.00000000      -0.05662442      -0.07475213      -0.06760827      -0.29619514      -0.02534604       0.29602247
H        3.98939457       5.03989507      18.68624381        0       0.00000000      -0.06560253      -0.01807022       0.02413640       0.04796766      -0.17258383       0.17795805
O        5.95296248       2.70952055      18.31799072        0       0.00000000      -0.03156139       0.00242724       0.01521616       0.10148814       0.73617262      -0.20379532
O        2.60752141       6.92004038      17.75963885        0       0.50000000       0.02141193      -0.26838949       0.19383890       0.32586849      -0.49145016      -0.07002504
H        2.56988833       7.58249188      18.47077760        0       0.50000000       0.02554301       0.09192752      -0.09818908       0.02399621       0.06366831       0.10553101
42
Lattice="7.700392847121503 0.0 0.0 0.0 8.891647766302935 0.0 0.0 0.0 26.3637743517507" Properties=species:S:1:pos:R:3:tags:I:1:initial_magmoms:R:1:MACE_forces:R:3:DFT_forces:R:3 _ConfigSet_loc=" / 8" MACE_energy=-172.91129046234704 DFT_energy=-174.71599218 pbc="T T T"
Cu       1.28339881       0.74097065      12.12125812        3       0.00000000       0.00000000       0.00000000       0.00000000      -0.01253288      -0.01042333       0.33483843
Cu       3.85019642       0.74097065      12.12125812        3       0.00000000       0.00000000       0.00000000       0.00000000       0.00053184      -0.02279900       0.28007141
Cu       6.41699404       0.74097065      12.12125812        3       0.00000000       0.00000000       0.00000000       0.00000000       0.00876379      -0.03274008       0.30447262
Cu       0.00000000       2.96388259      12.12125812        3       0.00000000       0.00000000       0.00000000       0.00000000       0.04421033       0.01767604       0.26678208
Cu       2.56679762       2.96388259      12.12125812        3       0.00000000       0.00000000       0.00000000       0.00000000      -0.02494905      -0.00382724       0.32160789
Cu       5.13359523       2.96388259      12.12125812        3       0.00000000       0.00000000       0.00000000       0.00000000      -0.01939476      -0.01620379       0.23925597
Cu       1.28339881       5.18679453      12.12125812        3       0.00000000       0.00000000       0.00000000       0.00000000      -0.04803435      -0.02716982       0.26032761
Cu       3.85019642       5.18679453      12.12125812        3       0.00000000       0.00000000       0.00000000       0.00000000       0.01834270      -0.00655827       0.23005646
Cu       6.41699404       5.18679453      12.12125812        3       0.00000000       0.00000000       0.00000000       0.00000000       0.03417299       0.03940006       0.31569323
Cu       0.00000000       7.40970647      12.12125812        3       0.00000000       0.00000000       0.00000000       0.00000000      -0.00570209      -0.01312821       0.30562916
Cu       2.56679762       7.40970647      12.12125812        3       0.00000000       0.00000000       0.00000000       0.00000000      -0.01297053       0.03829569       0.25939054
Cu       5.13359523       7.40970647      12.12125812        3       0.00000000       0.00000000       0.00000000       0.00000000       0.02700229       0.01575573       0.31371792
Cu       0.00000000       1.48194129      14.24251623        2       0.00000000       0.00000000       0.00000000       0.00000000      -0.11944424       0.10286420      -0.19374182
Cu       2.56679762       1.48194129      14.24251623        2       0.00000000       0.00000000       0.00000000       0.00000000       0.09850003       0.01479665      -0.26087924
Cu       5.13359523       1.48194129      14.24251623        2       0.00000000       0.00000000       0.00000000       0.00000000       0.05311561       0.15437362      -0.16592791
Cu       1.28339881       3.70485324      14.24251623        2       0.00000000       0.00000000       0.00000000       0.00000000      -0.02496231      -0.04268793      -0.33607393
Cu       3.85019642       3.70485324      14.24251623        2       0.00000000       0.00000000       0.00000000       0.00000000       0.02813463      -0.00734296      -0.53052700
Cu       6.41699404       3.70485324      14.24251623        2       0.00000000       0.00000000       0.00000000       0.00000000       0.00057076      -0.13713948      -0.29001981
Cu       0.00000000       5.92776518      14.24251623        2       0.00000000       0.00000000       0.00000000       0.00000000       0.15428105       0.08896470      -0.14616983
Cu       2.56679762       5.92776518      14.24251623        2       0.00000000       0.00000000       0.00000000       0.00000000       0.03235100       0.06281530      -0.10674612
Cu       5.13359523       5.92776518      14.24251623        2       0.00000000       0.00000000       0.00000000       0.00000000      -0.12484841       0.01059709      -0.16882792
Cu       1.28339881       8.15067712      14.24251623        2       0.00000000       0.00000000       0.00000000       0.00000000       0.03795467      -0.12811000      -0.22914756
Cu       3.85019642       8.15067712      14.24251623        2       0.00000000       0.00000000       0.00000000       0.00000000      -0.00748724      -0.06723994      -0.32359913
Cu       6.41699404       8.15067712      14.24251623        2       0.00000000       0.00000000       0.00000000       0.00000000       0.03046917       0.01087108      -0.36088932
Cu       7.71263583       8.89073951      16.26539993        1       0.00000000       0.00939679      -0.00586224       0.13413932       0.00180347      -0.01396157      -0.02328236
Cu       2.58642499       8.94259861      16.26258905        1       0.00000000      -0.00357853       0.07936944       0.06728485       0.01857333       0.17721400      -0.12875073
Cu       5.15801697       8.91099549      16.25403337        1       0.00000000      -0.00239331      -0.00740349       0.12845050       0.01490403      -0.03375020      -0.00936635
Cu       1.30227387       2.20982957      16.27712925        1       0.00000000      -0.01271719       0.02181468       0.12420830       0.05341328       0.03611748      -0.01975251
Cu       3.86120309       2.26000233      16.31083069        1       0.00000000       0.05003899       0.07079174       0.18672124      -0.12204063      -0.16903263      -0.12385832
Cu       6.48404961       2.18209303      16.35424391        1       0.00000000      -0.04156118       0.04557309       0.20581737       0.10218861      -0.08614237      -0.21400497
Cu       0.02363010       4.45534084      16.25404432        1       0.00000000       0.00061493       0.02106261       0.12062710       0.06314878       0.03116170      -0.06787537
Cu       2.56392480       4.39212845      16.24670416        1       0.00000000      -0.00821513      -0.00037624       0.11778317      -0.16721795       0.09377449      -0.15245174
Cu       5.13053883       4.46689487      16.24345082        1       0.00000000       0.00560497       0.00641794       0.15263412      -0.07440773      -0.07851894       0.09228505
Cu       1.25233425       6.68058109      16.35619105        1       0.00000000       0.07158689       0.03245823       0.16142146       0.01869159      -0.09919976      -0.08293548
Cu       3.92966383       6.71632237      16.33048054        1       0.00000000      -0.06994664       0.04252926       0.14186662      -0.06342540      -0.02366890      -0.13644332
Cu       6.43769851       6.67949603      16.28101578        1       0.00000000       0.00954141       0.01858981       0.11998072       0.01937596       0.02888489      -0.14151281
O        4.56709531       4.31808654      19.02500178        0       0.00000000      -0.06778937      -0.00821083       0.02301913      -0.20698377       0.04064315       0.36763541
C        5.12617285       3.61848647      18.02212753        0       0.00000000      -0.08796244      -0.04300138      -0.07848123      -0.27077802      -0.05228306       0.27805970
H        3.98003462       5.05060845      18.68867787        0       0.00000000      -0.07854904      -0.01024374       0.02354062       0.05979764      -0.19798311       0.17685178
O        5.94856952       2.71784634      18.31464026        0       0.00000000      -0.02018966      -0.00944139       0.02199700       0.05241612       0.78971922      -0.14347411
O        2.62344638       6.76951899      17.83094484        0       0.50000000       0.04015085      -0.31973882       0.21251255       0.28863500      -0.44915481      -0.07066235
H        2.58334347       7.55693382      18.40553888        0       0.50000000       0.04367358       0.00182756      -0.13204577       0.04383069      -0.03485968       0.08024474
42
Lattice="7.700392847121503 0.0 0.0 0.0 8.891647766302935 0.0 0.0 0.0 26.3637743517507" Properties=species:S:1:pos:R:3:tags:I:1:initial_magmoms:R:1:MACE_forces:R:3:DFT_forces:R:3 _ConfigSet_loc=" / 9" MACE_energy=-172.99008122425988 DFT_energy=-174.75825901 pbc="T T T"
Cu       1.28339881       0.74097065      12.12125812        3       0.00000000       0.00000000       0.00000000       0.00000000      -0.01257965      -0.01095235       0.34619311
Cu       3.85019642       0.74097065      12.12125812        3       0.00000000       0.00000000       0.00000000       0.00000000      -0.00057459      -0.01773045       0.28818169
Cu       6.41699404       0.74097065      12.12125812        3       0.00000000       0.00000000       0.00000000       0.00000000       0.00964227      -0.03128015       0.30603540
Cu       0.00000000       2.96388259      12.12125812        3       0.00000000       0.00000000       0.00000000       0.00000000       0.04514906       0.01860846       0.26062093
Cu       2.56679762       2.96388259      12.12125812        3       0.00000000       0.00000000       0.00000000       0.00000000      -0.02639178      -0.00813300       0.30602963
Cu       5.13359523       2.96388259      12.12125812        3       0.00000000       0.00000000       0.00000000       0.00000000      -0.01865848      -0.02136204       0.23511428
Cu       1.28339881       5.18679453      12.12125812        3       0.00000000       0.00000000       0.00000000       0.00000000      -0.05470192      -0.02916503       0.26098523
Cu       3.85019642       5.18679453      12.12125812        3       0.00000000       0.00000000       0.00000000       0.00000000       0.02210959      -0.00457531       0.23204129
Cu       6.41699404       5.18679453      12.12125812        3       0.00000000       0.00000000       0.00000000       0.00000000       0.03738151       0.04122953       0.30428528
Cu       0.00000000       7.40970647      12.12125812        3       0.00000000       0.00000000       0.00000000       0.00000000      -0.00608751      -0.01665464       0.30962923
Cu       2.56679762       7.40970647      12.12125812        3       0.00000000       0.00000000       0.00000000       0.00000000      -0.01384324       0.03762818       0.26383345
Cu       5.13359523       7.40970647      12.12125812        3       0.00000000       0.00000000       0.00000000       0.00000000       0.02677334       0.01041596       0.31336234
Cu       0.00000000       1.48194129      14.24251623        2       0.00000000       0.00000000       0.00000000       0.00000000      -0.12840118       0.09949671      -0.17489929
Cu       2.56679762       1.48194129      14.24251623        2       0.00000000       0.00000000       0.00000000       0.00000000       0.09872735       0.07948574      -0.32654237
Cu       5.13359523       1.48194129      14.24251623        2       0.00000000       0.00000000       0.00000000       0.00000000       0.05859137       0.15049410      -0.14996476
Cu       1.28339881       3.70485324      14.24251623        2       0.00000000       0.00000000       0.00000000       0.00000000      -0.02716449      -0.03469354      -0.33963736
Cu       3.85019642       3.70485324      14.24251623        2       0.00000000       0.00000000       0.00000000       0.00000000       0.03083417      -0.00060286      -0.53859341
Cu       6.41699404       3.70485324      14.24251623        2       0.00000000       0.00000000       0.00000000       0.00000000       0.00309348      -0.13558272      -0.28978108
Cu       0.00000000       5.92776518      14.24251623        2       0.00000000       0.00000000       0.00000000       0.00000000       0.16112651       0.10401542      -0.13551374
Cu       2.56679762       5.92776518      14.24251623        2       0.00000000       0.00000000       0.00000000       0.00000000       0.03061804       0.05717004      -0.13214629
Cu       5.13359523       5.92776518      14.24251623        2       0.00000000       0.00000000       0.00000000       0.00000000      -0.12480669       0.03671612      -0.17850654
Cu       1.28339881       8.15067712      14.24251623        2       0.00000000       0.00000000       0.00000000       0.00000000       0.03416422      -0.15702229      -0.19825176
Cu       3.85019642       8.15067712      14.24251623        2       0.00000000       0.00000000       0.00000000       0.00000000       0.00285970      -0.09566696      -0.30451689
Cu       6.41699404       8.15067712      14.24251623        2       0.00000000       0.00000000       0.00000000       0.00000000       0.03298788       0.01742767      -0.34809306
Cu       7.72097249       8.88677286      16.26956746        1       0.00000000       0.00565783      -0.00768687       0.13280531      -0.00161814      -0.00601148      -0.02174754
Cu       2.58816073       8.96664427      16.24909446        1       0.00000000      -0.00654340       0.03401480       0.11280028       0.01933403       0.08381106      -0.07212575
Cu       5.15413495       8.90709111      16.25782429        1       0.00000000       0.00173512      -0.00468599       0.12512062       0.01953757      -0.01870317      -0.01353165
Cu       1.29858538       2.21966092      16.27683766        1       0.00000000      -0.01269331       0.00994887       0.12534650       0.04894480       0.01873130      -0.01835199
Cu       3.86641728       2.27166108      16.31137600        1       0.00000000       0.04656907       0.05980025       0.18773906      -0.12054034      -0.18853565      -0.12027734
Cu       6.48335937       2.18282860      16.35780918        1       0.00000000      -0.04581514       0.04373220       0.21174644       0.10266154      -0.09590495      -0.20697916
Cu       0.02279202       4.46361950      16.25167777        1       0.00000000      -0.00188829       0.00904286       0.12322550       0.05431055       0.01615461      -0.06268093
Cu       2.56359028       4.39006322      16.24462726        1       0.00000000      -0.00738649      -0.00320952       0.12110524      -0.16170621       0.09982190      -0.14790411
Cu       5.13443429       4.47641123      16.23809069        1       0.00000000       0.00747275      -0.00218790       0.14969754      -0.07701147      -0.08127877       0.07711594
Cu       1.28460256       6.67995149      16.36945604        1       0.00000000       0.03411326       0.00516787       0.14654978      -0.02369820      -0.08687233      -0.09261048
Cu       3.90627387       6.71944864      16.33551909        1       0.00000000      -0.01937437       0.01523393       0.11376494      -0.01582670      -0.00210596      -0.17871664
Cu       6.44063471       6.68444155      16.28079352        1       0.00000000       0.01521063       0.01949428       0.12115268       0.03170593       0.03564724      -0.13659719
O        4.55090551       4.33749515      19.01400869        0       0.00000000      -0.08332697       0.00016788       0.01935420      -0.19308484       0.00729646       0.31242985
C        5.11155692       3.63479869      18.01732228        0       0.00000000      -0.08076685      -0.05694119      -0.07523851      -0.27629222      -0.04328477       0.25197119
H        3.95267938       5.06740933      18.68008647        0       0.00000000      -0.09193771      -0.00138865       0.00620135       0.07083845      -0.02691126       0.12119513
O        5.93709535       2.73533656      18.31089145        0       0.00000000      -0.04598776       0.01544657       0.01634907       0.03074616       0.79783977      -0.06380002
O        2.65512383       6.59522733      17.88771934        0       0.50000000       0.05519736      -0.12544122       0.12412335       0.25768884      -0.41040230      -0.06653251
H        2.61572934       7.44914009      18.36485886        0       0.50000000       0.05695807      -0.13564383      -0.04248126       0.05316124      -0.18855826       0.12927792
42
Lattice="7.700392847121503 0.0 0.0 0.0 8.891647766302935 0.0 0.0 0.0 26.3637743517507" Properties=species:S:1:pos:R:3:tags:I:1:initial_magmoms:R:1:MACE_forces:R:3:DFT_forces:R:3 _ConfigSet_loc=" / 10" MACE_energy=-173.03699768823458 DFT_energy=-174.80194913 pbc="T T T"
Cu       1.28339881       0.74097065      12.12125812        3       0.00000000       0.00000000       0.00000000       0.00000000      -0.01115121      -0.01146582       0.35320005
Cu       3.85019642       0.74097065      12.12125812        3       0.00000000       0.00000000       0.00000000       0.00000000      -0.00213807      -0.01365570       0.29519492
Cu       6.41699404       0.74097065      12.12125812        3       0.00000000       0.00000000       0.00000000       0.00000000       0.01045560      -0.03105821       0.30830355
Cu       0.00000000       2.96388259      12.12125812        3       0.00000000       0.00000000       0.00000000       0.00000000       0.04526249       0.01754000       0.26037864
Cu       2.56679762       2.96388259      12.12125812        3       0.00000000       0.00000000       0.00000000       0.00000000      -0.02651211      -0.01019737       0.29572216
Cu       5.13359523       2.96388259      12.12125812        3       0.00000000       0.00000000       0.00000000       0.00000000      -0.01713373      -0.02361562       0.23471897
Cu       1.28339881       5.18679453      12.12125812        3       0.00000000       0.00000000       0.00000000       0.00000000      -0.05563194      -0.03037602       0.26143445
Cu       3.85019642       5.18679453      12.12125812        3       0.00000000       0.00000000       0.00000000       0.00000000       0.02218793      -0.00533836       0.23097877
Cu       6.41699404       5.18679453      12.12125812        3       0.00000000       0.00000000       0.00000000       0.00000000       0.03923365       0.04108342       0.29535566
Cu       0.00000000       7.40970647      12.12125812        3       0.00000000       0.00000000       0.00000000       0.00000000      -0.00638199      -0.01729861       0.31303221
Cu       2.56679762       7.40970647      12.12125812        3       0.00000000       0.00000000       0.00000000       0.00000000      -0.01556976       0.03595910       0.26576342
Cu       5.13359523       7.40970647      12.12125812        3       0.00000000       0.00000000       0.00000000       0.00000000       0.02834748       0.00797588       0.31045975
Cu       0.00000000       1.48194129      14.24251623        2       0.00000000       0.00000000       0.00000000       0.00000000      -0.13836843       0.09294035      -0.15463145
Cu       2.56679762       1.48194129      14.24251623        2       0.00000000       0.00000000       0.00000000       0.00000000       0.09696135       0.09196464      -0.33730004
Cu       5.13359523       1.48194129      14.24251623        2       0.00000000       0.00000000       0.00000000       0.00000000       0.06697037       0.14780426      -0.14070935
Cu       1.28339881       3.70485324      14.24251623        2       0.00000000       0.00000000       0.00000000       0.00000000      -0.01967595      -0.03169024      -0.33435402
Cu       3.85019642       3.70485324      14.24251623        2       0.00000000       0.00000000       0.00000000       0.00000000       0.02317527       0.00087798      -0.54148398
Cu       6.41699404       3.70485324      14.24251623        2       0.00000000       0.00000000       0.00000000       0.00000000       0.01250890      -0.14478222      -0.30802491
Cu       0.00000000       5.92776518      14.24251623        2       0.00000000       0.00000000       0.00000000       0.00000000       0.16352096       0.10232064      -0.14053636
Cu       2.56679762       5.92776518      14.24251623        2       0.00000000       0.00000000       0.00000000       0.00000000       0.03175970       0.04782042      -0.14746789
Cu       5.13359523       5.92776518      14.24251623        2       0.00000000       0.00000000       0.00000000       0.00000000      -0.10403212       0.05103058      -0.21911888
Cu       1.28339881       8.15067712      14.24251623        2       0.00000000       0.00000000       0.00000000       0.00000000       0.03698097      -0.17055153      -0.17283397
Cu       3.85019642       8.15067712      14.24251623        2       0.00000000       0.00000000       0.00000000       0.00000000       0.00837205      -0.10368196      -0.29191519
Cu       6.41699404       8.15067712      14.24251623        2       0.00000000       0.00000000       0.00000000       0.00000000       0.03421867       0.02057638      -0.34081913
Cu       7.72768562       8.88198639      16.27329924        1       0.00000000       0.00303647      -0.00100436       0.13103115      -0.00604324      -0.00054952      -0.02533955
Cu       2.58979152       8.96847166      16.24898677        1       0.00000000      -0.00626446       0.00840048       0.12793708       0.02218515       0.03992747      -0.04033758
Cu       5.15457646       8.90515425      16.26077653        1       0.00000000       0.00384383      -0.00105286       0.12348144       0.02246487      -0.01047057      -0.01840383
Cu       1.29649112       2.22052050      16.27703084        1       0.00000000      -0.00705330      -0.00074892       0.12633940       0.05081474       0.00537926      -0.02326702
Cu       3.86884055       2.27369412      16.31050239        1       0.00000000       0.03997315       0.04854422       0.18498196      -0.11868025      -0.20043615      -0.12169878
Cu       6.48089523       2.18140339      16.36478090        1       0.00000000      -0.03971474       0.04431148       0.21132797       0.11272004      -0.10018308      -0.20734642
Cu       0.02235496       4.46333474      16.24984298        1       0.00000000       0.00084145       0.00420856       0.12400827       0.05589492       0.01701762      -0.05924947
Cu       2.56393935       4.38496320      16.24676874        1       0.00000000      -0.00775763      -0.00501677       0.12277148      -0.15869296       0.10757716      -0.14365789
Cu       5.14091013       4.47766916      16.22913632        1       0.00000000       0.00849060      -0.00926547       0.14490256      -0.08544328      -0.08015432       0.07497676
Cu       1.30394576       6.67382524      16.37375802        1       0.00000000       0.01284422       0.00292603       0.14140484      -0.04834323      -0.06000727      -0.10874255
Cu       3.91039531       6.71962910      16.32924667        1       0.00000000      -0.00208633       0.01361195       0.10860410      -0.00736776       0.02497928      -0.21110826
Cu       6.44927882       6.68603793      16.28132249        1       0.00000000       0.01574140       0.01686694       0.12097602       0.03510357       0.03522266      -0.13405189
O        4.54224700       4.36769686      18.99953391        0       0.00000000      -0.08876868      -0.00130219       0.01755618      -0.18206946      -0.02710284       0.27710696
C        5.10777208       3.65977234      18.01426710        0       0.00000000      -0.08364710      -0.06453618      -0.06583316      -0.24813605      -0.06834553       0.24796916
H        3.92863341       5.08861062      18.65714568        0       0.00000000      -0.09485642      -0.00574636      -0.00507571       0.09172124      -0.03424922       0.10813273
O        5.93471579       2.76185226      18.31104039        0       0.00000000      -0.05409949       0.01322347       0.01835188      -0.00984328       0.80575011      -0.01863601
O        2.70277262       6.44204405      17.89641537        0       0.50000000       0.04536014      -0.08330487       0.06131192       0.22128509      -0.37080491      -0.06729654
H        2.66336147       7.28373352      18.39219537        0       0.50000000       0.05333762      -0.10167219       0.03752090       0.02906981      -0.14773213       0.17560281
42
Lattice="7.700392847121503 0.0 0.0 0.0 8.891647766302935 0.0 0.0 0.0 26.3637743517507" Properties=species:S:1:pos:R:3:tags:I:1:initial_magmoms:R:1:MACE_forces:R:3:DFT_forces:R:3 _ConfigSet_loc=" / 11" MACE_energy=-173.05933965145678 DFT_energy=-174.83372723 pbc="T T T"
Cu       1.28339881       0.74097065      12.12125812        3       0.00000000       0.00000000       0.00000000       0.00000000      -0.00999029      -0.01201341       0.35766251
Cu       3.85019642       0.74097065      12.12125812        3       0.00000000       0.00000000       0.00000000       0.00000000      -0.00370406      -0.01066698       0.30053060
Cu       6.41699404       0.74097065      12.12125812        3       0.00000000       0.00000000       0.00000000       0.00000000       0.01045904      -0.03090228       0.30955628
Cu       0.00000000       2.96388259      12.12125812        3       0.00000000       0.00000000       0.00000000       0.00000000       0.04496587       0.01683050       0.26135769
Cu       2.56679762       2.96388259      12.12125812        3       0.00000000       0.00000000       0.00000000       0.00000000      -0.02653915      -0.01053143       0.28941707
Cu       5.13359523       2.96388259      12.12125812        3       0.00000000       0.00000000       0.00000000       0.00000000      -0.01685168      -0.02466716       0.23526724
Cu       1.28339881       5.18679453      12.12125812        3       0.00000000       0.00000000       0.00000000       0.00000000      -0.05545834      -0.03144044       0.26181086
Cu       3.85019642       5.18679453      12.12125812        3       0.00000000       0.00000000       0.00000000       0.00000000       0.02075968      -0.00652305       0.22998976
Cu       6.41699404       5.18679453      12.12125812        3       0.00000000       0.00000000       0.00000000       0.00000000       0.04014157       0.04098397       0.28908712
Cu       0.00000000       7.40970647      12.12125812        3       0.00000000       0.00000000       0.00000000       0.00000000      -0.00675283      -0.01734377       0.31594126
Cu       2.56679762       7.40970647      12.12125812        3       0.00000000       0.00000000       0.00000000       0.00000000      -0.01689012       0.03464644       0.26661562
Cu       5.13359523       7.40970647      12.12125812        3       0.00000000       0.00000000       0.00000000       0.00000000       0.02888227       0.00651107       0.30944181
Cu       0.00000000       1.48194129      14.24251623        2       0.00000000       0.00000000       0.00000000       0.00000000      -0.14258888       0.08572427      -0.14403528
Cu       2.56679762       1.48194129      14.24251623        2       0.00000000       0.00000000       0.00000000       0.00000000       0.09654261       0.08831255      -0.33295401
Cu       5.13359523       1.48194129      14.24251623        2       0.00000000       0.00000000       0.00000000       0.00000000       0.07276852       0.14611070      -0.13754040
Cu       1.28339881       3.70485324      14.24251623        2       0.00000000       0.00000000       0.00000000       0.00000000      -0.00968743      -0.02911540      -0.32165844
Cu       3.85019642       3.70485324      14.24251623        2       0.00000000       0.00000000       0.00000000       0.00000000       0.00926651       0.00369218      -0.53193949
Cu       6.41699404       3.70485324      14.24251623        2       0.00000000       0.00000000       0.00000000       0.00000000       0.01985239      -0.15320134      -0.32847622
Cu       0.00000000       5.92776518      14.24251623        2       0.00000000       0.00000000       0.00000000       0.00000000       0.15939774       0.09564653      -0.14990935
Cu       2.56679762       5.92776518      14.24251623        2       0.00000000       0.00000000       0.00000000       0.00000000       0.03439799       0.03620931      -0.15575389
Cu       5.13359523       5.92776518      14.24251623        2       0.00000000       0.00000000       0.00000000       0.00000000      -0.08984223       0.05319958      -0.24836258
Cu       1.28339881       8.15067712      14.24251623        2       0.00000000       0.00000000       0.00000000       0.00000000       0.03852460      -0.17540182      -0.16311828
Cu       3.85019642       8.15067712      14.24251623        2       0.00000000       0.00000000       0.00000000       0.00000000       0.01084842      -0.10478866      -0.28677493
Cu       6.41699404       8.15067712      14.24251623        2       0.00000000       0.00000000       0.00000000       0.00000000       0.03304722       0.02192150      -0.33705416
Cu       7.73118454       8.87704879      16.27561367        1       0.00000000       0.00205805       0.00424173       0.12998778      -0.00998502       0.00231625      -0.02891919
Cu       2.58917045       8.96308798      16.25126452        1       0.00000000      -0.00129716       0.00299297       0.12821732       0.02701499       0.02931508      -0.02469377
Cu       5.15406436       8.90423643      16.26261869        1       0.00000000       0.00706429      -0.00057854       0.12432854       0.02858288      -0.00932721      -0.02221627
Cu       1.29707187       2.21827413      16.27730604        1       0.00000000      -0.00343054      -0.00530533       0.12629008       0.04814591      -0.00124633      -0.02982860
Cu       3.87008016       2.27225048      16.30991625        1       0.00000000       0.03529914       0.04163735       0.18129556      -0.11526318      -0.20233303      -0.12362828
Cu       6.48123218       2.17747035      16.36786587        1       0.00000000      -0.03723452       0.04557161       0.20665845       0.11714111      -0.10076605      -0.20843847
Cu       0.02078828       4.46080378      16.24868071        1       0.00000000       0.00293755       0.00089613       0.12224652       0.05974783       0.01991011      -0.05930638
Cu       2.56258907       4.38068002      16.25243387        1       0.00000000      -0.00626038      -0.00260249       0.12186652      -0.15400691       0.11715578      -0.14316543
Cu       5.14560100       4.47423079      16.22289933        1       0.00000000       0.00860226      -0.01067634       0.14426713      -0.09245793      -0.07367839       0.08125520
Cu       1.31115685       6.66743876      16.37135507        1       0.00000000       0.00270629       0.01219997       0.13304020      -0.05721066      -0.03205540      -0.12577479
Cu       3.91517988       6.72187795      16.32294575        1       0.00000000       0.00404818       0.01358059       0.11792114      -0.01026868       0.03846703      -0.22066887
Cu       6.45322903       6.68545171      16.28151631        1       0.00000000       0.01571926       0.01521127       0.12130411       0.03905829       0.03459413      -0.12916728
O        4.55293432       4.38223471      18.99223920        0       0.00000000      -0.08866316      -0.01073947       0.01998237      -0.16978708      -0.05822012       0.27707013
C        5.11950176       3.67312397      18.01330677        0       0.00000000      -0.08301766      -0.07117591      -0.05691888      -0.22018457      -0.08447655       0.23816986
H        3.92148927       5.09054147      18.64234054        0       0.00000000      -0.08847853      -0.01355637      -0.00818168       0.10921003      -0.01372782       0.15752383
O        5.94954287       2.77699862      18.30931730        0       0.00000000      -0.05466103       0.00404060       0.02258835      -0.03234028       0.77450584      -0.00476613
O        2.73888116       6.32382646      17.88742936        0       0.50000000       0.01295938      -0.02389294       0.06633494       0.18940310      -0.33678149      -0.08170770
H        2.68600999       7.13477079      18.43000464        0       0.50000000       0.05597212      -0.09998212       0.04252145       0.00165079      -0.12684467       0.15916137
42
Lattice="7.700392847121503 0.0 0.0 0.0 8.891647766302935 0.0 0.0 0.0 26.3637743517507" Properties=species:S:1:pos:R:3:tags:I:1:initial_magmoms:R:1:MACE_forces:R:3:DFT_forces:R:3 _ConfigSet_loc=" / 12" MACE_energy=-173.06209854316444 DFT_energy=-174.85384354 pbc="T T T"
Cu       1.28339881       0.74097065      12.12125812        3       0.00000000       0.00000000       0.00000000       0.00000000      -0.00861108      -0.01302786       0.36068938
Cu       3.85019642       0.74097065      12.12125812        3       0.00000000       0.00000000       0.00000000       0.00000000      -0.00447705      -0.00826157       0.30472522
Cu       6.41699404       0.74097065      12.12125812        3       0.00000000       0.00000000       0.00000000       0.00000000       0.01080530      -0.03087089       0.30966146
Cu       0.00000000       2.96388259      12.12125812        3       0.00000000       0.00000000       0.00000000       0.00000000       0.04472894       0.01671082       0.26228091
Cu       2.56679762       2.96388259      12.12125812        3       0.00000000       0.00000000       0.00000000       0.00000000      -0.02535348      -0.00952856       0.28586462
Cu       5.13359523       2.96388259      12.12125812        3       0.00000000       0.00000000       0.00000000       0.00000000      -0.01717151      -0.02494356       0.23615122
Cu       1.28339881       5.18679453      12.12125812        3       0.00000000       0.00000000       0.00000000       0.00000000      -0.05413459      -0.03204880       0.26335743
Cu       3.85019642       5.18679453      12.12125812        3       0.00000000       0.00000000       0.00000000       0.00000000       0.01904308      -0.00840170       0.22827795
Cu       6.41699404       5.18679453      12.12125812        3       0.00000000       0.00000000       0.00000000       0.00000000       0.04099613       0.04080591       0.28448933
Cu       0.00000000       7.40970647      12.12125812        3       0.00000000       0.00000000       0.00000000       0.00000000      -0.00634444      -0.01702864       0.31911791
Cu       2.56679762       7.40970647      12.12125812        3       0.00000000       0.00000000       0.00000000       0.00000000      -0.01760627       0.03347225       0.26639877
Cu       5.13359523       7.40970647      12.12125812        3       0.00000000       0.00000000       0.00000000       0.00000000       0.02942155       0.00605362       0.30911895
Cu       0.00000000       1.48194129      14.24251623        2       0.00000000       0.00000000       0.00000000       0.00000000      -0.13853520       0.07883651      -0.14071897
Cu       2.56679762       1.48194129      14.24251623        2       0.00000000       0.00000000       0.00000000       0.00000000       0.09982432       0.08425962      -0.33371846
Cu       5.13359523       1.48194129      14.24251623        2       0.00000000       0.00000000       0.00000000       0.00000000       0.07782245       0.14332036      -0.13578910
Cu       1.28339881       3.70485324      14.24251623        2       0.00000000       0.00000000       0.00000000       0.00000000       0.00109150      -0.02488796      -0.30495367
Cu       3.85019642       3.70485324      14.24251623        2       0.00000000       0.00000000       0.00000000       0.00000000      -0.00863283       0.01007338      -0.51121154
Cu       6.41699404       3.70485324      14.24251623        2       0.00000000       0.00000000       0.00000000       0.00000000       0.02924744      -0.15841080      -0.34664088
Cu       0.00000000       5.92776518      14.24251623        2       0.00000000       0.00000000       0.00000000       0.00000000       0.15154472       0.08703508      -0.15957168
Cu       2.56679762       5.92776518      14.24251623        2       0.00000000       0.00000000       0.00000000       0.00000000       0.03452431       0.02285499      -0.15933104
Cu       5.13359523       5.92776518      14.24251623        2       0.00000000       0.00000000       0.00000000       0.00000000      -0.08765969       0.04741518      -0.25583151
Cu       1.28339881       8.15067712      14.24251623        2       0.00000000       0.00000000       0.00000000       0.00000000       0.04073384      -0.17879743      -0.16445420
Cu       3.85019642       8.15067712      14.24251623        2       0.00000000       0.00000000       0.00000000       0.00000000       0.01408401      -0.10526447      -0.28861289
Cu       6.41699404       8.15067712      14.24251623        2       0.00000000       0.00000000       0.00000000       0.00000000       0.03176285       0.02159178      -0.33420315
Cu       7.73401852       8.87176181      16.27645995        1       0.00000000      -0.00359452       0.00666166       0.13185996      -0.01747019      -0.00098799      -0.02568298
Cu       2.58741757       8.95735400      16.25193269        1       0.00000000       0.00397047       0.00098978       0.13354934       0.03302323       0.02499315      -0.00798473
Cu       5.15240544       8.90240842      16.26379409        1       0.00000000       0.01416650       0.00059908       0.12524913       0.03880104      -0.00692675      -0.02681045
Cu       1.30245649       2.21594273      16.27756604        1       0.00000000      -0.01460773      -0.00801984       0.12601533       0.02869417      -0.00738455      -0.03620696
Cu       3.87223436       2.26988512      16.30956248        1       0.00000000       0.03481161       0.03677308       0.17896013      -0.11248031      -0.19986767      -0.12353136
Cu       6.48652782       2.17149333      16.36705106        1       0.00000000      -0.04585630       0.04822977       0.20739399       0.10901806      -0.09755622      -0.20354106
Cu       0.02003190       4.45906628      16.24899883        1       0.00000000      -0.00061971      -0.00598711       0.11765269       0.05637170       0.01547006      -0.06335174
Cu       2.55902997       4.37829680      16.26121882        1       0.00000000       0.00008165       0.00004451       0.10977970      -0.14359126       0.13039163      -0.14445211
Cu       5.14972435       4.46603416      16.21932803        1       0.00000000       0.00300873       0.00585696       0.14571020      -0.10532129      -0.04792767       0.09093053
Cu       1.31069548       6.66160934      16.36809250        1       0.00000000       0.00431764       0.01552133       0.11638457      -0.05541566      -0.01420225      -0.15088196
Cu       3.90930666       6.72598654      16.31764436        1       0.00000000       0.03764224       0.00656916       0.14203012       0.01890733       0.03922555      -0.20873124
Cu       6.45169189       6.68252811      16.28087697        1       0.00000000       0.01128310       0.01892535       0.12310645       0.04464752       0.04068481      -0.12110301
O        4.57884512       4.38521902      18.99034954        0       0.00000000      -0.08995885      -0.02992778       0.02923331      -0.16712293      -0.08891191       0.27166379
C        5.14412320       3.67623738      18.01440381        0       0.00000000      -0.08175803      -0.07569103      -0.05204919      -0.19760944      -0.09128009       0.22231126
H        3.92729530       5.07748616      18.63499895        0       0.00000000      -0.06462497      -0.01474757      -0.00203389       0.08390845      -0.05736355       0.14358395
O        5.97763226       2.78193177      18.30793383        0       0.00000000      -0.05221649      -0.00324494       0.02187949      -0.05630688       0.74355639       0.00252326
O        2.77465997       6.23504690      17.88248182        0       0.50000000      -0.05625065      -0.01681266       0.02377222       0.18381143      -0.29159262      -0.08606433
H        2.66827183       7.01366274      18.46077312        0       0.50000000       0.07869509      -0.05535893       0.06977971       0.00103074      -0.07127758       0.17223307
42
Lattice="7.700392847121503 0.0 0.0 0.0 8.891647766302935 0.0 0.0 0.0 26.3637743517507" Properties=species:S:1:pos:R:3:tags:I:1:initial_magmoms:R:1:MACE_forces:R:3:DFT_forces:R:3 _ConfigSet_loc=" / 13" MACE_energy=-173.06882807340529 DFT_energy=-174.8661255 pbc="T T T"
Cu       1.28339881       0.74097065      12.12125812        3       0.00000000       0.00000000       0.00000000       0.00000000      -0.00724518      -0.01375181       0.36275917
Cu       3.85019642       0.74097065      12.12125812        3       0.00000000       0.00000000       0.00000000       0.00000000      -0.00525508      -0.00700942       0.30710990
Cu       6.41699404       0.74097065      12.12125812        3       0.00000000       0.00000000       0.00000000       0.00000000       0.01086692      -0.03101893       0.30966376
Cu       0.00000000       2.96388259      12.12125812        3       0.00000000       0.00000000       0.00000000       0.00000000       0.04437279       0.01706205       0.26374569
Cu       2.56679762       2.96388259      12.12125812        3       0.00000000       0.00000000       0.00000000       0.00000000      -0.02507873      -0.00938639       0.28247162
Cu       5.13359523       2.96388259      12.12125812        3       0.00000000       0.00000000       0.00000000       0.00000000      -0.01627392      -0.02535292       0.23733258
Cu       1.28339881       5.18679453      12.12125812        3       0.00000000       0.00000000       0.00000000       0.00000000      -0.05363350      -0.03340101       0.26302708
Cu       3.85019642       5.18679453      12.12125812        3       0.00000000       0.00000000       0.00000000       0.00000000       0.01855755      -0.00885699       0.22871001
Cu       6.41699404       5.18679453      12.12125812        3       0.00000000       0.00000000       0.00000000       0.00000000       0.04174142       0.04037367       0.28136912
Cu       0.00000000       7.40970647      12.12125812        3       0.00000000       0.00000000       0.00000000       0.00000000      -0.00674435      -0.01668082       0.32002473
Cu       2.56679762       7.40970647      12.12125812        3       0.00000000       0.00000000       0.00000000       0.00000000      -0.01735098       0.03297879       0.26713235
Cu       5.13359523       7.40970647      12.12125812        3       0.00000000       0.00000000       0.00000000       0.00000000       0.03017276       0.00508666       0.31046991
Cu       0.00000000       1.48194129      14.24251623        2       0.00000000       0.00000000       0.00000000       0.00000000      -0.13762144       0.07871683      -0.13726819
Cu       2.56679762       1.48194129      14.24251623        2       0.00000000       0.00000000       0.00000000       0.00000000       0.10281496       0.07945149      -0.33200484
Cu       5.13359523       1.48194129      14.24251623        2       0.00000000       0.00000000       0.00000000       0.00000000       0.08096903       0.14043707      -0.13293518
Cu       1.28339881       3.70485324      14.24251623        2       0.00000000       0.00000000       0.00000000       0.00000000       0.01658195      -0.02362155      -0.29372807
Cu       3.85019642       3.70485324      14.24251623        2       0.00000000       0.00000000       0.00000000       0.00000000      -0.02526684       0.01434485      -0.49777836
Cu       6.41699404       3.70485324      14.24251623        2       0.00000000       0.00000000       0.00000000       0.00000000       0.03668903      -0.16430312      -0.36464665
Cu       0.00000000       5.92776518      14.24251623        2       0.00000000       0.00000000       0.00000000       0.00000000       0.14510948       0.08137030      -0.17028399
Cu       2.56679762       5.92776518      14.24251623        2       0.00000000       0.00000000       0.00000000       0.00000000       0.04052808       0.01408417      -0.15926730
Cu       5.13359523       5.92776518      14.24251623        2       0.00000000       0.00000000       0.00000000       0.00000000      -0.08474636       0.04678123      -0.26319464
Cu       1.28339881       8.15067712      14.24251623        2       0.00000000       0.00000000       0.00000000       0.00000000       0.04139523      -0.17344279      -0.16924297
Cu       3.85019642       8.15067712      14.24251623        2       0.00000000       0.00000000       0.00000000       0.00000000       0.02018655      -0.10663751      -0.28623852
Cu       6.41699404       8.15067712      14.24251623        2       0.00000000       0.00000000       0.00000000       0.00000000       0.03395845       0.02232007      -0.33279288
Cu       7.73665777       8.87276089      16.27726048        1       0.00000000      -0.00512346      -0.00113463       0.13182891      -0.02231381      -0.01299482      -0.02742317
Cu       2.59064817       8.95229355      16.25268073        1       0.00000000      -0.00183577       0.00899330       0.13592809       0.02616503       0.03488632       0.00299837
Cu       5.15505128       8.90106479      16.26540308        1       0.00000000       0.01099648       0.00782233       0.12393518       0.03615787       0.00027545      -0.03268923
Cu       1.30779820       2.21355980      16.27793583        1       0.00000000      -0.02852261      -0.00593507       0.12662917       0.00787626      -0.00803828      -0.04188355
Cu       3.87354344       2.26910591      16.30965556        1       0.00000000       0.03811871       0.03946038       0.18177392      -0.10777779      -0.19685221      -0.12447986
Cu       6.48866790       2.17002507      16.36784835        1       0.00000000      -0.04127312       0.04656010       0.20396782       0.11970008      -0.10079936      -0.20755372
Cu       0.02130985       4.45609841      16.24755538        1       0.00000000      -0.00715666      -0.00026369       0.11844464       0.04846521       0.02697409      -0.06096503
Cu       2.55710895       4.37817291      16.26865731        1       0.00000000       0.00104472      -0.00238445       0.09910778      -0.13960215       0.13179480      -0.15627913
Cu       5.15413261       4.46162532      16.21543610        1       0.00000000      -0.00270158       0.01379841       0.15172430      -0.11958614      -0.02994445       0.10128865
Cu       1.31042918       6.66413671      16.36050240        1       0.00000000      -0.00221974       0.01319470       0.11663254      -0.06264459      -0.00907232      -0.16195952
Cu       3.91127525       6.73042445      16.31761431        1       0.00000000       0.04005018       0.00108272       0.14838324       0.01790162       0.03357404      -0.21061872
Cu       6.45206272       6.68118311      16.28084685        1       0.00000000       0.01508742       0.02058114       0.12266795       0.05067093       0.04359614      -0.11726332
O        4.57388251       4.37923422      18.98304828        0       0.00000000      -0.08078788      -0.04161750       0.04185093      -0.15698789      -0.10746103       0.27061048
C        5.14439677       3.67185785      18.01177918        0       0.00000000      -0.07739613      -0.08628200      -0.06088427      -0.18572969      -0.10278916       0.21654645
H        3.91210430       5.06125985      18.61725308        0       0.00000000      -0.04543631      -0.03591940       0.01540741       0.12102498      -0.12573926       0.12732969
O        5.98453512       2.78365205      18.30669596        0       0.00000000      -0.04070226      -0.01934175       0.02431083      -0.05077846       0.72236185       0.01308351
O        2.78633588       6.16675845      17.86749889        0       0.50000000      -0.05930309      -0.05044783      -0.01745050       0.17877590      -0.28240880      -0.08259107
H        2.66554563       6.90192418      18.49398139        0       0.50000000       0.04678124       0.03368115       0.09756403      -0.04604517       0.02309308       0.19741485
42
Lattice="7.700392847121503 0.0 0.0 0.0 8.891647766302935 0.0 0.0 0.0 26.3637743517507" Properties=species:S:1:pos:R:3:tags:I:1:initial_magmoms:R:1:MACE_forces:R:3:DFT_forces:R:3 _ConfigSet_loc=" / 14" MACE_energy=-173.0414552912394 DFT_energy=-174.88099654 pbc="T T T"
Cu       1.28339881       0.74097065      12.12125812        3       0.00000000       0.00000000       0.00000000       0.00000000      -0.00628428      -0.01466796       0.36438728
Cu       3.85019642       0.74097065      12.12125812        3       0.00000000       0.00000000       0.00000000       0.00000000      -0.00480203      -0.00559666       0.31087416
Cu       6.41699404       0.74097065      12.12125812        3       0.00000000       0.00000000       0.00000000       0.00000000       0.00973857      -0.02996023       0.30838004
Cu       0.00000000       2.96388259      12.12125812        3       0.00000000       0.00000000       0.00000000       0.00000000       0.04488334       0.01552594       0.26305947
Cu       2.56679762       2.96388259      12.12125812        3       0.00000000       0.00000000       0.00000000       0.00000000      -0.02356785      -0.00639207       0.27883646
Cu       5.13359523       2.96388259      12.12125812        3       0.00000000       0.00000000       0.00000000       0.00000000      -0.01836544      -0.02691158       0.23985598
Cu       1.28339881       5.18679453      12.12125812        3       0.00000000       0.00000000       0.00000000       0.00000000      -0.05197863      -0.03468150       0.26021236
Cu       3.85019642       5.18679453      12.12125812        3       0.00000000       0.00000000       0.00000000       0.00000000       0.01616726      -0.01157714       0.22636564
Cu       6.41699404       5.18679453      12.12125812        3       0.00000000       0.00000000       0.00000000       0.00000000       0.04190272       0.04200765       0.27918914
Cu       0.00000000       7.40970647      12.12125812        3       0.00000000       0.00000000       0.00000000       0.00000000      -0.00548540      -0.01760925       0.32088443
Cu       2.56679762       7.40970647      12.12125812        3       0.00000000       0.00000000       0.00000000       0.00000000      -0.01683148       0.03254381       0.26458059
Cu       5.13359523       7.40970647      12.12125812        3       0.00000000       0.00000000       0.00000000       0.00000000       0.02853357       0.00445026       0.31185990
Cu       0.00000000       1.48194129      14.24251623        2       0.00000000       0.00000000       0.00000000       0.00000000      -0.12526219       0.07359768      -0.16366143
Cu       2.56679762       1.48194129      14.24251623        2       0.00000000       0.00000000       0.00000000       0.00000000       0.10443019       0.06231316      -0.31528381
Cu       5.13359523       1.48194129      14.24251623        2       0.00000000       0.00000000       0.00000000       0.00000000       0.07724287       0.13454362      -0.14480578
Cu       1.28339881       3.70485324      14.24251623        2       0.00000000       0.00000000       0.00000000       0.00000000       0.03339444      -0.01171009      -0.26923422
Cu       3.85019642       3.70485324      14.24251623        2       0.00000000       0.00000000       0.00000000       0.00000000      -0.03650770       0.03643205      -0.44158398
Cu       6.41699404       3.70485324      14.24251623        2       0.00000000       0.00000000       0.00000000       0.00000000       0.03367620      -0.16176505      -0.39182066
Cu       0.00000000       5.92776518      14.24251623        2       0.00000000       0.00000000       0.00000000       0.00000000       0.11584435       0.06752076      -0.21311481
Cu       2.56679762       5.92776518      14.24251623        2       0.00000000       0.00000000       0.00000000       0.00000000       0.06284765       0.00687154      -0.18430648
Cu       5.13359523       5.92776518      14.24251623        2       0.00000000       0.00000000       0.00000000       0.00000000      -0.07663322       0.02690670      -0.26190972
Cu       1.28339881       8.15067712      14.24251623        2       0.00000000       0.00000000       0.00000000       0.00000000       0.05151083      -0.13754709      -0.19439658
Cu       3.85019642       8.15067712      14.24251623        2       0.00000000       0.00000000       0.00000000       0.00000000       0.01598240      -0.10159684      -0.27860312
Cu       6.41699404       8.15067712      14.24251623        2       0.00000000       0.00000000       0.00000000       0.00000000       0.03387901       0.02805784      -0.33717885
Cu       7.73901214       8.87753696      16.27699741        1       0.00000000       0.00229898      -0.00951291       0.13394051      -0.01679257      -0.02723212      -0.02355156
Cu       2.59629610       8.94746649      16.26125284        1       0.00000000      -0.02177491       0.02058641       0.10631389       0.00278033       0.04712544      -0.01996807
Cu       5.15465963       8.90179152      16.26653217        1       0.00000000       0.01445235       0.02278236       0.12848611       0.04469335       0.01756151      -0.03379306
Cu       1.31182876       2.21670409      16.27603699        1       0.00000000      -0.01125637      -0.00737871       0.13122128       0.01782137      -0.01590092      -0.04372570
Cu       3.87623404       2.27199148      16.30788872        1       0.00000000       0.02128289       0.02777271       0.17468245      -0.12441605      -0.19685645      -0.12940605
Cu       6.49030014       2.16694860      16.35431823        1       0.00000000      -0.03146001       0.03675170       0.21223202       0.12907498      -0.10744144      -0.18940125
Cu       0.01541272       4.45786821      16.24571462        1       0.00000000       0.00690356       0.00314878       0.12474825       0.07282958       0.03628196      -0.06072180
Cu       2.55213865       4.38975331      16.27880110        1       0.00000000      -0.00809213       0.00106866       0.14003595      -0.13026493       0.13608141      -0.09662036
Cu       5.16230744       4.45796770      16.22050765        1       0.00000000      -0.00383333      -0.00951282       0.16026374      -0.12434678      -0.04646720       0.10960572
Cu       1.30057664       6.67233337      16.32830529        1       0.00000000       0.03992980       0.00030315       0.17120793      -0.01624559      -0.01191368      -0.09992739
Cu       3.92346869       6.73435000      16.31638008        1       0.00000000      -0.03606983       0.02103224       0.20048236      -0.07203761       0.04972607      -0.15572176
Cu       6.44981246       6.68851874      16.28224901        1       0.00000000       0.02977050      -0.00202384       0.11867762       0.07475685       0.02151297      -0.11772649
O        4.66181778       4.37767063      19.00181355        0       0.00000000      -0.09031030      -0.03901965       0.02230428      -0.17300825      -0.10069644       0.26697594
C        5.21459727       3.67083440      18.01987600        0       0.00000000      -0.06946240      -0.08139638      -0.04288774      -0.16798909      -0.06418827       0.20250035
H        3.98738748       5.04678144      18.64018964        0       0.00000000      -0.06959723      -0.01723981      -0.01495141       0.15848792      -0.12827850       0.14930445
O        6.04126155       2.76664088      18.30337817        0       0.00000000      -0.04186335      -0.00205307       0.02557224      -0.09099924       0.69729716      -0.00075944
O        2.81385148       6.07835648      17.84208094        0       0.50000000      -0.02707965      -0.06234987       0.01961894       0.17209480      -0.27529310      -0.11931406
H        2.59070723       6.75207228      18.50945336        0       0.50000000       0.04456166       0.02226063       0.02957918      -0.06075426      -0.00207392       0.12966451
42
Lattice="7.700392847121503 0.0 0.0 0.0 8.891647766302935 0.0 0.0 0.0 26.3637743517507" Properties=species:S:1:pos:R:3:tags:I:1:initial_magmoms:R:1:MACE_forces:R:3:DFT_forces:R:3 _ConfigSet_loc=" / 15" MACE_energy=-173.04231858086217 DFT_energy=-174.91649353 pbc="T T T"
Cu       1.28339881       0.74097065      12.12125812        3       0.00000000       0.00000000       0.00000000       0.00000000      -0.00293141      -0.01664569       0.36660369
Cu       3.85019642       0.74097065      12.12125812        3       0.00000000       0.00000000       0.00000000       0.00000000      -0.00724669      -0.00141749       0.31676120
Cu       6.41699404       0.74097065      12.12125812        3       0.00000000       0.00000000       0.00000000       0.00000000       0.00968481      -0.02890268       0.30851447
Cu       0.00000000       2.96388259      12.12125812        3       0.00000000       0.00000000       0.00000000       0.00000000       0.04250242       0.01736501       0.26643229
Cu       2.56679762       2.96388259      12.12125812        3       0.00000000       0.00000000       0.00000000       0.00000000      -0.02144792      -0.00450628       0.27404965
Cu       5.13359523       2.96388259      12.12125812        3       0.00000000       0.00000000       0.00000000       0.00000000      -0.01740732      -0.02822963       0.24173639
Cu       1.28339881       5.18679453      12.12125812        3       0.00000000       0.00000000       0.00000000       0.00000000      -0.04997063      -0.03434800       0.26005848
Cu       3.85019642       5.18679453      12.12125812        3       0.00000000       0.00000000       0.00000000       0.00000000       0.01196041      -0.01373219       0.22781805
Cu       6.41699404       5.18679453      12.12125812        3       0.00000000       0.00000000       0.00000000       0.00000000       0.04339478       0.03916616       0.27328183
Cu       0.00000000       7.40970647      12.12125812        3       0.00000000       0.00000000       0.00000000       0.00000000      -0.00419188      -0.01729065       0.32268682
Cu       2.56679762       7.40970647      12.12125812        3       0.00000000       0.00000000       0.00000000       0.00000000      -0.01937225       0.03026350       0.26517477
Cu       5.13359523       7.40970647      12.12125812        3       0.00000000       0.00000000       0.00000000       0.00000000       0.02985262       0.00407191       0.30981857
Cu       0.00000000       1.48194129      14.24251623        2       0.00000000       0.00000000       0.00000000       0.00000000      -0.12308006       0.07717677      -0.16647044
Cu       2.56679762       1.48194129      14.24251623        2       0.00000000       0.00000000       0.00000000       0.00000000       0.10238691       0.06675936      -0.31025546
Cu       5.13359523       1.48194129      14.24251623        2       0.00000000       0.00000000       0.00000000       0.00000000       0.07302245       0.14038211      -0.14190978
Cu       1.28339881       3.70485324      14.24251623        2       0.00000000       0.00000000       0.00000000       0.00000000       0.06544061       0.01049384      -0.22329836
Cu       3.85019642       3.70485324      14.24251623        2       0.00000000       0.00000000       0.00000000       0.00000000      -0.07038977       0.06286406      -0.38278021
Cu       6.41699404       3.70485324      14.24251623        2       0.00000000       0.00000000       0.00000000       0.00000000       0.03426470      -0.15827446      -0.39481248
Cu       0.00000000       5.92776518      14.24251623        2       0.00000000       0.00000000       0.00000000       0.00000000       0.06892739       0.03756991      -0.27582200
Cu       2.56679762       5.92776518      14.24251623        2       0.00000000       0.00000000       0.00000000       0.00000000       0.07860774      -0.00071137      -0.19790826
Cu       5.13359523       5.92776518      14.24251623        2       0.00000000       0.00000000       0.00000000       0.00000000      -0.08361741       0.02190864      -0.25488860
Cu       1.28339881       8.15067712      14.24251623        2       0.00000000       0.00000000       0.00000000       0.00000000       0.05302180      -0.08319077      -0.25232133
Cu       3.85019642       8.15067712      14.24251623        2       0.00000000       0.00000000       0.00000000       0.00000000       0.01338456      -0.10952281      -0.25912630
Cu       6.41699404       8.15067712      14.24251623        2       0.00000000       0.00000000       0.00000000       0.00000000       0.02715234       0.03289870      -0.33570904
Cu       7.73473407       8.88492304      16.27719863        1       0.00000000      -0.00070315      -0.00241676       0.13327734      -0.01167956      -0.03257592      -0.01368512
Cu       2.59218214       8.94667622      16.26340481        1       0.00000000      -0.02250606       0.01598427       0.11067464      -0.00500975       0.04857743      -0.01071046
Cu       5.15026789       8.90598231      16.26691428        1       0.00000000       0.00998808       0.01844573       0.12816712       0.04169199       0.01426968      -0.03727551
Cu       1.31291523       2.22533473      16.27587601        1       0.00000000      -0.00358507      -0.00270506       0.12971715       0.02116468      -0.00534713      -0.05013844
Cu       3.86946990       2.27962196      16.30645101        1       0.00000000       0.01468026       0.02778341       0.16861041      -0.12111876      -0.18484277      -0.13191388
Cu       6.48864122       2.16962321      16.35178215        1       0.00000000      -0.03143852       0.03787388       0.20713776       0.13051430      -0.10984802      -0.18731749
Cu       0.01424656       4.46371454      16.24762507        1       0.00000000       0.00654052       0.00334303       0.12551371       0.05830660       0.04179715      -0.05950374
Cu       2.54160408       4.41955772      16.30139913        1       0.00000000      -0.01358109       0.02437178       0.16016109      -0.11500225       0.13195091      -0.08858872
Cu       5.16542367       4.45487053      16.22257198        1       0.00000000      -0.00040330      -0.01599081       0.16470417      -0.12865437      -0.04618348       0.11768015
Cu       1.27860974       6.68858669      16.29256797        1       0.00000000       0.01179540       0.00977765       0.13576540       0.00439554      -0.00737123      -0.10304002
Cu       3.91429372       6.74098909      16.32002918        1       0.00000000      -0.04967760       0.01478635       0.19334778      -0.08175541       0.06042283      -0.17708171
Cu       6.44169701       6.69167760      16.28155900        1       0.00000000       0.01634018       0.00195072       0.11793889       0.08032950       0.02436318      -0.10176548
O        4.68861247       4.36704260      19.01237387        0       0.00000000      -0.08486990      -0.03466747       0.00953607      -0.19767720      -0.07085551       0.18456171
C        5.23177277       3.66814225      18.02757251        0       0.00000000      -0.05151725      -0.08089942      -0.02131534      -0.15786642      -0.05812564       0.15579907
H        4.00618968       5.04375746      18.64748513        0       0.00000000      -0.05309783      -0.01350967      -0.00118208       0.17910428      -0.14496115       0.21811358
O        6.05622671       2.75493862      18.29780619        0       0.00000000      -0.02471782      -0.01858218       0.01874257      -0.06292239       0.63739417       0.04091395
O        2.90847645       6.00031289      17.86518128        0       0.50000000       0.04881341      -0.06458171       0.07430344       0.17319842      -0.24394583      -0.05913484
H        2.55191338       6.67043821      18.47877086        0       0.50000000       0.02265881      -0.06209565      -0.01070317      -0.06096743      -0.09886662       0.06545300
42
Lattice="7.700392847121503 0.0 0.0 0.0 8.891647766302935 0.0 0.0 0.0 26.3637743517507" Properties=species:S:1:pos:R:3:tags:I:1:initial_magmoms:R:1:MACE_forces:R:3:DFT_forces:R:3 _ConfigSet_loc=" / 16" MACE_energy=-173.05668056685954 DFT_energy=-174.94245312 pbc="T T T"
Cu       1.28339881       0.74097065      12.12125812        3       0.00000000       0.00000000       0.00000000       0.00000000      -0.00014198      -0.01693238       0.36402343
Cu       3.85019642       0.74097065      12.12125812        3       0.00000000       0.00000000       0.00000000       0.00000000      -0.00817789       0.00140878       0.32038249
Cu       6.41699404       0.74097065      12.12125812        3       0.00000000       0.00000000       0.00000000       0.00000000       0.00892428      -0.02744496       0.30635664
Cu       0.00000000       2.96388259      12.12125812        3       0.00000000       0.00000000       0.00000000       0.00000000       0.04152828       0.01687919       0.26788533
Cu       2.56679762       2.96388259      12.12125812        3       0.00000000       0.00000000       0.00000000       0.00000000      -0.01988664      -0.00316478       0.27007158
Cu       5.13359523       2.96388259      12.12125812        3       0.00000000       0.00000000       0.00000000       0.00000000      -0.01771449      -0.03024543       0.24249950
Cu       1.28339881       5.18679453      12.12125812        3       0.00000000       0.00000000       0.00000000       0.00000000      -0.04795921      -0.03424719       0.26054216
Cu       3.85019642       5.18679453      12.12125812        3       0.00000000       0.00000000       0.00000000       0.00000000       0.00824815      -0.01579335       0.23132138
Cu       6.41699404       5.18679453      12.12125812        3       0.00000000       0.00000000       0.00000000       0.00000000       0.04400475       0.03768785       0.26826349
Cu       0.00000000       7.40970647      12.12125812        3       0.00000000       0.00000000       0.00000000       0.00000000      -0.00257465      -0.01836997       0.32239123
Cu       2.56679762       7.40970647      12.12125812        3       0.00000000       0.00000000       0.00000000       0.00000000      -0.02046771       0.02801663       0.26605517
Cu       5.13359523       7.40970647      12.12125812        3       0.00000000       0.00000000       0.00000000       0.00000000       0.02984884       0.00311084       0.30904052
Cu       0.00000000       1.48194129      14.24251623        2       0.00000000       0.00000000       0.00000000       0.00000000      -0.11371492       0.07745341      -0.17478320
Cu       2.56679762       1.48194129      14.24251623        2       0.00000000       0.00000000       0.00000000       0.00000000       0.09966585       0.07406260      -0.31056342
Cu       5.13359523       1.48194129      14.24251623        2       0.00000000       0.00000000       0.00000000       0.00000000       0.06737382       0.14487890      -0.14291932
Cu       1.28339881       3.70485324      14.24251623        2       0.00000000       0.00000000       0.00000000       0.00000000       0.10046082       0.04108261      -0.16819680
Cu       3.85019642       3.70485324      14.24251623        2       0.00000000       0.00000000       0.00000000       0.00000000      -0.09368717       0.09290596      -0.31873871
Cu       6.41699404       3.70485324      14.24251623        2       0.00000000       0.00000000       0.00000000       0.00000000       0.02967970      -0.14953994      -0.38487613
Cu       0.00000000       5.92776518      14.24251623        2       0.00000000       0.00000000       0.00000000       0.00000000       0.03355947       0.01526556      -0.32932404
Cu       2.56679762       5.92776518      14.24251623        2       0.00000000       0.00000000       0.00000000       0.00000000       0.09202723      -0.00549416      -0.18895926
Cu       5.13359523       5.92776518      14.24251623        2       0.00000000       0.00000000       0.00000000       0.00000000      -0.10251615       0.01242455      -0.21832703
Cu       1.28339881       8.15067712      14.24251623        2       0.00000000       0.00000000       0.00000000       0.00000000       0.05388977      -0.03653428      -0.30977538
Cu       3.85019642       8.15067712      14.24251623        2       0.00000000       0.00000000       0.00000000       0.00000000       0.00873017      -0.13338816      -0.21004242
Cu       6.41699404       8.15067712      14.24251623        2       0.00000000       0.00000000       0.00000000       0.00000000       0.02018566       0.03478411      -0.33277717
Cu       7.73007511       8.89002913      16.27709129        1       0.00000000      -0.00181998       0.00473875       0.12977345      -0.00778777      -0.02878798      -0.00788677
Cu       2.58548804       8.95045177      16.26400999        1       0.00000000      -0.00408948      -0.00836526       0.12122140       0.00798081       0.02813115       0.00194515
Cu       5.14545240       8.91129596      16.26758819        1       0.00000000      -0.00811346      -0.01414752       0.12487523       0.02174328      -0.02499377      -0.04346539
Cu       1.31424347       2.23721362      16.27545367        1       0.00000000       0.01061284       0.00287851       0.12601206       0.03449221       0.00435738      -0.05740046
Cu       3.86424963       2.28746423      16.30582237        1       0.00000000       0.00571960       0.02042002       0.15448990      -0.12220519      -0.18319218      -0.14231836
Cu       6.48875881       2.16799928      16.34641653        1       0.00000000      -0.03132597       0.05159950       0.19302773       0.12921397      -0.09681475      -0.19534256
Cu       0.01392432       4.47125536      16.24963158        1       0.00000000       0.00384667      -0.00638194       0.12476630       0.05147287       0.03977476      -0.06250239
Cu       2.53716871       4.45389248      16.33060528        1       0.00000000      -0.02300367       0.01181619       0.15041628      -0.11367037       0.07042777      -0.09599881
Cu       5.16823744       4.45140779      16.23120748        1       0.00000000       0.01541217      -0.02376823       0.13121900      -0.10816221      -0.05199766       0.08597903
Cu       1.26089212       6.70424068      16.26806969        1       0.00000000      -0.02802320       0.02851123       0.10658091      -0.02568467       0.01425828      -0.10788036
Cu       3.90182839       6.74011148      16.33863897        1       0.00000000      -0.00967771       0.05578424       0.08131511      -0.03200111       0.13081103      -0.30397158
Cu       6.43332079       6.69258452      16.28043725        1       0.00000000      -0.00181744       0.01690755       0.11841278       0.07448694       0.03934903      -0.08880495
O        4.74530554       4.36018801      19.02867940        0       0.00000000      -0.05496705      -0.04164015       0.04980731      -0.19311488      -0.05496515       0.20291313
C        5.27450010       3.66566189      18.03761782        0       0.00000000      -0.05248188      -0.06067529      -0.02048292      -0.15489705      -0.02084068       0.15063514
H        4.05725030       5.04268128      18.67323092        0       0.00000000      -0.05604946      -0.01955986      -0.00822567       0.20076474      -0.17830932       0.27182604
O        6.09056638       2.73958978      18.29359788        0       0.00000000      -0.02603026      -0.01304788       0.03448202      -0.07790376       0.60550864       0.02172274
O        2.97059722       5.94070247      17.88696636        0       0.50000000       0.10033882      -0.08711748       0.10055364       0.16032178      -0.24301639      -0.04764186
H        2.50601971       6.60621717      18.43031177        0       0.50000000      -0.00236202      -0.12426465       0.01282921      -0.05633560      -0.15850655       0.07864223
42
Lattice="7.700392847121503 0.0 0.0 0.0 8.891647766302935 0.0 0.0 0.0 26.3637743517507" Properties=species:S:1:pos:R:3:tags:I:1:initial_magmoms:R:1:MACE_forces:R:3:DFT_forces:R:3 _ConfigSet_loc=" / 17" MACE_energy=-173.07996540459808 DFT_energy=-174.9717351 pbc="T T T"
Cu       1.28339881       0.74097065      12.12125812        3       0.00000000       0.00000000       0.00000000       0.00000000       0.00345591      -0.01728869       0.36164141
Cu       3.85019642       0.74097065      12.12125812        3       0.00000000       0.00000000       0.00000000       0.00000000      -0.00942708       0.00393520       0.32510513
Cu       6.41699404       0.74097065      12.12125812        3       0.00000000       0.00000000       0.00000000       0.00000000       0.00842537      -0.02598571       0.30505635
Cu       0.00000000       2.96388259      12.12125812        3       0.00000000       0.00000000       0.00000000       0.00000000       0.04074362       0.01753408       0.27068949
Cu       2.56679762       2.96388259      12.12125812        3       0.00000000       0.00000000       0.00000000       0.00000000      -0.01857156      -0.00185232       0.26692496
Cu       5.13359523       2.96388259      12.12125812        3       0.00000000       0.00000000       0.00000000       0.00000000      -0.01729687      -0.03133665       0.24253842
Cu       1.28339881       5.18679453      12.12125812        3       0.00000000       0.00000000       0.00000000       0.00000000      -0.04565865      -0.03481654       0.26255090
Cu       3.85019642       5.18679453      12.12125812        3       0.00000000       0.00000000       0.00000000       0.00000000       0.00517879      -0.01677449       0.23500784
Cu       6.41699404       5.18679453      12.12125812        3       0.00000000       0.00000000       0.00000000       0.00000000       0.04456785       0.03543149       0.26360582
Cu       0.00000000       7.40970647      12.12125812        3       0.00000000       0.00000000       0.00000000       0.00000000      -0.00161207      -0.01864470       0.32257391
Cu       2.56679762       7.40970647      12.12125812        3       0.00000000       0.00000000       0.00000000       0.00000000      -0.02096767       0.02596826       0.26789766
Cu       5.13359523       7.40970647      12.12125812        3       0.00000000       0.00000000       0.00000000       0.00000000       0.03033426       0.00196360       0.30969703
Cu       0.00000000       1.48194129      14.24251623        2       0.00000000       0.00000000       0.00000000       0.00000000      -0.10423932       0.07495274      -0.17311615
Cu       2.56679762       1.48194129      14.24251623        2       0.00000000       0.00000000       0.00000000       0.00000000       0.09640647       0.08067883      -0.31599867
Cu       5.13359523       1.48194129      14.24251623        2       0.00000000       0.00000000       0.00000000       0.00000000       0.06553264       0.14519586      -0.13596875
Cu       1.28339881       3.70485324      14.24251623        2       0.00000000       0.00000000       0.00000000       0.00000000       0.13091502       0.06713024      -0.12972885
Cu       3.85019642       3.70485324      14.24251623        2       0.00000000       0.00000000       0.00000000       0.00000000      -0.11468601       0.11320329      -0.27895982
Cu       6.41699404       3.70485324      14.24251623        2       0.00000000       0.00000000       0.00000000       0.00000000       0.03480018      -0.14778184      -0.38960752
Cu       0.00000000       5.92776518      14.24251623        2       0.00000000       0.00000000       0.00000000       0.00000000       0.00682831      -0.00469963      -0.36450008
Cu       2.56679762       5.92776518      14.24251623        2       0.00000000       0.00000000       0.00000000       0.00000000       0.09456521      -0.01846040      -0.16499588
Cu       5.13359523       5.92776518      14.24251623        2       0.00000000       0.00000000       0.00000000       0.00000000      -0.11481055       0.00044759      -0.20166073
Cu       1.28339881       8.15067712      14.24251623        2       0.00000000       0.00000000       0.00000000       0.00000000       0.05059850      -0.00321421      -0.36228648
Cu       3.85019642       8.15067712      14.24251623        2       0.00000000       0.00000000       0.00000000       0.00000000       0.00556008      -0.14416660      -0.19556019
Cu       6.41699404       8.15067712      14.24251623        2       0.00000000       0.00000000       0.00000000       0.00000000       0.01617754       0.03580358      -0.32852616
Cu       7.72649778       8.89085860      16.27727825        1       0.00000000      -0.01270107       0.02824319       0.12601022      -0.01604509      -0.00830295      -0.00440607
Cu       2.57909625       8.94968222      16.26134231        1       0.00000000       0.00276573      -0.00866756       0.14715653       0.01289578       0.03113843       0.03218423
Cu       5.13909342       8.91042517      16.26827657        1       0.00000000       0.00183409      -0.00026202       0.12343678       0.02663590      -0.01508252      -0.04851835
Cu       1.31861436       2.24753599      16.27513496        1       0.00000000      -0.00061726      -0.01732253       0.12491925       0.01757221      -0.01530220      -0.06214892
Cu       3.85748301       2.29142035      16.30483770        1       0.00000000       0.02377734       0.00724300       0.14919190      -0.09546942      -0.18778106      -0.14397218
Cu       6.49022205       2.16619249      16.34283716        1       0.00000000      -0.03795397       0.04734310       0.18480194       0.12022363      -0.09960519      -0.19587063
Cu       0.01607069       4.47304640      16.25131167        1       0.00000000      -0.00208435       0.00585457       0.12411676       0.04109325       0.05659487      -0.06195392
Cu       2.53384938       4.47567786      16.36041001        1       0.00000000      -0.00832755       0.02339186       0.12544311      -0.09536950       0.03957138      -0.16100214
Cu       5.17306740       4.44384227      16.23347628        1       0.00000000       0.00960429      -0.02071464       0.15852304      -0.10883154      -0.04360883       0.11551709
Cu       1.24593418       6.71596875      16.25254897        1       0.00000000      -0.05514253       0.02962003       0.08793692      -0.03099183       0.00990867      -0.11227723
Cu       3.88891297       6.74678151      16.34654989        1       0.00000000       0.00186170      -0.00767300       0.07163535      -0.02722139       0.08555003      -0.30617821
Cu       6.42486356       6.69088629      16.27865610        1       0.00000000      -0.01005792       0.02437574       0.12132486       0.07281720       0.04599380      -0.06997085
O        4.77985537       4.34546470      19.04034655        0       0.00000000      -0.01583371      -0.04829733       0.05858558      -0.18298224      -0.03135347       0.16738597
C        5.30331518       3.65794902      18.04609222        0       0.00000000      -0.03938258      -0.04685010      -0.03668999      -0.15419363      -0.00940472       0.12950873
H        4.08648437       5.03245785      18.68411277        0       0.00000000      -0.05817483      -0.03244364       0.02511593       0.20555489      -0.14750886       0.17107043
O        6.11900558       2.72718120      18.29128064        0       0.00000000      -0.02424386      -0.02477288       0.03479200      -0.06785693       0.56840182       0.01608913
O        3.02434217       5.87855884      17.90977384        0       0.50000000       0.12256788      -0.04986532       0.00352989       0.14605270      -0.24573525       0.00923385
H        2.47581012       6.52546666      18.39333093        0       0.50000000      -0.03162355      -0.14765517       0.06308357      -0.05070396      -0.17069693       0.13292940
42
Lattice="7.700392847121503 0.0 0.0 0.0 8.891647766302935 0.0 0.0 0.0 26.3637743517507" Properties=species:S:1:pos:R:3:tags:I:1:initial_magmoms:R:1:MACE_forces:R:3:DFT_forces:R:3 _ConfigSet_loc=" / 18" MACE_energy=-173.10882019521966 DFT_energy=-175.00475121 pbc="T T T"
Cu       1.28339881       0.74097065      12.12125812        3       0.00000000       0.00000000       0.00000000       0.00000000       0.00715509      -0.01791768       0.35887509
Cu       3.85019642       0.74097065      12.12125812        3       0.00000000       0.00000000       0.00000000       0.00000000      -0.00997027       0.00533961       0.32840648
Cu       6.41699404       0.74097065      12.12125812        3       0.00000000       0.00000000       0.00000000       0.00000000       0.00764124      -0.02502541       0.30317801
Cu       0.00000000       2.96388259      12.12125812        3       0.00000000       0.00000000       0.00000000       0.00000000       0.04043432       0.01733975       0.27272224
Cu       2.56679762       2.96388259      12.12125812        3       0.00000000       0.00000000       0.00000000       0.00000000      -0.01679790      -0.00116733       0.26334743
Cu       5.13359523       2.96388259      12.12125812        3       0.00000000       0.00000000       0.00000000       0.00000000      -0.01734499      -0.03249871       0.24129767
Cu       1.28339881       5.18679453      12.12125812        3       0.00000000       0.00000000       0.00000000       0.00000000      -0.04300090      -0.03545351       0.26315635
Cu       3.85019642       5.18679453      12.12125812        3       0.00000000       0.00000000       0.00000000       0.00000000       0.00317045      -0.01775658       0.23658253
Cu       6.41699404       5.18679453      12.12125812        3       0.00000000       0.00000000       0.00000000       0.00000000       0.04400922       0.03388350       0.25955919
Cu       0.00000000       7.40970647      12.12125812        3       0.00000000       0.00000000       0.00000000       0.00000000      -0.00043752      -0.01927531       0.32150709
Cu       2.56679762       7.40970647      12.12125812        3       0.00000000       0.00000000       0.00000000       0.00000000      -0.02113701       0.02429877       0.26839574
Cu       5.13359523       7.40970647      12.12125812        3       0.00000000       0.00000000       0.00000000       0.00000000       0.03089376       0.00050349       0.30891156
Cu       0.00000000       1.48194129      14.24251623        2       0.00000000       0.00000000       0.00000000       0.00000000      -0.09498324       0.07193063      -0.18532376
Cu       2.56679762       1.48194129      14.24251623        2       0.00000000       0.00000000       0.00000000       0.00000000       0.09335104       0.07505962      -0.31287741
Cu       5.13359523       1.48194129      14.24251623        2       0.00000000       0.00000000       0.00000000       0.00000000       0.06690247       0.13880241      -0.14160553
Cu       1.28339881       3.70485324      14.24251623        2       0.00000000       0.00000000       0.00000000       0.00000000       0.15100065       0.08077181      -0.10569554
Cu       3.85019642       3.70485324      14.24251623        2       0.00000000       0.00000000       0.00000000       0.00000000      -0.12166322       0.12265571      -0.25397506
Cu       6.41699404       3.70485324      14.24251623        2       0.00000000       0.00000000       0.00000000       0.00000000       0.04109049      -0.14625763      -0.40295157
Cu       0.00000000       5.92776518      14.24251623        2       0.00000000       0.00000000       0.00000000       0.00000000      -0.02325433      -0.02533486      -0.40024328
Cu       2.56679762       5.92776518      14.24251623        2       0.00000000       0.00000000       0.00000000       0.00000000       0.08708148      -0.02846814      -0.15530881
Cu       5.13359523       5.92776518      14.24251623        2       0.00000000       0.00000000       0.00000000       0.00000000      -0.12213607      -0.02084256      -0.19082006
Cu       1.28339881       8.15067712      14.24251623        2       0.00000000       0.00000000       0.00000000       0.00000000       0.04924422       0.02971880      -0.40708186
Cu       3.85019642       8.15067712      14.24251623        2       0.00000000       0.00000000       0.00000000       0.00000000      -0.00022379      -0.15146723      -0.18459181
Cu       6.41699404       8.15067712      14.24251623        2       0.00000000       0.00000000       0.00000000       0.00000000       0.01391384       0.03471274      -0.32803745
Cu       7.72105359       8.89310120      16.27670694        1       0.00000000      -0.01290192       0.03096859       0.12677895      -0.01676314      -0.00725281      -0.00066466
Cu       2.57410075       8.94354279      16.26270657        1       0.00000000       0.00396630      -0.00081971       0.14928494       0.01127881       0.04246335       0.03665329
Cu       5.13355892       8.90745605      16.26885419        1       0.00000000       0.00066038      -0.00140847       0.12351275       0.01839714      -0.01945938      -0.05076887
Cu       1.32204680       2.25063585      16.27412090        1       0.00000000      -0.00578323      -0.02314802       0.12607525       0.00688934      -0.02178881      -0.06448790
Cu       3.85495148       2.28724300      16.30232557        1       0.00000000       0.02686318       0.00308043       0.14795518      -0.08573884      -0.18068760      -0.14508905
Cu       6.49000371       2.16331693      16.33666223        1       0.00000000      -0.03556758       0.04599656       0.19384257       0.12073352      -0.09891248      -0.18035604
Cu       0.01851320       4.47333631      16.25252038        1       0.00000000      -0.00446423       0.01329849       0.12450568       0.03866359       0.06803864      -0.05956511
Cu       2.53472186       4.48597478      16.37761078        1       0.00000000      -0.00298536      -0.00128945       0.10016806      -0.09886457      -0.01893741      -0.20145352
Cu       5.18020474       4.43247251      16.23697527        1       0.00000000       0.00539644      -0.01142172       0.15815174      -0.10930897      -0.02793404       0.12277697
Cu       1.22705052       6.72488816      16.23867992        1       0.00000000      -0.04303311       0.02237198       0.10572093       0.00147428      -0.00484592      -0.09549480
Cu       3.87396534       6.74332957      16.34658940        1       0.00000000       0.01887614      -0.00715765       0.07849240      -0.00623532       0.09487459      -0.28654697
Cu       6.41384977       6.68950428      16.27714107        1       0.00000000      -0.00858770       0.02417305       0.12253154       0.07151583       0.04165220      -0.05625881
O        4.81066946       4.31961961      19.05133101        0       0.00000000      -0.02565406      -0.01935430       0.07653811      -0.21291151       0.01308640       0.14479550
C        5.33245250       3.64490671      18.05264524        0       0.00000000       0.00885374      -0.09018698      -0.01556522      -0.13929716      -0.00860692       0.07469934
H        4.10479613       5.00184266      18.68980852        0       0.00000000      -0.05261477      -0.02559837       0.05493959       0.11308526      -0.10336036       0.14929142
O        6.15011059       2.71207630      18.28973550        0       0.00000000      -0.00542383      -0.05032887      -0.00424693      -0.01635123       0.48084712       0.03949551
O        3.07861337       5.80848212      17.91680330        0       0.50000000       0.05339643      -0.00763824      -0.00778534       0.15587167      -0.22548992       0.06053729
H        2.44488743       6.39153175      18.37569113        0       0.50000000      -0.02490957      -0.13178079       0.07176281      -0.01737775      -0.13723854       0.15500914
42
Lattice="7.700392847121503 0.0 0.0 0.0 8.891647766302935 0.0 0.0 0.0 26.3637743517507" Properties=species:S:1:pos:R:3:tags:I:1:initial_magmoms:R:1:MACE_forces:R:3:DFT_forces:R:3 _ConfigSet_loc=" / 19" MACE_energy=-173.12057055083022 DFT_energy=-175.01750782 pbc="T T T"
Cu       1.28339881       0.74097065      12.12125812        3       0.00000000       0.00000000       0.00000000       0.00000000       0.00854135      -0.01774067       0.35821133
Cu       3.85019642       0.74097065      12.12125812        3       0.00000000       0.00000000       0.00000000       0.00000000      -0.00937321       0.00597793       0.32961370
Cu       6.41699404       0.74097065      12.12125812        3       0.00000000       0.00000000       0.00000000       0.00000000       0.00697097      -0.02424102       0.30252813
Cu       0.00000000       2.96388259      12.12125812        3       0.00000000       0.00000000       0.00000000       0.00000000       0.04061532       0.01638215       0.27322508
Cu       2.56679762       2.96388259      12.12125812        3       0.00000000       0.00000000       0.00000000       0.00000000      -0.01543057      -0.00069248       0.26200137
Cu       5.13359523       2.96388259      12.12125812        3       0.00000000       0.00000000       0.00000000       0.00000000      -0.01819359      -0.03268522       0.24098974
Cu       1.28339881       5.18679453      12.12125812        3       0.00000000       0.00000000       0.00000000       0.00000000      -0.04164518      -0.03505604       0.26376551
Cu       3.85019642       5.18679453      12.12125812        3       0.00000000       0.00000000       0.00000000       0.00000000       0.00276670      -0.01870744       0.23648594
Cu       6.41699404       5.18679453      12.12125812        3       0.00000000       0.00000000       0.00000000       0.00000000       0.04295568       0.03441568       0.25997993
Cu       0.00000000       7.40970647      12.12125812        3       0.00000000       0.00000000       0.00000000       0.00000000       0.00056926      -0.01984182       0.32172276
Cu       2.56679762       7.40970647      12.12125812        3       0.00000000       0.00000000       0.00000000       0.00000000      -0.02088163       0.02365533       0.26817696
Cu       5.13359523       7.40970647      12.12125812        3       0.00000000       0.00000000       0.00000000       0.00000000       0.03041979      -0.00017814       0.30846718
Cu       0.00000000       1.48194129      14.24251623        2       0.00000000       0.00000000       0.00000000       0.00000000      -0.08899077       0.06679459      -0.20114108
Cu       2.56679762       1.48194129      14.24251623        2       0.00000000       0.00000000       0.00000000       0.00000000       0.09050840       0.06711048      -0.31233537
Cu       5.13359523       1.48194129      14.24251623        2       0.00000000       0.00000000       0.00000000       0.00000000       0.06924827       0.13078581      -0.15524677
Cu       1.28339881       3.70485324      14.24251623        2       0.00000000       0.00000000       0.00000000       0.00000000       0.15318608       0.08030258      -0.09801773
Cu       3.85019642       3.70485324      14.24251623        2       0.00000000       0.00000000       0.00000000       0.00000000      -0.11440493       0.12250337      -0.24106008
Cu       6.41699404       3.70485324      14.24251623        2       0.00000000       0.00000000       0.00000000       0.00000000       0.04266877      -0.14258245      -0.40938961
Cu       0.00000000       5.92776518      14.24251623        2       0.00000000       0.00000000       0.00000000       0.00000000      -0.03180760      -0.03010574      -0.40622685
Cu       2.56679762       5.92776518      14.24251623        2       0.00000000       0.00000000       0.00000000       0.00000000       0.07740609      -0.02959860      -0.15899483
Cu       5.13359523       5.92776518      14.24251623        2       0.00000000       0.00000000       0.00000000       0.00000000      -0.12503870      -0.03735998      -0.17678514
Cu       1.28339881       8.15067712      14.24251623        2       0.00000000       0.00000000       0.00000000       0.00000000       0.04877341       0.03405370      -0.41091343
Cu       3.85019642       8.15067712      14.24251623        2       0.00000000       0.00000000       0.00000000       0.00000000      -0.00519792      -0.15108510      -0.17919274
Cu       6.41699404       8.15067712      14.24251623        2       0.00000000       0.00000000       0.00000000       0.00000000       0.01245611       0.03142974      -0.32906898
Cu       7.71734786       8.89260215      16.27615063        1       0.00000000      -0.00545721       0.01946379       0.12871185      -0.00970912      -0.01844483       0.00182062
Cu       2.57026737       8.93953064      16.26515850        1       0.00000000       0.00944027      -0.00248749       0.14020548       0.01573455       0.04204458       0.02719081
Cu       5.13146549       8.90552114      16.26917774        1       0.00000000      -0.00841369      -0.01838594       0.12383676       0.00459966      -0.03988888      -0.04963492
Cu       1.32193912       2.24692308      16.27325038        1       0.00000000      -0.00039740      -0.00979192       0.12589739       0.01103237      -0.00711348      -0.06415806
Cu       3.85627711       2.27834247      16.29984213        1       0.00000000       0.01795546       0.01070452       0.14680762      -0.09359313      -0.16048552      -0.14498362
Cu       6.48855349       2.15953601      16.33061938        1       0.00000000      -0.02480080       0.04581354       0.19799308       0.12853465      -0.09661305      -0.17244827
Cu       0.01892051       4.47319610      16.25320847        1       0.00000000      -0.00085572       0.00903167       0.12332433       0.04815037       0.06665420      -0.06031501
Cu       2.53964524       4.48263755      16.37650204        1       0.00000000      -0.01882431      -0.02590468       0.09370949      -0.11751161      -0.05463719      -0.21962323
Cu       5.18442636       4.42404508      16.24243743        1       0.00000000       0.01053645      -0.00260175       0.12976681      -0.09850651      -0.01734506       0.09522636
Cu       1.22005027       6.72520527      16.23749771        1       0.00000000      -0.03041820       0.02217952       0.10838748       0.01481884      -0.00677030      -0.09482059
Cu       3.86391210       6.73864062      16.34345158        1       0.00000000       0.02955226       0.01752589       0.09668245       0.01329142       0.11980913      -0.26098935
Cu       6.40815691       6.68813061      16.27691556        1       0.00000000      -0.00741517       0.02145208       0.12104576       0.07002499       0.03681838      -0.05427417
O        4.83465865       4.30407289      19.05618487        0       0.00000000      -0.01233381      -0.02824768       0.06219574      -0.20431587       0.00404518       0.13764846
C        5.36231091       3.63578988      18.05535983        0       0.00000000      -0.02683907      -0.05701046       0.02642465      -0.12413733      -0.00106677       0.08075325
H        4.12261263       4.97889928      18.69383137        0       0.00000000      -0.04871514      -0.02536473       0.03978253       0.01792295      -0.07331185       0.23520320
O        6.17839719       2.70188529      18.29021817        0       0.00000000       0.00282585      -0.05470337      -0.00175842      -0.06435185       0.48890839       0.05746411
O        3.09495267       5.77589107      17.91121479        0       0.50000000      -0.03184364       0.02557745       0.08927104       0.16615585      -0.21719315       0.04541364
H        2.41970096       6.30432810      18.38036667        0       0.50000000       0.05605451      -0.14515261       0.00008624       0.06573767      -0.13894646       0.09373175
42
Lattice="7.700392847121503 0.0 0.0 0.0 8.891647766302935 0.0 0.0 0.0 26.3637743517507" Properties=species:S:1:pos:R:3:tags:I:1:initial_magmoms:R:1:MACE_forces:R:3:DFT_forces:R:3 _ConfigSet_loc=" / 20" MACE_energy=-173.12747776735398 DFT_energy=-175.02597094 pbc="T T T"
Cu       1.28339881       0.74097065      12.12125812        3       0.00000000       0.00000000       0.00000000       0.00000000       0.00964669      -0.01786721       0.35775866
Cu       3.85019642       0.74097065      12.12125812        3       0.00000000       0.00000000       0.00000000       0.00000000      -0.00950853       0.00643151       0.33127275
Cu       6.41699404       0.74097065      12.12125812        3       0.00000000       0.00000000       0.00000000       0.00000000       0.00627057      -0.02352869       0.30203895
Cu       0.00000000       2.96388259      12.12125812        3       0.00000000       0.00000000       0.00000000       0.00000000       0.04069137       0.01619634       0.27385599
Cu       2.56679762       2.96388259      12.12125812        3       0.00000000       0.00000000       0.00000000       0.00000000      -0.01493441      -0.00059333       0.26041855
Cu       5.13359523       2.96388259      12.12125812        3       0.00000000       0.00000000       0.00000000       0.00000000      -0.01884946      -0.03276043       0.24041123
Cu       1.28339881       5.18679453      12.12125812        3       0.00000000       0.00000000       0.00000000       0.00000000      -0.04090331      -0.03492264       0.26365329
Cu       3.85019642       5.18679453      12.12125812        3       0.00000000       0.00000000       0.00000000       0.00000000       0.00252128      -0.01852669       0.23658400
Cu       6.41699404       5.18679453      12.12125812        3       0.00000000       0.00000000       0.00000000       0.00000000       0.04191604       0.03458960       0.26027401
Cu       0.00000000       7.40970647      12.12125812        3       0.00000000       0.00000000       0.00000000       0.00000000       0.00097674      -0.01972320       0.32211734
Cu       2.56679762       7.40970647      12.12125812        3       0.00000000       0.00000000       0.00000000       0.00000000      -0.02075660       0.02354336       0.26874018
Cu       5.13359523       7.40970647      12.12125812        3       0.00000000       0.00000000       0.00000000       0.00000000       0.02996366      -0.00064274       0.30882125
Cu       0.00000000       1.48194129      14.24251623        2       0.00000000       0.00000000       0.00000000       0.00000000      -0.08661479       0.06375048      -0.21249537
Cu       2.56679762       1.48194129      14.24251623        2       0.00000000       0.00000000       0.00000000       0.00000000       0.08864966       0.06078779      -0.30998306
Cu       5.13359523       1.48194129      14.24251623        2       0.00000000       0.00000000       0.00000000       0.00000000       0.07210178       0.12347608      -0.16225328
Cu       1.28339881       3.70485324      14.24251623        2       0.00000000       0.00000000       0.00000000       0.00000000       0.15011994       0.07629861      -0.09933534
Cu       3.85019642       3.70485324      14.24251623        2       0.00000000       0.00000000       0.00000000       0.00000000      -0.10676391       0.11934544      -0.23940634
Cu       6.41699404       3.70485324      14.24251623        2       0.00000000       0.00000000       0.00000000       0.00000000       0.04542997      -0.14240622      -0.41658710
Cu       0.00000000       5.92776518      14.24251623        2       0.00000000       0.00000000       0.00000000       0.00000000      -0.03847334      -0.03203601      -0.41124662
Cu       2.56679762       5.92776518      14.24251623        2       0.00000000       0.00000000       0.00000000       0.00000000       0.07165170      -0.02829782      -0.16091851
Cu       5.13359523       5.92776518      14.24251623        2       0.00000000       0.00000000       0.00000000       0.00000000      -0.12640544      -0.04702606      -0.17247628
Cu       1.28339881       8.15067712      14.24251623        2       0.00000000       0.00000000       0.00000000       0.00000000       0.04854830       0.03916926      -0.41396954
Cu       3.85019642       8.15067712      14.24251623        2       0.00000000       0.00000000       0.00000000       0.00000000      -0.00983907      -0.15073269      -0.17876675
Cu       6.41699404       8.15067712      14.24251623        2       0.00000000       0.00000000       0.00000000       0.00000000       0.01241336       0.03061439      -0.33013847
Cu       7.71507611       8.89296774      16.27585902        1       0.00000000      -0.00078027       0.00781350       0.12965127      -0.00470524      -0.02987231       0.00204117
Cu       2.56923094       8.93558136      16.26727720        1       0.00000000       0.00561992      -0.00057167       0.13356626       0.01155086       0.04508292       0.01991669
Cu       5.12907829       8.90179252      16.26945637        1       0.00000000      -0.00413387      -0.01253556       0.12518502       0.00674002      -0.03443667      -0.04890272
Cu       1.32162300       2.24321901      16.27262352        1       0.00000000       0.00266551      -0.00520391       0.12568890       0.01269514      -0.00320810      -0.06557882
Cu       3.85777390       2.27192954      16.29815351        1       0.00000000       0.01539906       0.01188713       0.14771584      -0.09511591      -0.15313550      -0.14244016
Cu       6.48792019       2.15714790      16.32707660        1       0.00000000      -0.02412890       0.04524212       0.19785652       0.12795880      -0.09719943      -0.17262042
Cu       0.01923455       4.47407047      16.25341344        1       0.00000000       0.00021567       0.00280356       0.12320008       0.05197591       0.06260704      -0.05947619
Cu       2.54182631       4.47463186      16.37028982        1       0.00000000      -0.01681587      -0.01574528       0.10659802      -0.11739740      -0.04528924      -0.21818802
Cu       5.18807257       4.41915773      16.24455523        1       0.00000000       0.01058428      -0.00867880       0.14347349      -0.09636717      -0.01973954       0.10641370
Cu       1.21528661       6.72620970      16.23620465        1       0.00000000      -0.01513037       0.01615801       0.11546558       0.03380625      -0.01461357      -0.08761349
Cu       3.85940593       6.73600861      16.34172869        1       0.00000000       0.00833015       0.00118095       0.13253614      -0.01075151       0.09744781      -0.21062905
Cu       6.40381901       6.68777485      16.27680063        1       0.00000000       0.00110694       0.01765692       0.12071325       0.07856419       0.03149769      -0.05071475
O        4.85002429       4.29180623      19.06063797        0       0.00000000      -0.02186245      -0.02205307       0.04735998      -0.22323049       0.01502384       0.11786130
C        5.38048367       3.62913630      18.05890837        0       0.00000000       0.00360666      -0.09108020       0.01112245      -0.16445446       0.06680085       0.08852383
H        4.12870807       4.96059033      18.69508087        0       0.00000000      -0.03034877      -0.03670818       0.03815292       0.10207720      -0.13902342       0.16714045
O        6.19797074       2.69315941      18.28833059        0       0.00000000      -0.04403991       0.00365775       0.00953058      -0.04017078       0.42981956       0.03822308
O        3.10465691       5.74311077      17.90987834        0       0.50000000       0.05354553      -0.04228025       0.02940040       0.19243723      -0.22389564       0.04890715
H        2.40526387       6.22843316      18.38385232        0       0.50000000      -0.02576550      -0.04397652       0.05281506      -0.01346481      -0.03300543       0.14876670
42
Lattice="7.700392847121503 0.0 0.0 0.0 8.891647766302935 0.0 0.0 0.0 26.3637743517507" Properties=species:S:1:pos:R:3:tags:I:1:initial_magmoms:R:1:MACE_forces:R:3:DFT_forces:R:3 _ConfigSet_loc=" / 21" MACE_energy=-173.13022472210062 DFT_energy=-175.03351287 pbc="T T T"
Cu       1.28339881       0.74097065      12.12125812        3       0.00000000       0.00000000       0.00000000       0.00000000       0.01116064      -0.01858770       0.35775806
Cu       3.85019642       0.74097065      12.12125812        3       0.00000000       0.00000000       0.00000000       0.00000000      -0.00951313       0.00703907       0.33513624
Cu       6.41699404       0.74097065      12.12125812        3       0.00000000       0.00000000       0.00000000       0.00000000       0.00560603      -0.02208038       0.30308015
Cu       0.00000000       2.96388259      12.12125812        3       0.00000000       0.00000000       0.00000000       0.00000000       0.04081284       0.01543765       0.27493982
Cu       2.56679762       2.96388259      12.12125812        3       0.00000000       0.00000000       0.00000000       0.00000000      -0.01382305      -0.00002338       0.25736015
Cu       5.13359523       2.96388259      12.12125812        3       0.00000000       0.00000000       0.00000000       0.00000000      -0.01965833      -0.03334854       0.23870957
Cu       1.28339881       5.18679453      12.12125812        3       0.00000000       0.00000000       0.00000000       0.00000000      -0.03899572      -0.03506050       0.26324225
Cu       3.85019642       5.18679453      12.12125812        3       0.00000000       0.00000000       0.00000000       0.00000000       0.00199570      -0.01859350       0.23629840
Cu       6.41699404       5.18679453      12.12125812        3       0.00000000       0.00000000       0.00000000       0.00000000       0.04036560       0.03433336       0.26115425
Cu       0.00000000       7.40970647      12.12125812        3       0.00000000       0.00000000       0.00000000       0.00000000       0.00220057      -0.01970527       0.32320654
Cu       2.56679762       7.40970647      12.12125812        3       0.00000000       0.00000000       0.00000000       0.00000000      -0.02029658       0.02259790       0.27024790
Cu       5.13359523       7.40970647      12.12125812        3       0.00000000       0.00000000       0.00000000       0.00000000       0.02903587      -0.00205213       0.30965227
Cu       0.00000000       1.48194129      14.24251623        2       0.00000000       0.00000000       0.00000000       0.00000000      -0.08456888       0.05527739      -0.21566362
Cu       2.56679762       1.48194129      14.24251623        2       0.00000000       0.00000000       0.00000000       0.00000000       0.08140382       0.05187330      -0.30290251
Cu       5.13359523       1.48194129      14.24251623        2       0.00000000       0.00000000       0.00000000       0.00000000       0.07966759       0.11153715      -0.16668712
Cu       1.28339881       3.70485324      14.24251623        2       0.00000000       0.00000000       0.00000000       0.00000000       0.13701906       0.06659640      -0.10467343
Cu       3.85019642       3.70485324      14.24251623        2       0.00000000       0.00000000       0.00000000       0.00000000      -0.09198126       0.11259214      -0.24898421
Cu       6.41699404       3.70485324      14.24251623        2       0.00000000       0.00000000       0.00000000       0.00000000       0.05066136      -0.14528642      -0.42840498
Cu       0.00000000       5.92776518      14.24251623        2       0.00000000       0.00000000       0.00000000       0.00000000      -0.04709526      -0.02813602      -0.40895723
Cu       2.56679762       5.92776518      14.24251623        2       0.00000000       0.00000000       0.00000000       0.00000000       0.06783303      -0.02172150      -0.16351307
Cu       5.13359523       5.92776518      14.24251623        2       0.00000000       0.00000000       0.00000000       0.00000000      -0.12757527      -0.04758103      -0.16204854
Cu       1.28339881       8.15067712      14.24251623        2       0.00000000       0.00000000       0.00000000       0.00000000       0.04623370       0.04967209      -0.40751454
Cu       3.85019642       8.15067712      14.24251623        2       0.00000000       0.00000000       0.00000000       0.00000000      -0.01574055      -0.15494171      -0.15930650
Cu       6.41699404       8.15067712      14.24251623        2       0.00000000       0.00000000       0.00000000       0.00000000       0.01361934       0.02959090      -0.32039774
Cu       7.71166307       8.89326056      16.27981584        1       0.00000000       0.00802919      -0.00287195       0.11314297       0.00203338      -0.04085539      -0.01675384
Cu       2.56774766       8.93221141      16.27226058        1       0.00000000       0.00145558      -0.00556330       0.11772795       0.00624634       0.04224992       0.00087390
Cu       5.12633695       8.89742609      16.27194655        1       0.00000000      -0.00314136      -0.00805056       0.11964456       0.00319235      -0.03211100      -0.05540517
Cu       1.31928839       2.23900312      16.27365981        1       0.00000000       0.00889363      -0.00887780       0.11593496       0.01675114      -0.00843851      -0.07665282
Cu       3.85973419       2.26325401      16.29475904        1       0.00000000       0.01004487       0.00460315       0.14392919      -0.09450805      -0.15134996      -0.13905386
Cu       6.48678560       2.15515513      16.32456745        1       0.00000000      -0.02612835       0.03964652       0.18193245       0.12313683      -0.10050192      -0.18562151
Cu       0.01741129       4.47820399      16.25413843        1       0.00000000       0.00645532      -0.00841606       0.12001232       0.06373956       0.05020413      -0.06230482
Cu       2.54217295       4.45862239      16.35543090        1       0.00000000      -0.00847560       0.00458935       0.13130662      -0.11117431      -0.01825214      -0.20302660
Cu       5.19188500       4.41584222      16.24452101        1       0.00000000       0.01350698      -0.01759557       0.15742665      -0.08964994      -0.02591798       0.12048993
Cu       1.21225449       6.72851229      16.23545106        1       0.00000000      -0.00728792       0.00769691       0.12332540       0.04302873      -0.02654869      -0.07829276
Cu       3.85059034       6.73151442      16.34609771        1       0.00000000       0.00322061       0.00000742       0.13423712      -0.01828987       0.09666946      -0.20235758
Cu       6.39904549       6.68983693      16.28015668        1       0.00000000       0.00661231       0.00743300       0.10684902       0.08482800       0.02020650      -0.06395689
O        4.87967888       4.28916708      19.06397394        0       0.00000000      -0.03606389      -0.00594981       0.07813960      -0.26087312       0.02590601       0.13899481
C        5.41252565       3.63375216      18.06205077        0       0.00000000      -0.00807280      -0.07469926      -0.04337926      -0.10764462       0.04284614       0.12551857
H        4.14055546       4.94220522      18.69143907        0       0.00000000      -0.02160257      -0.02701608       0.03050786       0.08506458      -0.11929155       0.18753286
O        6.22795936       2.69508328      18.28379361        0       0.00000000      -0.00309724      -0.03871252       0.04983358      -0.07118567       0.41009242      -0.02710030
O        3.11946264       5.68842851      17.90307251        0       0.50000000       0.02762871      -0.02510720       0.05830086       0.21628404      -0.20424190       0.04997074
H        2.39381076       6.11509177      18.39201995        0       0.50000000      -0.03833678       0.01322318       0.04644980      -0.02934649       0.02990522       0.14541323
42
Lattice="7.700392847121503 0.0 0.0 0.0 8.891647766302935 0.0 0.0 0.0 26.3637743517507" Properties=species:S:1:pos:R:3:tags:I:1:initial_magmoms:R:1:MACE_forces:R:3:DFT_forces:R:3 _ConfigSet_loc=" / 22" MACE_energy=-173.13959492902993 DFT_energy=-175.03045996 pbc="T T T"
Cu       1.28339881       0.74097065      12.12125812        3       0.00000000       0.00000000       0.00000000       0.00000000       0.01306809      -0.01815774       0.35526786
Cu       3.85019642       0.74097065      12.12125812        3       0.00000000       0.00000000       0.00000000       0.00000000      -0.01137022       0.00681524       0.33446119
Cu       6.41699404       0.74097065      12.12125812        3       0.00000000       0.00000000       0.00000000       0.00000000       0.00516808      -0.02330018       0.30158321
Cu       0.00000000       2.96388259      12.12125812        3       0.00000000       0.00000000       0.00000000       0.00000000       0.04099842       0.01698902       0.27751447
Cu       2.56679762       2.96388259      12.12125812        3       0.00000000       0.00000000       0.00000000       0.00000000      -0.01440273      -0.00110521       0.26002397
Cu       5.13359523       2.96388259      12.12125812        3       0.00000000       0.00000000       0.00000000       0.00000000      -0.02011441      -0.03204207       0.24182398
Cu       1.28339881       5.18679453      12.12125812        3       0.00000000       0.00000000       0.00000000       0.00000000      -0.03925806      -0.03476198       0.26579865
Cu       3.85019642       5.18679453      12.12125812        3       0.00000000       0.00000000       0.00000000       0.00000000       0.00023686      -0.01879872       0.24014458
Cu       6.41699404       5.18679453      12.12125812        3       0.00000000       0.00000000       0.00000000       0.00000000       0.04047736       0.03261457       0.26383358
Cu       0.00000000       7.40970647      12.12125812        3       0.00000000       0.00000000       0.00000000       0.00000000       0.00118618      -0.01922643       0.32071159
Cu       2.56679762       7.40970647      12.12125812        3       0.00000000       0.00000000       0.00000000       0.00000000      -0.02141237       0.02286863       0.27164293
Cu       5.13359523       7.40970647      12.12125812        3       0.00000000       0.00000000       0.00000000       0.00000000       0.02914833      -0.00059869       0.30973933
Cu       0.00000000       1.48194129      14.24251623        2       0.00000000       0.00000000       0.00000000       0.00000000      -0.08970384       0.06766105      -0.20144465
Cu       2.56679762       1.48194129      14.24251623        2       0.00000000       0.00000000       0.00000000       0.00000000       0.08237903       0.04813652      -0.30543276
Cu       5.13359523       1.48194129      14.24251623        2       0.00000000       0.00000000       0.00000000       0.00000000       0.08686496       0.11484865      -0.15318490
Cu       1.28339881       3.70485324      14.24251623        2       0.00000000       0.00000000       0.00000000       0.00000000       0.15378157       0.07705621      -0.09385114
Cu       3.85019642       3.70485324      14.24251623        2       0.00000000       0.00000000       0.00000000       0.00000000      -0.07152525       0.12495366      -0.19050963
Cu       6.41699404       3.70485324      14.24251623        2       0.00000000       0.00000000       0.00000000       0.00000000       0.04928237      -0.14221734      -0.38812849
Cu       0.00000000       5.92776518      14.24251623        2       0.00000000       0.00000000       0.00000000       0.00000000      -0.03960425      -0.04078917      -0.40807548
Cu       2.56679762       5.92776518      14.24251623        2       0.00000000       0.00000000       0.00000000       0.00000000       0.07274052      -0.02957751      -0.14386737
Cu       5.13359523       5.92776518      14.24251623        2       0.00000000       0.00000000       0.00000000       0.00000000      -0.12892870      -0.09290033      -0.11758132
Cu       1.28339881       8.15067712      14.24251623        2       0.00000000       0.00000000       0.00000000       0.00000000       0.04618903       0.04177309      -0.41693363
Cu       3.85019642       8.15067712      14.24251623        2       0.00000000       0.00000000       0.00000000       0.00000000      -0.01398273      -0.16950839      -0.15699331
Cu       6.41699404       8.15067712      14.24251623        2       0.00000000       0.00000000       0.00000000       0.00000000       0.01395593       0.02296672      -0.32878506
Cu       7.71429023       8.89116265      16.27474864        1       0.00000000       0.00717883      -0.00877054       0.13017738      -0.00096366      -0.04203161       0.00374454
Cu       2.56983996       8.92416131      16.26979493        1       0.00000000       0.00299381       0.00265004       0.12860687       0.00841451       0.04942418       0.01219088
Cu       5.12792207       8.89287748      16.26988241        1       0.00000000       0.00258533      -0.00928655       0.12471483       0.00981776      -0.02937646      -0.04735743
Cu       1.32372441       2.24081261      16.27226369        1       0.00000000       0.00549129      -0.01762209       0.12453251       0.01528090      -0.01749190      -0.06495428
Cu       3.85970841       2.25695734      16.29542163        1       0.00000000       0.01808207       0.00311383       0.13947974      -0.08667672      -0.14475656      -0.13889447
Cu       6.48912144       2.15134085      16.33677223        1       0.00000000      -0.02222895       0.03631843       0.17014949       0.12744882      -0.10493497      -0.19928250
Cu       0.02953135       4.47290361      16.25835550        1       0.00000000      -0.00518336      -0.00264203       0.11818097       0.05028476       0.06207704      -0.06895009
Cu       2.55566243       4.46507436      16.36896752        1       0.00000000      -0.01356017      -0.00675000       0.11487053      -0.11559161      -0.04635804      -0.21684851
Cu       5.21017508       4.39271328      16.26672476        1       0.00000000      -0.00219935       0.00178148       0.14083311      -0.10599192       0.00747024       0.09056369
Cu       1.21712113       6.72463492      16.23675552        1       0.00000000       0.00442898       0.00156009       0.12831000       0.05337798      -0.02872938      -0.06763785
Cu       3.86000352       6.72146958      16.35006856        1       0.00000000      -0.00529283       0.00542428       0.13080060      -0.02498216       0.10525418      -0.20958609
Cu       6.40363762       6.68168367      16.27463065        1       0.00000000       0.01208181       0.01494897       0.12253041       0.08921726       0.02370364      -0.03918991
O        4.89949668       4.26592394      19.09121533        0       0.00000000      -0.02135384      -0.02006244       0.02735304      -0.25603172       0.02963715       0.05414307
C        5.43197953       3.60405996      18.09468172        0       0.00000000      -0.01193646      -0.05689016      -0.06088455      -0.12284449       0.08697744       0.06042817
H        4.16483619       4.93116454      18.70585304        0       0.00000000      -0.01188527      -0.03014650       0.02666771       0.03226782      -0.09569151       0.15372425
O        6.23191221       2.65220877      18.31656279        0       0.00000000      -0.01504945      -0.00310885      -0.01314650      -0.06600271       0.38883343      -0.04287438
O        3.17445387       5.67762975      17.92940448        0       0.50000000      -0.02561474      -0.00705106       0.03886127       0.23856932      -0.22300417       0.06992023
H        2.46067004       6.10929789      18.43143289        0       0.50000000      -0.03708581       0.00375026       0.00967038      -0.03076832       0.02529771       0.11310310
42
Lattice="7.700392847121503 0.0 0.0 0.0 8.891647766302935 0.0 0.0 0.0 26.3637743517507" Properties=species:S:1:pos:R:3:tags:I:1:initial_magmoms:R:1:MACE_forces:R:3:DFT_forces:R:3 _ConfigSet_loc=" / 23" MACE_energy=-173.12806672907385 DFT_energy=-175.01096705 pbc="T T T"
Cu       1.28339881       0.74097065      12.12125812        3       0.00000000       0.00000000       0.00000000       0.00000000       0.01752715      -0.02175847       0.35165491
Cu       3.85019642       0.74097065      12.12125812        3       0.00000000       0.00000000       0.00000000       0.00000000      -0.01517875       0.00660621       0.33155228
Cu       6.41699404       0.74097065      12.12125812        3       0.00000000       0.00000000       0.00000000       0.00000000       0.00435648      -0.02466221       0.29500387
Cu       0.00000000       2.96388259      12.12125812        3       0.00000000       0.00000000       0.00000000       0.00000000       0.04125267       0.01993839       0.27571910
Cu       2.56679762       2.96388259      12.12125812        3       0.00000000       0.00000000       0.00000000       0.00000000      -0.01386754      -0.00218431       0.26181810
Cu       5.13359523       2.96388259      12.12125812        3       0.00000000       0.00000000       0.00000000       0.00000000      -0.02093973      -0.03169986       0.23906123
Cu       1.28339881       5.18679453      12.12125812        3       0.00000000       0.00000000       0.00000000       0.00000000      -0.03773176      -0.03589313       0.26673860
Cu       3.85019642       5.18679453      12.12125812        3       0.00000000       0.00000000       0.00000000       0.00000000      -0.00094785      -0.01880746       0.24320789
Cu       6.41699404       5.18679453      12.12125812        3       0.00000000       0.00000000       0.00000000       0.00000000       0.03982014       0.03112646       0.26372307
Cu       0.00000000       7.40970647      12.12125812        3       0.00000000       0.00000000       0.00000000       0.00000000       0.00179908      -0.01735922       0.32167708
Cu       2.56679762       7.40970647      12.12125812        3       0.00000000       0.00000000       0.00000000       0.00000000      -0.02269922       0.02551648       0.27481856
Cu       5.13359523       7.40970647      12.12125812        3       0.00000000       0.00000000       0.00000000       0.00000000       0.02946620       0.00001399       0.31033782
Cu       0.00000000       1.48194129      14.24251623        2       0.00000000       0.00000000       0.00000000       0.00000000      -0.07051072       0.05641500      -0.22439246
Cu       2.56679762       1.48194129      14.24251623        2       0.00000000       0.00000000       0.00000000       0.00000000       0.08773059       0.03595304      -0.30729419
Cu       5.13359523       1.48194129      14.24251623        2       0.00000000       0.00000000       0.00000000       0.00000000       0.08445994       0.09733623      -0.17599935
Cu       1.28339881       3.70485324      14.24251623        2       0.00000000       0.00000000       0.00000000       0.00000000       0.15780492       0.06804771      -0.09834762
Cu       3.85019642       3.70485324      14.24251623        2       0.00000000       0.00000000       0.00000000       0.00000000      -0.07798400       0.12013527      -0.20625484
Cu       6.41699404       3.70485324      14.24251623        2       0.00000000       0.00000000       0.00000000       0.00000000       0.08051004      -0.14883240      -0.43476405
Cu       0.00000000       5.92776518      14.24251623        2       0.00000000       0.00000000       0.00000000       0.00000000      -0.03381165      -0.04356508      -0.40769092
Cu       2.56679762       5.92776518      14.24251623        2       0.00000000       0.00000000       0.00000000       0.00000000       0.08541445      -0.03458429      -0.13605659
Cu       5.13359523       5.92776518      14.24251623        2       0.00000000       0.00000000       0.00000000       0.00000000      -0.12334557      -0.08100237      -0.12855343
Cu       1.28339881       8.15067712      14.24251623        2       0.00000000       0.00000000       0.00000000       0.00000000       0.05157670       0.03542488      -0.41650066
Cu       3.85019642       8.15067712      14.24251623        2       0.00000000       0.00000000       0.00000000       0.00000000      -0.01240764      -0.17739519      -0.15189044
Cu       6.41699404       8.15067712      14.24251623        2       0.00000000       0.00000000       0.00000000       0.00000000       0.02268729       0.02000148      -0.32980889
Cu       7.72196660       8.88368861      16.27466991        1       0.00000000       0.00547157      -0.00555905       0.12931492      -0.00503393      -0.03522967       0.00004129
Cu       2.57773809       8.91525546      16.27102143        1       0.00000000      -0.00294537       0.00876755       0.12674484       0.00546865       0.05503792       0.00832152
Cu       5.13299198       8.88338687      16.26883706        1       0.00000000       0.00094627      -0.00094906       0.12567329       0.01185793      -0.01410311      -0.04214241
Cu       1.33162140       2.23378297      16.27190983        1       0.00000000       0.00108419      -0.00956250       0.12501706       0.01134970      -0.01101372      -0.06272548
Cu       3.86596996       2.25118081      16.29222737        1       0.00000000       0.01475666       0.00880586       0.14656077      -0.08754930      -0.13021208      -0.12457441
Cu       6.49600976       2.14372819      16.32286260        1       0.00000000      -0.02960835       0.04171507       0.19106346       0.12557456      -0.10049857      -0.18229159
Cu       0.03975401       4.47021768      16.25823136        1       0.00000000      -0.01167759      -0.00309175       0.12115957       0.02956188       0.05672166      -0.06240923
Cu       2.56313513       4.46013337      16.36874155        1       0.00000000      -0.01834466       0.00481937       0.12780636      -0.10904647      -0.03168009      -0.20883398
Cu       5.21824602       4.39001678      16.25429358        1       0.00000000      -0.00134859      -0.01381196       0.16030788      -0.11731061      -0.00184218       0.11660548
Cu       1.22863571       6.71813656      16.23734689        1       0.00000000      -0.00452228       0.00604663       0.12964278       0.04904099      -0.02697163      -0.05429757
Cu       3.86772322       6.71010044      16.35506449        1       0.00000000      -0.01173918       0.01646822       0.12854003      -0.03422038       0.10781553      -0.21993617
Cu       6.41350740       6.67736272      16.27461301        1       0.00000000       0.00496256       0.01607140       0.12130086       0.07706586       0.02082601      -0.04021205
O        4.91626667       4.25827576      19.06285401        0       0.00000000      -0.03670878      -0.01471626       0.03703019      -0.31068023       0.07695228       0.02965702
C        5.44112949       3.58943810      18.07961126        0       0.00000000      -0.01398706      -0.05180597      -0.05152179      -0.15214695       0.12900263       0.08281417
H        4.14855539       4.94593472      18.65913147        0       0.00000000       0.03299823      -0.05716999       0.06301800       0.03444357      -0.06977643       0.09468906
O        6.23904125       2.62858435      18.29056174        0       0.00000000      -0.01134135       0.00304060       0.03176354      -0.04428731       0.34938256       0.01646836
O        3.21494902       5.65688200      17.96132232        0       0.50000000      -0.05264811       0.01702742       0.01402731       0.30633992      -0.28301254       0.13505449
H        2.53168079       6.08975164      18.50147788        0       0.50000000      -0.06400207       0.01003176      -0.01650346      -0.06540902       0.02983026       0.09601242
42
Lattice="7.700392847121503 0.0 0.0 0.0 8.891647766302935 0.0 0.0 0.0 26.3637743517507" Properties=species:S:1:pos:R:3:tags:I:1:initial_magmoms:R:1:MACE_forces:R:3:DFT_forces:R:3 _ConfigSet_loc=" / 24" MACE_energy=-173.121299623865 DFT_energy=-174.99049182 pbc="T T T"
Cu       1.28339881       0.74097065      12.12125812        3       0.00000000       0.00000000       0.00000000       0.00000000       0.02103305      -0.02350203       0.34922208
Cu       3.85019642       0.74097065      12.12125812        3       0.00000000       0.00000000       0.00000000       0.00000000      -0.01816525       0.00718201       0.33121298
Cu       6.41699404       0.74097065      12.12125812        3       0.00000000       0.00000000       0.00000000       0.00000000       0.00367791      -0.02457882       0.29413391
Cu       0.00000000       2.96388259      12.12125812        3       0.00000000       0.00000000       0.00000000       0.00000000       0.04066279       0.02181656       0.27657880
Cu       2.56679762       2.96388259      12.12125812        3       0.00000000       0.00000000       0.00000000       0.00000000      -0.01324850      -0.00342312       0.26224347
Cu       5.13359523       2.96388259      12.12125812        3       0.00000000       0.00000000       0.00000000       0.00000000      -0.02091327      -0.03191357       0.23988516
Cu       1.28339881       5.18679453      12.12125812        3       0.00000000       0.00000000       0.00000000       0.00000000      -0.03677176      -0.03626770       0.26657831
Cu       3.85019642       5.18679453      12.12125812        3       0.00000000       0.00000000       0.00000000       0.00000000      -0.00167312      -0.01811289       0.24655616
Cu       6.41699404       5.18679453      12.12125812        3       0.00000000       0.00000000       0.00000000       0.00000000       0.03937941       0.02992804       0.26481362
Cu       0.00000000       7.40970647      12.12125812        3       0.00000000       0.00000000       0.00000000       0.00000000       0.00213102      -0.01694679       0.32203798
Cu       2.56679762       7.40970647      12.12125812        3       0.00000000       0.00000000       0.00000000       0.00000000      -0.02337209       0.02651819       0.27683988
Cu       5.13359523       7.40970647      12.12125812        3       0.00000000       0.00000000       0.00000000       0.00000000       0.02962245      -0.00078228       0.31044463
Cu       0.00000000       1.48194129      14.24251623        2       0.00000000       0.00000000       0.00000000       0.00000000      -0.07318810       0.05915573      -0.22020704
Cu       2.56679762       1.48194129      14.24251623        2       0.00000000       0.00000000       0.00000000       0.00000000       0.08737339       0.03475941      -0.30693090
Cu       5.13359523       1.48194129      14.24251623        2       0.00000000       0.00000000       0.00000000       0.00000000       0.08677472       0.09557435      -0.17637749
Cu       1.28339881       3.70485324      14.24251623        2       0.00000000       0.00000000       0.00000000       0.00000000       0.15314575       0.06490652      -0.10477630
Cu       3.85019642       3.70485324      14.24251623        2       0.00000000       0.00000000       0.00000000       0.00000000      -0.07731293       0.11748309      -0.21375811
Cu       6.41699404       3.70485324      14.24251623        2       0.00000000       0.00000000       0.00000000       0.00000000       0.08659743      -0.15323216      -0.44106601
Cu       0.00000000       5.92776518      14.24251623        2       0.00000000       0.00000000       0.00000000       0.00000000      -0.03774740      -0.04555668      -0.41357292
Cu       2.56679762       5.92776518      14.24251623        2       0.00000000       0.00000000       0.00000000       0.00000000       0.08552261      -0.03259404      -0.13428753
Cu       5.13359523       5.92776518      14.24251623        2       0.00000000       0.00000000       0.00000000       0.00000000      -0.12065281      -0.07910694      -0.13556943
Cu       1.28339881       8.15067712      14.24251623        2       0.00000000       0.00000000       0.00000000       0.00000000       0.05075468       0.04026247      -0.42187625
Cu       3.85019642       8.15067712      14.24251623        2       0.00000000       0.00000000       0.00000000       0.00000000      -0.01300366      -0.17303920      -0.15216250
Cu       6.41699404       8.15067712      14.24251623        2       0.00000000       0.00000000       0.00000000       0.00000000       0.02417936       0.02116061      -0.32860132
Cu       7.72206893       8.88426531      16.27465083        1       0.00000000       0.00205918      -0.00162463       0.12998229      -0.00857501      -0.03181714      -0.00133263
Cu       2.57817901       8.91394659      16.27133562        1       0.00000000      -0.00363196       0.00862800       0.12752571       0.00461815       0.05292416       0.00912684
Cu       5.13306404       8.88318755      16.26891335        1       0.00000000       0.00172936      -0.00051020       0.12532407       0.01222000      -0.01361015      -0.03987427
Cu       1.33154012       2.23293281      16.27191107        1       0.00000000      -0.00050057      -0.01058575       0.12483451       0.01022684      -0.01180755      -0.06058804
Cu       3.86567051       2.25055036      16.29176875        1       0.00000000       0.01276299       0.00348336       0.14283091      -0.08381627      -0.12486409      -0.11763756
Cu       6.49499498       2.14532537      16.32478482        1       0.00000000      -0.02980295       0.04198458       0.18855366       0.12835902      -0.10344675      -0.19823434
Cu       0.04044425       4.47085137      16.25811701        1       0.00000000      -0.00889414      -0.00170107       0.12114490       0.02605870       0.05740560      -0.05471800
Cu       2.56272213       4.45839545      16.36432543        1       0.00000000      -0.01488392       0.00370545       0.11774365      -0.09864058      -0.02900900      -0.22191102
Cu       5.21851760       4.38920423      16.25197469        1       0.00000000       0.00402968      -0.02012153       0.17238550      -0.11838553       0.00190576       0.13157973
Cu       1.22726324       6.71922108      16.23610849        1       0.00000000      -0.00396904       0.00401642       0.12800679       0.05642429      -0.03204699      -0.05358778
Cu       3.86886063       6.70884190      16.35317467        1       0.00000000      -0.01028468       0.01335646       0.12090524      -0.03884988       0.10114629      -0.22707646
Cu       6.41377491       6.67797221      16.27450346        1       0.00000000       0.00409134       0.01413965       0.12132554       0.07363594       0.01578606      -0.03616265
O        4.91352935       4.25733464      19.05637305        0       0.00000000      -0.03675554      -0.00889973       0.02770294      -0.35175776       0.12830876      -0.02908216
C        5.43926053       3.58978114      18.08435373        0       0.00000000      -0.00403190      -0.05321183      -0.03376937      -0.17131836       0.14466725       0.06946580
H        4.10942670       4.97252899      18.63181096        0       0.00000000      -0.01300416      -0.02071479       0.03669436       0.05744544      -0.07912669       0.09738950
O        6.24131502       2.62615062      18.28510928        0       0.00000000      -0.00485261      -0.00963048       0.02502728      -0.00879861       0.30608671       0.04856638
O        3.22686209       5.64873107      17.97613045        0       0.50000000      -0.04579423       0.01549677       0.04996523       0.29119039      -0.28348455       0.15929437
H        2.54291048       6.07860808      18.51716107        0       0.50000000      -0.04593773      -0.00133952       0.01681997      -0.05484248       0.02129158       0.13342110
42
Lattice="7.700392847121503 0.0 0.0 0.0 8.891647766302935 0.0 0.0 0.0 26.3637743517507" Properties=species:S:1:pos:R:3:tags:I:1:initial_magmoms:R:1:MACE_forces:R:3:DFT_forces:R:3 _ConfigSet_loc=" / 25" MACE_energy=-173.18210225935147 DFT_energy=-174.95629485 pbc="T T T"
Cu       1.28339881       0.74097065      12.12125812        3       0.00000000       0.00000000       0.00000000       0.00000000       0.03464813      -0.02620258       0.33392587
Cu       3.85019642       0.74097065      12.12125812        3       0.00000000       0.00000000       0.00000000       0.00000000      -0.03232445       0.00848564       0.32203391
Cu       6.41699404       0.74097065      12.12125812        3       0.00000000       0.00000000       0.00000000       0.00000000       0.00116436      -0.02298405       0.28660568
Cu       0.00000000       2.96388259      12.12125812        3       0.00000000       0.00000000       0.00000000       0.00000000       0.03650731       0.02238214       0.27490591
Cu       2.56679762       2.96388259      12.12125812        3       0.00000000       0.00000000       0.00000000       0.00000000      -0.00737459      -0.01207544       0.26358903
Cu       5.13359523       2.96388259      12.12125812        3       0.00000000       0.00000000       0.00000000       0.00000000      -0.02508960      -0.03008836       0.24397872
Cu       1.28339881       5.18679453      12.12125812        3       0.00000000       0.00000000       0.00000000       0.00000000      -0.03039985      -0.03266925       0.26054225
Cu       3.85019642       5.18679453      12.12125812        3       0.00000000       0.00000000       0.00000000       0.00000000      -0.00502459      -0.01962481       0.26134482
Cu       6.41699404       5.18679453      12.12125812        3       0.00000000       0.00000000       0.00000000       0.00000000       0.03253817       0.02416465       0.27548363
Cu       0.00000000       7.40970647      12.12125812        3       0.00000000       0.00000000       0.00000000       0.00000000       0.00740341      -0.01670384       0.32495657
Cu       2.56679762       7.40970647      12.12125812        3       0.00000000       0.00000000       0.00000000       0.00000000      -0.02378970       0.03078378       0.27890072
Cu       5.13359523       7.40970647      12.12125812        3       0.00000000       0.00000000       0.00000000       0.00000000       0.02242164      -0.00390852       0.30858497
Cu       0.00000000       1.48194129      14.24251623        2       0.00000000       0.00000000       0.00000000       0.00000000      -0.06531377       0.05388492      -0.23149162
Cu       2.56679762       1.48194129      14.24251623        2       0.00000000       0.00000000       0.00000000       0.00000000       0.07532742       0.01695077      -0.33263141
Cu       5.13359523       1.48194129      14.24251623        2       0.00000000       0.00000000       0.00000000       0.00000000       0.09211140       0.07418883      -0.21213162
Cu       1.28339881       3.70485324      14.24251623        2       0.00000000       0.00000000       0.00000000       0.00000000       0.11582773       0.04135788      -0.16548303
Cu       3.85019642       3.70485324      14.24251623        2       0.00000000       0.00000000       0.00000000       0.00000000      -0.02480769       0.11497714      -0.20534088
Cu       6.41699404       3.70485324      14.24251623        2       0.00000000       0.00000000       0.00000000       0.00000000       0.07606988      -0.14259908      -0.41612306
Cu       0.00000000       5.92776518      14.24251623        2       0.00000000       0.00000000       0.00000000       0.00000000      -0.04922891      -0.04507434      -0.44083506
Cu       2.56679762       5.92776518      14.24251623        2       0.00000000       0.00000000       0.00000000       0.00000000       0.08008957      -0.02240209      -0.16805569
Cu       5.13359523       5.92776518      14.24251623        2       0.00000000       0.00000000       0.00000000       0.00000000      -0.10184577      -0.10182625      -0.13434432
Cu       1.28339881       8.15067712      14.24251623        2       0.00000000       0.00000000       0.00000000       0.00000000       0.04488941       0.05449643      -0.43738860
Cu       3.85019642       8.15067712      14.24251623        2       0.00000000       0.00000000       0.00000000       0.00000000      -0.02267636      -0.13046188      -0.18575002
Cu       6.41699404       8.15067712      14.24251623        2       0.00000000       0.00000000       0.00000000       0.00000000       0.03319379       0.01655770      -0.32317255
Cu       7.72145285       8.88170944      16.27498368        1       0.00000000       0.00230993      -0.00355896       0.12502382      -0.00605340      -0.03210385      -0.01829980
Cu       2.57656470       8.91063096      16.27235566        1       0.00000000       0.00111334      -0.00393884       0.12446762       0.00667403       0.01611289       0.00984213
Cu       5.13331289       8.87916865      16.26752079        1       0.00000000      -0.00248916      -0.01507027       0.12359168       0.00777070      -0.02092694      -0.02562443
Cu       1.33154229       2.22914229      16.27091804        1       0.00000000      -0.00428549      -0.01246282       0.12186064       0.00682239      -0.01483462      -0.04858776
Cu       3.86199401       2.23980940      16.28202998        1       0.00000000      -0.00709294      -0.00879565       0.13317646      -0.07222439      -0.07805261      -0.07304002
Cu       6.48848857       2.15040093      16.31580320        1       0.00000000      -0.01789119       0.01135724       0.15300463       0.14963328      -0.16632620      -0.40427612
Cu       0.04639272       4.47336898      16.25702027        1       0.00000000      -0.01572126      -0.00339740       0.12419971       0.00256064       0.05332611      -0.02456877
Cu       2.56914170       4.44809838      16.33175127        1       0.00000000      -0.01953835      -0.00503367       0.11348826      -0.07325411      -0.04551046      -0.23593745
Cu       5.22527640       4.38016538      16.27700434        1       0.00000000      -0.00086740      -0.00830781       0.12046390      -0.13242621       0.04925557       0.08079273
Cu       1.22939930       6.71756427      16.23196464        1       0.00000000      -0.01877159       0.01074088       0.11783048       0.04645314      -0.02443892      -0.05962233
Cu       3.87129821       6.70240002      16.32990661        1       0.00000000      -0.01094540       0.00105982       0.13135840      -0.02628614       0.08976077      -0.23862145
Cu       6.41544084       6.67381708      16.27525530        1       0.00000000       0.00083578       0.01737281       0.11901645       0.05708552       0.00704337      -0.01540809
O        5.00942100       4.23024052      19.07342717        0       0.00000000       0.04058438      -0.00998713       0.03724514      -0.28439615       0.20293444       0.10102055
C        5.50181580       3.57110172      18.13285967        0       0.00000000       0.04809678      -0.05263732       0.03308553      -0.22359845       0.24986397       0.23408002
H        3.95454943       5.13689705      18.58754934        0       0.00000000      -0.14029655       0.08797012       0.01757679       0.12159616      -0.05109816       0.13600796
O        6.28052568       2.56089165      18.24046570        0       0.00000000       0.02550801      -0.05340230       0.07354834       0.13877372       0.03441246       0.02106750
O        3.21654493       5.65845428      18.04779934        0       0.50000000      -0.02767814       0.03982215       0.11892001       0.05203548      -0.12421314       0.15112930
H        2.55311978       6.08663703      18.61302319        0       0.50000000      -0.05553210       0.01199163       0.09591791      -0.03548318       0.00318591       0.22794181
42
Lattice="7.700392847121503 0.0 0.0 0.0 8.891647766302935 0.0 0.0 0.0 26.3637743517507" Properties=species:S:1:pos:R:3:tags:I:1:initial_magmoms:R:1:MACE_forces:R:3:DFT_forces:R:3 _ConfigSet_loc=" / 26" MACE_energy=-173.2109920745009 DFT_energy=-174.9239975 pbc="T T T"
Cu       1.28339881       0.74097065      12.12125812        3       0.00000000       0.00000000       0.00000000       0.00000000       0.03717220      -0.02788159       0.32764710
Cu       3.85019642       0.74097065      12.12125812        3       0.00000000       0.00000000       0.00000000       0.00000000      -0.03311675       0.00888828       0.31595169
Cu       6.41699404       0.74097065      12.12125812        3       0.00000000       0.00000000       0.00000000       0.00000000      -0.00091051      -0.02560947       0.28511108
Cu       0.00000000       2.96388259      12.12125812        3       0.00000000       0.00000000       0.00000000       0.00000000       0.03547513       0.02142953       0.27464911
Cu       2.56679762       2.96388259      12.12125812        3       0.00000000       0.00000000       0.00000000       0.00000000      -0.00255558      -0.01551912       0.27353722
Cu       5.13359523       2.96388259      12.12125812        3       0.00000000       0.00000000       0.00000000       0.00000000      -0.02988684      -0.02805309       0.25077814
Cu       1.28339881       5.18679453      12.12125812        3       0.00000000       0.00000000       0.00000000       0.00000000      -0.02828788      -0.02800126       0.26179881
Cu       3.85019642       5.18679453      12.12125812        3       0.00000000       0.00000000       0.00000000       0.00000000      -0.00587470      -0.02370374       0.27186575
Cu       6.41699404       5.18679453      12.12125812        3       0.00000000       0.00000000       0.00000000       0.00000000       0.02886535       0.02135929       0.28974042
Cu       0.00000000       7.40970647      12.12125812        3       0.00000000       0.00000000       0.00000000       0.00000000       0.00825922      -0.01718579       0.32160440
Cu       2.56679762       7.40970647      12.12125812        3       0.00000000       0.00000000       0.00000000       0.00000000      -0.02414966       0.03113655       0.27891155
Cu       5.13359523       7.40970647      12.12125812        3       0.00000000       0.00000000       0.00000000       0.00000000       0.02142706      -0.00127333       0.30889571
Cu       0.00000000       1.48194129      14.24251623        2       0.00000000       0.00000000       0.00000000       0.00000000      -0.05919821       0.05254331      -0.22275488
Cu       2.56679762       1.48194129      14.24251623        2       0.00000000       0.00000000       0.00000000       0.00000000       0.06803902       0.01294997      -0.35086206
Cu       5.13359523       1.48194129      14.24251623        2       0.00000000       0.00000000       0.00000000       0.00000000       0.09207658       0.06235110      -0.21014720
Cu       1.28339881       3.70485324      14.24251623        2       0.00000000       0.00000000       0.00000000       0.00000000       0.08702094       0.03163960      -0.19426520
Cu       3.85019642       3.70485324      14.24251623        2       0.00000000       0.00000000       0.00000000       0.00000000       0.01520563       0.10352211      -0.18817778
Cu       6.41699404       3.70485324      14.24251623        2       0.00000000       0.00000000       0.00000000       0.00000000       0.06614269      -0.13483861      -0.35610924
Cu       0.00000000       5.92776518      14.24251623        2       0.00000000       0.00000000       0.00000000       0.00000000      -0.05169487      -0.05348433      -0.43911770
Cu       2.56679762       5.92776518      14.24251623        2       0.00000000       0.00000000       0.00000000       0.00000000       0.08889125      -0.01650411      -0.18290670
Cu       5.13359523       5.92776518      14.24251623        2       0.00000000       0.00000000       0.00000000       0.00000000      -0.11953649      -0.12256313      -0.07256281
Cu       1.28339881       8.15067712      14.24251623        2       0.00000000       0.00000000       0.00000000       0.00000000       0.04302726       0.03141417      -0.42630424
Cu       3.85019642       8.15067712      14.24251623        2       0.00000000       0.00000000       0.00000000       0.00000000      -0.03220078      -0.14308549      -0.18998119
Cu       6.41699404       8.15067712      14.24251623        2       0.00000000       0.00000000       0.00000000       0.00000000       0.03724528       0.00292204      -0.32702251
Cu       7.72117253       8.87006629      16.27256489        1       0.00000000       0.00172050       0.00011428       0.12508731      -0.01065825      -0.01387245      -0.01894130
Cu       2.57400414       8.90590297      16.26877578        1       0.00000000      -0.00586643       0.00037530       0.12543215      -0.00308609       0.00861846       0.01238460
Cu       5.13046518       8.86634374      16.26372853        1       0.00000000       0.00172158      -0.00127253       0.12706606       0.01609108       0.00316220      -0.01412053
Cu       1.33054812       2.22710864      16.26942436        1       0.00000000      -0.00029697      -0.01284410       0.12436056       0.01943143      -0.00735277      -0.03207282
Cu       3.85943890       2.22851669      16.28118288        1       0.00000000      -0.00498336      -0.00650296       0.13430016      -0.08386326      -0.06228733      -0.06945922
Cu       6.48238739       2.14477409      16.31899553        1       0.00000000      -0.00090909      -0.00805111       0.14452780       0.14533055      -0.17579781      -0.45556451
Cu       0.04812010       4.46660576      16.26339624        1       0.00000000      -0.00693064      -0.00216094       0.12012753       0.02150102       0.05987343      -0.03286853
Cu       2.58419387       4.44816178      16.31782473        1       0.00000000      -0.02647729      -0.01556099       0.12172001      -0.07878607      -0.06494501      -0.20740300
Cu       5.23023802       4.35498124      16.30560394        1       0.00000000      -0.01299949       0.00434936       0.12527020      -0.13579769       0.09844463       0.04413191
Cu       1.23496434       6.70054780      16.23452750        1       0.00000000      -0.02035790       0.01327037       0.11924862       0.03066921      -0.00383480      -0.04777459
Cu       3.85843279       6.68602656      16.33911223        1       0.00000000       0.00374526       0.02363780       0.11361640       0.01361969       0.10680703      -0.27839166
Cu       6.41182410       6.66273179      16.27247395        1       0.00000000       0.00975908       0.01422341       0.11790905       0.05948650       0.00660833      -0.00951985
O        5.06590441       4.20167273      19.07047781        0       0.00000000      -0.01251185       0.03246118       0.04689319      -0.16906889       0.15075769       0.23376543
C        5.57461986       3.51285948      18.17334902        0       0.00000000      -0.01405708       0.01786762      -0.02130483      -0.31375508       0.39871201       0.28449170
H        3.94992379       5.24567856      18.65551981        0       0.00000000      -0.00526098      -0.02268302       0.02181689       0.07110682      -0.10776158       0.09570186
O        6.33149652       2.48913550      18.27244761        0       0.00000000      -0.02945030       0.02174468       0.03228508       0.09389293      -0.00863564      -0.08486973
O        3.27205885       5.81451123      18.15159075        0       0.50000000      -0.03847487      -0.00318979       0.09197145       0.12137710      -0.17903134       0.09552300
H        2.53293818       6.09914619      18.71191806        0       0.50000000      -0.03591082       0.03802312       0.06933839      -0.03892636       0.04808205       0.18470775
42
Lattice="7.700392847121503 0.0 0.0 0.0 8.891647766302935 0.0 0.0 0.0 26.3637743517507" Properties=species:S:1:pos:R:3:tags:I:1:initial_magmoms:R:1:MACE_forces:R:3:DFT_forces:R:3 _ConfigSet_loc=" / 27" MACE_energy=-173.28235699452415 DFT_energy=-174.95131154 pbc="T T T"
Cu       1.28339881       0.74097065      12.12125812        3       0.00000000       0.00000000       0.00000000       0.00000000       0.03484002      -0.03078070       0.32563652
Cu       3.85019642       0.74097065      12.12125812        3       0.00000000       0.00000000       0.00000000       0.00000000      -0.03029683       0.00986568       0.31408631
Cu       6.41699404       0.74097065      12.12125812        3       0.00000000       0.00000000       0.00000000       0.00000000      -0.00164575      -0.03063468       0.28433404
Cu       0.00000000       2.96388259      12.12125812        3       0.00000000       0.00000000       0.00000000       0.00000000       0.03508107       0.02078212       0.26748891
Cu       2.56679762       2.96388259      12.12125812        3       0.00000000       0.00000000       0.00000000       0.00000000       0.00076285      -0.01616890       0.28175937
Cu       5.13359523       2.96388259      12.12125812        3       0.00000000       0.00000000       0.00000000       0.00000000      -0.03265581      -0.02877020       0.25138359
Cu       1.28339881       5.18679453      12.12125812        3       0.00000000       0.00000000       0.00000000       0.00000000      -0.02544744      -0.02361272       0.26624104
Cu       3.85019642       5.18679453      12.12125812        3       0.00000000       0.00000000       0.00000000       0.00000000      -0.00805012      -0.02574950       0.27871267
Cu       6.41699404       5.18679453      12.12125812        3       0.00000000       0.00000000       0.00000000       0.00000000       0.02889583       0.01955188       0.29399907
Cu       0.00000000       7.40970647      12.12125812        3       0.00000000       0.00000000       0.00000000       0.00000000       0.00754153      -0.01411542       0.31725032
Cu       2.56679762       7.40970647      12.12125812        3       0.00000000       0.00000000       0.00000000       0.00000000      -0.02805386       0.03073971       0.27985626
Cu       5.13359523       7.40970647      12.12125812        3       0.00000000       0.00000000       0.00000000       0.00000000       0.02515578       0.00410898       0.30769522
Cu       0.00000000       1.48194129      14.24251623        2       0.00000000       0.00000000       0.00000000       0.00000000      -0.05671486       0.04534130      -0.24529171
Cu       2.56679762       1.48194129      14.24251623        2       0.00000000       0.00000000       0.00000000       0.00000000       0.06994537       0.00846562      -0.35237543
Cu       5.13359523       1.48194129      14.24251623        2       0.00000000       0.00000000       0.00000000       0.00000000       0.08663360       0.05505086      -0.21660636
Cu       1.28339881       3.70485324      14.24251623        2       0.00000000       0.00000000       0.00000000       0.00000000       0.00583844      -0.01744420      -0.29755951
Cu       3.85019642       3.70485324      14.24251623        2       0.00000000       0.00000000       0.00000000       0.00000000       0.06983127       0.06020836      -0.26824390
Cu       6.41699404       3.70485324      14.24251623        2       0.00000000       0.00000000       0.00000000       0.00000000       0.04674135      -0.12468792      -0.31724913
Cu       0.00000000       5.92776518      14.24251623        2       0.00000000       0.00000000       0.00000000       0.00000000      -0.04616124      -0.04830632      -0.43067346
Cu       2.56679762       5.92776518      14.24251623        2       0.00000000       0.00000000       0.00000000       0.00000000       0.10925918       0.02498442      -0.20955675
Cu       5.13359523       5.92776518      14.24251623        2       0.00000000       0.00000000       0.00000000       0.00000000      -0.14712348      -0.10045276      -0.03742718
Cu       1.28339881       8.15067712      14.24251623        2       0.00000000       0.00000000       0.00000000       0.00000000       0.04122508      -0.00403371      -0.39922802
Cu       3.85019642       8.15067712      14.24251623        2       0.00000000       0.00000000       0.00000000       0.00000000      -0.03762913      -0.19056315      -0.15386092
Cu       6.41699404       8.15067712      14.24251623        2       0.00000000       0.00000000       0.00000000       0.00000000       0.03513190      -0.00590097      -0.32721259
Cu       7.72098357       8.86014976      16.27081549        1       0.00000000       0.00511890      -0.01957875       0.12809520      -0.00412590      -0.03572126      -0.01555432
Cu       2.57273531       8.89680742      16.26605110        1       0.00000000      -0.00379197      -0.00473058       0.12302828      -0.00516808       0.00948896       0.00926908
Cu       5.12709461       8.85640146      16.26020173        1       0.00000000      -0.00336702      -0.01566319       0.12020255       0.01343761      -0.01690612      -0.01320986
Cu       1.32528692       2.21470168      16.26799564        1       0.00000000      -0.00257877      -0.02591064       0.12366037       0.03018593      -0.00294494      -0.01507591
Cu       3.85863301       2.21786021      16.28268334        1       0.00000000       0.00045054      -0.01377761       0.13169612      -0.08971066      -0.05027989      -0.06976788
Cu       6.48210859       2.13562810      16.31364128        1       0.00000000      -0.03415984       0.03901926       0.18447882       0.09575974      -0.12185995      -0.42006259
Cu       0.04037295       4.46214510      16.26516356        1       0.00000000      -0.01740904      -0.00910369       0.12145461       0.02312912       0.05092289      -0.01271484
Cu       2.57296192       4.42153357      16.27009570        1       0.00000000      -0.03112784      -0.03031692       0.06936936      -0.05403708      -0.02700759      -0.14809186
Cu       5.20922420       4.35621151      16.31242464        1       0.00000000      -0.01953215      -0.01779945       0.18194812      -0.08830753       0.05299613       0.06690544
Cu       1.24575082       6.68191823      16.24493659        1       0.00000000       0.00531559      -0.01657980       0.13568548       0.01205828      -0.01131567      -0.04431716
Cu       3.83922667       6.64844390      16.37093675        1       0.00000000      -0.03344533      -0.02288885       0.15949295       0.00007340       0.07388805      -0.28153334
Cu       6.41141002       6.65726990      16.26827954        1       0.00000000       0.00862752       0.01152041       0.11728174       0.05632363       0.00223866      -0.00555135
O        5.05420256       4.17640438      19.06841394        0       0.00000000      -0.04484566      -0.01033593       0.01112887      -0.16582260       0.10326328       0.19795676
C        5.57847174       3.49259857      18.18164085        0       0.00000000      -0.02999839      -0.00359576      -0.05208782      -0.33639289       0.42066506       0.25557988
H        3.97725417       5.30247166      18.67570156        0       0.00000000      -0.02621450       0.09371396       0.04525869       0.21904811       0.08155762       0.19050783
O        6.34221125       2.47470246      18.27241517        0       0.00000000      -0.02178605       0.02124594       0.00540581       0.11702490      -0.06619015      -0.09772826
O        3.42002335       6.06544086      18.30841522        0       0.50000000       0.14165678       0.28173475       0.20301607       0.05587448      -0.01315066       0.10639891
H        2.51820911       6.04547951      18.66798572        0       0.50000000      -0.05274299      -0.05304012      -0.03362262      -0.06245520      -0.06752219       0.08383110
42
Lattice="7.700392847121503 0.0 0.0 0.0 8.891647766302935 0.0 0.0 0.0 26.3637743517507" Properties=species:S:1:pos:R:3:tags:I:1:initial_magmoms:R:1:MACE_forces:R:3:DFT_forces:R:3 _ConfigSet_loc=" / 28" MACE_energy=-173.39420231638675 DFT_energy=-174.98385845 pbc="T T T"
Cu       1.28339881       0.74097065      12.12125812        3       0.00000000       0.00000000       0.00000000       0.00000000       0.03202252      -0.03236034       0.32411548
Cu       3.85019642       0.74097065      12.12125812        3       0.00000000       0.00000000       0.00000000       0.00000000      -0.02766268       0.01164996       0.30994015
Cu       6.41699404       0.74097065      12.12125812        3       0.00000000       0.00000000       0.00000000       0.00000000      -0.00237442      -0.03154951       0.28392670
Cu       0.00000000       2.96388259      12.12125812        3       0.00000000       0.00000000       0.00000000       0.00000000       0.03459344       0.01895960       0.26293345
Cu       2.56679762       2.96388259      12.12125812        3       0.00000000       0.00000000       0.00000000       0.00000000       0.00459799      -0.01553115       0.28480662
Cu       5.13359523       2.96388259      12.12125812        3       0.00000000       0.00000000       0.00000000       0.00000000      -0.03562259      -0.02847305       0.25579645
Cu       1.28339881       5.18679453      12.12125812        3       0.00000000       0.00000000       0.00000000       0.00000000      -0.02292500      -0.02023343       0.26982065
Cu       3.85019642       5.18679453      12.12125812        3       0.00000000       0.00000000       0.00000000       0.00000000      -0.00822357      -0.02832451       0.28544598
Cu       6.41699404       5.18679453      12.12125812        3       0.00000000       0.00000000       0.00000000       0.00000000       0.02802244       0.01812418       0.29733227
Cu       0.00000000       7.40970647      12.12125812        3       0.00000000       0.00000000       0.00000000       0.00000000       0.00799100      -0.01177361       0.31394555
Cu       2.56679762       7.40970647      12.12125812        3       0.00000000       0.00000000       0.00000000       0.00000000      -0.02907583       0.03051059       0.28297306
Cu       5.13359523       7.40970647      12.12125812        3       0.00000000       0.00000000       0.00000000       0.00000000       0.02451506       0.00603492       0.30864343
Cu       0.00000000       1.48194129      14.24251623        2       0.00000000       0.00000000       0.00000000       0.00000000      -0.06929914       0.03606756      -0.24413519
Cu       2.56679762       1.48194129      14.24251623        2       0.00000000       0.00000000       0.00000000       0.00000000       0.06655905      -0.00236779      -0.35142210
Cu       5.13359523       1.48194129      14.24251623        2       0.00000000       0.00000000       0.00000000       0.00000000       0.08549577       0.04570133      -0.22038504
Cu       1.28339881       3.70485324      14.24251623        2       0.00000000       0.00000000       0.00000000       0.00000000      -0.04097348      -0.05081047      -0.35127060
Cu       3.85019642       3.70485324      14.24251623        2       0.00000000       0.00000000       0.00000000       0.00000000       0.08991174       0.03577432      -0.28806696
Cu       6.41699404       3.70485324      14.24251623        2       0.00000000       0.00000000       0.00000000       0.00000000       0.01656896      -0.11845644      -0.27984578
Cu       0.00000000       5.92776518      14.24251623        2       0.00000000       0.00000000       0.00000000       0.00000000      -0.03956829      -0.04420816      -0.42063251
Cu       2.56679762       5.92776518      14.24251623        2       0.00000000       0.00000000       0.00000000       0.00000000       0.15017626       0.04762856      -0.17545898
Cu       5.13359523       5.92776518      14.24251623        2       0.00000000       0.00000000       0.00000000       0.00000000      -0.17435694      -0.09031930       0.00073474
Cu       1.28339881       8.15067712      14.24251623        2       0.00000000       0.00000000       0.00000000       0.00000000       0.03749521      -0.03783129      -0.37964857
Cu       3.85019642       8.15067712      14.24251623        2       0.00000000       0.00000000       0.00000000       0.00000000      -0.04180516      -0.21871249      -0.14643653
Cu       6.41699404       8.15067712      14.24251623        2       0.00000000       0.00000000       0.00000000       0.00000000       0.03156004      -0.02088899      -0.32981003
Cu       7.71898692       8.84604633      16.26960553        1       0.00000000       0.00453985      -0.01117430       0.12953824      -0.00604101      -0.02396755      -0.01341807
Cu       2.57104647       8.88020294      16.26427180        1       0.00000000      -0.00422742       0.00175180       0.12342455      -0.00698846       0.03309732       0.01458615
Cu       5.12480121       8.84480442      16.25689882        1       0.00000000       0.00237152      -0.00627388       0.11887148       0.02630804      -0.00506130      -0.00209741
Cu       1.31783185       2.19821397      16.26594763        1       0.00000000      -0.00137940      -0.01425191       0.12523106       0.03586500       0.01069867      -0.00546940
Cu       3.85372186       2.20295686      16.28236913        1       0.00000000      -0.00484884      -0.00765924       0.12814697      -0.10433871      -0.03320075      -0.07501820
Cu       6.47247824       2.13265653      16.31420949        1       0.00000000      -0.01653408       0.02114665       0.17025308       0.09984703      -0.13345517      -0.44247555
Cu       0.02598292       4.45156180      16.26537281        1       0.00000000      -0.00294667      -0.00667083       0.11961659       0.05294435       0.06031772      -0.00253787
Cu       2.56020774       4.40420239      16.25165662        1       0.00000000      -0.01795887      -0.01151862       0.10658582      -0.03529294      -0.00640303      -0.08227636
Cu       5.18730830       4.35251539      16.32549566        1       0.00000000      -0.00886154      -0.00485504       0.14899953      -0.05297013       0.04301989       0.00724825
Cu       1.25806780       6.65925943      16.25414435        1       0.00000000       0.00249212      -0.00429808       0.12986086      -0.02165858       0.01279744      -0.05123581
Cu       3.84008786       6.62360015      16.41325863        1       0.00000000      -0.01368130       0.00103455       0.13904025       0.00494172       0.08581791      -0.34623561
Cu       6.41110840       6.64750542      16.26649062        1       0.00000000       0.01234097       0.00861337       0.11845037       0.06822254       0.00573245      -0.00827499
O        5.03406474       4.16270214      19.04878646        0       0.00000000      -0.04736723       0.02621121       0.03324314      -0.10135602       0.09685930       0.22449473
C        5.57832613       3.46803359      18.18788820        0       0.00000000      -0.04520781       0.02471168      -0.05343993      -0.39354130       0.46503909       0.27703537
H        4.05047151       5.45438163      18.70862818        0       0.00000000       0.02607702       0.09610832       0.02140736       0.09713837      -0.05395898       0.14416078
O        6.34506261       2.45482189      18.28088123        0       0.00000000      -0.05314324       0.04540810       0.01509226       0.16306836      -0.08828703      -0.07811211
O        3.52014247       6.26788307      18.43624695        0       0.50000000       0.03914469       0.13180153       0.09789728       0.04544332       0.02022403       0.07080218
H        2.57884007       6.04841940      18.57510844        0       0.50000000       0.02063631       0.02517795      -0.01398393       0.01078603       0.01211948       0.07552170
42
Lattice="7.700392847121503 0.0 0.0 0.0 8.891647766302935 0.0 0.0 0.0 26.3637743517507" Properties=species:S:1:pos:R:3:tags:I:1:initial_magmoms:R:1:MACE_forces:R:3:DFT_forces:R:3 _ConfigSet_loc=" / 29" MACE_energy=-173.31845062334907 DFT_energy=-174.88433175 pbc="T T T"
Cu       1.28339881       0.74097065      12.12125812        3       0.00000000       0.00000000       0.00000000       0.00000000       0.02336975      -0.02211544       0.30964010
Cu       3.85019642       0.74097065      12.12125812        3       0.00000000       0.00000000       0.00000000       0.00000000      -0.01841916       0.00808973       0.30597120
Cu       6.41699404       0.74097065      12.12125812        3       0.00000000       0.00000000       0.00000000       0.00000000      -0.00424099      -0.02033889       0.29343211
Cu       0.00000000       2.96388259      12.12125812        3       0.00000000       0.00000000       0.00000000       0.00000000       0.02146392       0.00710216       0.28534319
Cu       2.56679762       2.96388259      12.12125812        3       0.00000000       0.00000000       0.00000000       0.00000000       0.00969504      -0.01901306       0.28351984
Cu       5.13359523       2.96388259      12.12125812        3       0.00000000       0.00000000       0.00000000       0.00000000      -0.03101700      -0.02142136       0.27713611
Cu       1.28339881       5.18679453      12.12125812        3       0.00000000       0.00000000       0.00000000       0.00000000      -0.02136977      -0.00686117       0.26595224
Cu       3.85019642       5.18679453      12.12125812        3       0.00000000       0.00000000       0.00000000       0.00000000      -0.00315665      -0.02257568       0.29232244
Cu       6.41699404       5.18679453      12.12125812        3       0.00000000       0.00000000       0.00000000       0.00000000       0.01996280       0.01169807       0.30967968
Cu       0.00000000       7.40970647      12.12125812        3       0.00000000       0.00000000       0.00000000       0.00000000       0.00575145      -0.01236187       0.30013496
Cu       2.56679762       7.40970647      12.12125812        3       0.00000000       0.00000000       0.00000000       0.00000000      -0.01704042       0.02277187       0.27686069
Cu       5.13359523       7.40970647      12.12125812        3       0.00000000       0.00000000       0.00000000       0.00000000       0.01548094       0.00100707       0.30558575
Cu       0.00000000       1.48194129      14.24251623        2       0.00000000       0.00000000       0.00000000       0.00000000      -0.11914513       0.06498351      -0.14879999
Cu       2.56679762       1.48194129      14.24251623        2       0.00000000       0.00000000       0.00000000       0.00000000       0.04091221       0.00684982      -0.35313383
Cu       5.13359523       1.48194129      14.24251623        2       0.00000000       0.00000000       0.00000000       0.00000000       0.10953885       0.05225644      -0.16401839
Cu       1.28339881       3.70485324      14.24251623        2       0.00000000       0.00000000       0.00000000       0.00000000      -0.05834210      -0.03668471      -0.36123012
Cu       3.85019642       3.70485324      14.24251623        2       0.00000000       0.00000000       0.00000000       0.00000000       0.09487228       0.03572700      -0.23490311
Cu       6.41699404       3.70485324      14.24251623        2       0.00000000       0.00000000       0.00000000       0.00000000      -0.01427289      -0.12340527      -0.15334097
Cu       0.00000000       5.92776518      14.24251623        2       0.00000000       0.00000000       0.00000000       0.00000000      -0.03316731      -0.02914213      -0.40910060
Cu       2.56679762       5.92776518      14.24251623        2       0.00000000       0.00000000       0.00000000       0.00000000       0.14859012       0.05401946      -0.14166088
Cu       5.13359523       5.92776518      14.24251623        2       0.00000000       0.00000000       0.00000000       0.00000000      -0.17473398      -0.07242693       0.03023017
Cu       1.28339881       8.15067712      14.24251623        2       0.00000000       0.00000000       0.00000000       0.00000000       0.02319922      -0.03298965      -0.36464615
Cu       3.85019642       8.15067712      14.24251623        2       0.00000000       0.00000000       0.00000000       0.00000000      -0.04417211      -0.20570682      -0.13541546
Cu       6.41699404       8.15067712      14.24251623        2       0.00000000       0.00000000       0.00000000       0.00000000       0.02182246      -0.01360863      -0.33371278
Cu       7.70325707       8.86988913      16.26689024        1       0.00000000       0.01357842      -0.02784039       0.12898969      -0.00494516      -0.02203514      -0.01615989
Cu       2.56394350       8.88387412      16.26478493        1       0.00000000      -0.00824583       0.00951284       0.11760341      -0.01571940       0.01669532       0.02127644
Cu       5.12328881       8.86057929      16.25853503        1       0.00000000       0.00549553      -0.00372442       0.11543707       0.02509329       0.00581114      -0.00007601
Cu       1.29895488       2.20483794      16.26538933        1       0.00000000       0.01632820      -0.00639701       0.12476691       0.06151133       0.02691648      -0.00567432
Cu       3.85038481       2.20245249      16.28385357        1       0.00000000      -0.01275650      -0.01229892       0.12322532      -0.11684607      -0.01064827      -0.07458545
Cu       6.43361199       2.19073733      16.37419469        1       0.00000000       0.03823346      -0.06557739       0.12443727       0.05540662      -0.10529162      -0.50454184
Cu       0.00900135       4.45181049      16.27206014        1       0.00000000       0.01729244      -0.00922916       0.12206695       0.09585159       0.06517362      -0.00039623
Cu       2.55468483       4.40682148      16.24917088        1       0.00000000      -0.00599977      -0.00039962       0.10661782      -0.03538503       0.00922107      -0.05746808
Cu       5.17784702       4.36514930      16.35373892        1       0.00000000       0.02303866      -0.04857029       0.13079314      -0.02658079       0.02509838      -0.15483142
Cu       1.25572574       6.66331755      16.25759770        1       0.00000000      -0.00302338      -0.00243493       0.11851053      -0.02873319       0.01756524      -0.05244715
Cu       3.84571755       6.63259498      16.42425964        1       0.00000000      -0.00447590      -0.01547155       0.07870450       0.01619565       0.06039038      -0.43286557
Cu       6.40688698       6.65524058      16.26616780        1       0.00000000       0.02309304      -0.00079550       0.11359967       0.07588884       0.00675007       0.00609350
O        5.09655124       4.10728790      19.05938001        0       0.00000000      -0.03480824       0.04327198      -0.02672615       0.04773749      -0.06809011       0.12575882
C        5.70920282       3.29694623      18.38390429        0       0.00000000      -0.08782045       0.11213337      -0.13230868      -0.45226943       0.57865276       0.27238851
H        4.05218281       5.48758477      18.73259583        0       0.00000000       0.02262444       0.05401034       0.01261966       0.06507469      -0.09693891       0.17595320
O        6.44803059       2.30293895      18.49428937        0       0.00000000      -0.09145588       0.09262469      -0.16980015       0.22761359      -0.23853540      -0.17393701
O        3.54290598       6.30528940      18.47900949        0       0.50000000       0.01919298       0.06738614       0.06024541      -0.04821978       0.10683864       0.03746093
H        2.59418545       6.07336518      18.54705569        0       0.50000000       0.07014921       0.01591227       0.05228431       0.06274422      -0.00342719       0.09820536
42
Lattice="7.700392847121503 0.0 0.0 0.0 8.891647766302935 0.0 0.0 0.0 26.3637743517507" Properties=species:S:1:pos:R:3:tags:I:1:initial_magmoms:R:1:MACE_forces:R:3:DFT_forces:R:3 _ConfigSet_loc=" / 30" MACE_energy=-173.24205182874502 DFT_energy=-174.91111379 pbc="T T T"
Cu       1.28339881       0.74097065      12.12125812        3       0.00000000       0.00000000       0.00000000       0.00000000       0.01914661      -0.01994392       0.29948968
Cu       3.85019642       0.74097065      12.12125812        3       0.00000000       0.00000000       0.00000000       0.00000000      -0.01126185       0.00462422       0.29930400
Cu       6.41699404       0.74097065      12.12125812        3       0.00000000       0.00000000       0.00000000       0.00000000      -0.00583618      -0.01601452       0.30155882
Cu       0.00000000       2.96388259      12.12125812        3       0.00000000       0.00000000       0.00000000       0.00000000       0.01039302       0.00322713       0.29677623
Cu       2.56679762       2.96388259      12.12125812        3       0.00000000       0.00000000       0.00000000       0.00000000       0.00894754      -0.01850666       0.28029797
Cu       5.13359523       2.96388259      12.12125812        3       0.00000000       0.00000000       0.00000000       0.00000000      -0.01938369      -0.01749794       0.28000747
Cu       1.28339881       5.18679453      12.12125812        3       0.00000000       0.00000000       0.00000000       0.00000000      -0.01738598      -0.00346710       0.26752089
Cu       3.85019642       5.18679453      12.12125812        3       0.00000000       0.00000000       0.00000000       0.00000000       0.00200015      -0.01553872       0.29436576
Cu       6.41699404       5.18679453      12.12125812        3       0.00000000       0.00000000       0.00000000       0.00000000       0.01352538       0.00800476       0.30238861
Cu       0.00000000       7.40970647      12.12125812        3       0.00000000       0.00000000       0.00000000       0.00000000       0.00214586      -0.00868522       0.28660534
Cu       2.56679762       7.40970647      12.12125812        3       0.00000000       0.00000000       0.00000000       0.00000000      -0.01339862       0.01802261       0.27636064
Cu       5.13359523       7.40970647      12.12125812        3       0.00000000       0.00000000       0.00000000       0.00000000       0.01592210      -0.00178529       0.29720454
Cu       0.00000000       1.48194129      14.24251623        2       0.00000000       0.00000000       0.00000000       0.00000000      -0.10509766       0.05786872      -0.16025915
Cu       2.56679762       1.48194129      14.24251623        2       0.00000000       0.00000000       0.00000000       0.00000000       0.02296749       0.00210545      -0.37309525
Cu       5.13359523       1.48194129      14.24251623        2       0.00000000       0.00000000       0.00000000       0.00000000       0.10454678       0.04424419      -0.18114916
Cu       1.28339881       3.70485324      14.24251623        2       0.00000000       0.00000000       0.00000000       0.00000000      -0.05681832      -0.03983296      -0.40030819
Cu       3.85019642       3.70485324      14.24251623        2       0.00000000       0.00000000       0.00000000       0.00000000       0.06121346       0.01374827      -0.29694967
Cu       6.41699404       3.70485324      14.24251623        2       0.00000000       0.00000000       0.00000000       0.00000000       0.01616759      -0.12729327      -0.20256212
Cu       0.00000000       5.92776518      14.24251623        2       0.00000000       0.00000000       0.00000000       0.00000000      -0.02711509      -0.01235993      -0.41930217
Cu       2.56679762       5.92776518      14.24251623        2       0.00000000       0.00000000       0.00000000       0.00000000       0.13151061       0.06159252      -0.14936046
Cu       5.13359523       5.92776518      14.24251623        2       0.00000000       0.00000000       0.00000000       0.00000000      -0.16723257       0.00345165      -0.04546952
Cu       1.28339881       8.15067712      14.24251623        2       0.00000000       0.00000000       0.00000000       0.00000000       0.02121553      -0.02293235      -0.36179629
Cu       3.85019642       8.15067712      14.24251623        2       0.00000000       0.00000000       0.00000000       0.00000000      -0.04046408      -0.20258015      -0.13647965
Cu       6.41699404       8.15067712      14.24251623        2       0.00000000       0.00000000       0.00000000       0.00000000       0.01553597      -0.00747396      -0.33265711
Cu       7.70226041       8.87710305      16.26724556        1       0.00000000       0.00325421      -0.01708552       0.12651602      -0.01127681      -0.01421026      -0.01391555
Cu       2.56352097       8.89078561      16.26574253        1       0.00000000      -0.00951457      -0.00052242       0.12328495      -0.02759837      -0.00311584       0.02596720
Cu       5.12294312       8.86766626      16.25877032        1       0.00000000       0.00424297      -0.00262155       0.12171004       0.02976268       0.02232324       0.01086522
Cu       1.29578418       2.21016776      16.26612176        1       0.00000000       0.00583783      -0.01100607       0.12366128       0.02929217       0.02420995       0.00472923
Cu       3.85004884       2.20671126      16.27859119        1       0.00000000      -0.01258360      -0.01502906       0.12456599      -0.06607004       0.02033186      -0.03881697
Cu       6.42444491       2.20898925      16.36983142        1       0.00000000      -0.00035096      -0.01335230       0.20743930       0.02570119      -0.07059505      -0.65149484
Cu       0.01043798       4.45657240      16.26784716        1       0.00000000      -0.00007962      -0.01080894       0.12326006       0.03784439       0.02367561       0.04649278
Cu       2.55332198       4.40588930      16.24581961        1       0.00000000      -0.00993111       0.00702973       0.12338953      -0.02382399       0.01897581      -0.02288690
Cu       5.16427647       4.39834349      16.30310660        1       0.00000000       0.01544288      -0.04514322       0.17362101      -0.04097728       0.03627832      -0.22826800
Cu       1.25501263       6.66837824      16.25919651        1       0.00000000      -0.00892868      -0.00320493       0.11964631      -0.02646121       0.01185796      -0.05405324
Cu       3.83623822       6.63643200      16.41792740        1       0.00000000       0.01504253       0.01504418       0.10933219       0.04452748       0.09089656      -0.42409311
Cu       6.40761499       6.66199085      16.26737939        1       0.00000000       0.01405276       0.00131786       0.11648374       0.05561150       0.00130221       0.01940537
O        5.10930358       4.09733182      19.11766328        0       0.00000000      -0.01753979       0.00030278      -0.04491356       0.07402252      -0.11171827       0.11430966
C        5.75004692       3.24247501      18.57006437        0       0.00000000      -0.03038946       0.01795623      -0.13525246      -0.29733949       0.38899041       0.47106939
H        4.01569357       5.45375326      18.71445301        0       0.00000000       0.02808107       0.10655260       0.08531649       0.06694206      -0.09964516       0.19151581
O        6.47733869       2.27143556      18.57496403        0       0.00000000      -0.02904076       0.00344830      -0.06587972       0.20509191      -0.25185035       0.01406113
O        3.52976700       6.28875958      18.49412682        0       0.50000000       0.00483885       0.06525480       0.00232490      -0.07800125       0.20344386       0.05593378
H        2.57736713       6.06883278      18.55025250        0       0.50000000       0.04455274       0.04193991       0.03560585       0.02150848       0.00587164       0.05668782
42
Lattice="7.700392847121503 0.0 0.0 0.0 8.891647766302935 0.0 0.0 0.0 26.3637743517507" Properties=species:S:1:pos:R:3:tags:I:1:initial_magmoms:R:1:MACE_forces:R:3:DFT_forces:R:3 _ConfigSet_loc=" / 31" MACE_energy=-173.2305409135652 DFT_energy=-175.02039085 pbc="T T T"
Cu       1.28339881       0.74097065      12.12125812        3       0.00000000       0.00000000       0.00000000       0.00000000       0.01534899      -0.01680960       0.29535855
Cu       3.85019642       0.74097065      12.12125812        3       0.00000000       0.00000000       0.00000000       0.00000000      -0.00531720       0.00473166       0.29553140
Cu       6.41699404       0.74097065      12.12125812        3       0.00000000       0.00000000       0.00000000       0.00000000      -0.00918810      -0.01339924       0.30575382
Cu       0.00000000       2.96388259      12.12125812        3       0.00000000       0.00000000       0.00000000       0.00000000       0.00192999       0.00345140       0.30044326
Cu       2.56679762       2.96388259      12.12125812        3       0.00000000       0.00000000       0.00000000       0.00000000       0.00938978      -0.01708119       0.27535864
Cu       5.13359523       2.96388259      12.12125812        3       0.00000000       0.00000000       0.00000000       0.00000000      -0.01332331      -0.01461718       0.27934145
Cu       1.28339881       5.18679453      12.12125812        3       0.00000000       0.00000000       0.00000000       0.00000000      -0.01556518      -0.00106706       0.27186000
Cu       3.85019642       5.18679453      12.12125812        3       0.00000000       0.00000000       0.00000000       0.00000000       0.00358863      -0.01195649       0.29533524
Cu       6.41699404       5.18679453      12.12125812        3       0.00000000       0.00000000       0.00000000       0.00000000       0.00900669       0.00451094       0.29432855
Cu       0.00000000       7.40970647      12.12125812        3       0.00000000       0.00000000       0.00000000       0.00000000      -0.00187514      -0.00742154       0.28008731
Cu       2.56679762       7.40970647      12.12125812        3       0.00000000       0.00000000       0.00000000       0.00000000      -0.01308268       0.01198850       0.28030339
Cu       5.13359523       7.40970647      12.12125812        3       0.00000000       0.00000000       0.00000000       0.00000000       0.01677081      -0.00289862       0.28993557
Cu       0.00000000       1.48194129      14.24251623        2       0.00000000       0.00000000       0.00000000       0.00000000      -0.07905532       0.04110459      -0.20111144
Cu       2.56679762       1.48194129      14.24251623        2       0.00000000       0.00000000       0.00000000       0.00000000       0.00628489      -0.00684844      -0.38808166
Cu       5.13359523       1.48194129      14.24251623        2       0.00000000       0.00000000       0.00000000       0.00000000       0.08768927       0.03293009      -0.21875287
Cu       1.28339881       3.70485324      14.24251623        2       0.00000000       0.00000000       0.00000000       0.00000000      -0.05077323      -0.04301038      -0.41692832
Cu       3.85019642       3.70485324      14.24251623        2       0.00000000       0.00000000       0.00000000       0.00000000       0.02271027      -0.00560428      -0.34386284
Cu       6.41699404       3.70485324      14.24251623        2       0.00000000       0.00000000       0.00000000       0.00000000       0.04188238      -0.12277936      -0.27159022
Cu       0.00000000       5.92776518      14.24251623        2       0.00000000       0.00000000       0.00000000       0.00000000      -0.02372886      -0.00796978      -0.42555490
Cu       2.56679762       5.92776518      14.24251623        2       0.00000000       0.00000000       0.00000000       0.00000000       0.12094129       0.06515212      -0.15449423
Cu       5.13359523       5.92776518      14.24251623        2       0.00000000       0.00000000       0.00000000       0.00000000      -0.15822849       0.06350124      -0.11440541
Cu       1.28339881       8.15067712      14.24251623        2       0.00000000       0.00000000       0.00000000       0.00000000       0.01866907      -0.01803156      -0.36163036
Cu       3.85019642       8.15067712      14.24251623        2       0.00000000       0.00000000       0.00000000       0.00000000      -0.03415599      -0.19851790      -0.13914322
Cu       6.41699404       8.15067712      14.24251623        2       0.00000000       0.00000000       0.00000000       0.00000000       0.00978553      -0.00689406      -0.33235988
Cu       7.70177213       8.87803065      16.26753985        1       0.00000000       0.00069574      -0.00947655       0.12670096      -0.01022643      -0.00357021       0.00182763
Cu       2.56226409       8.89208134      16.26661065        1       0.00000000      -0.00990898       0.00438446       0.12339479      -0.03194408      -0.00386102       0.02698967
Cu       5.12410991       8.87183945      16.26005215        1       0.00000000       0.00434035       0.00389483       0.12110011       0.03365428       0.04227177       0.01725402
Cu       1.29276614       2.21076782      16.26737120        1       0.00000000       0.00013843      -0.00747007       0.12448370       0.00589782       0.02847362       0.01998223
Cu       3.84775747       2.20627957      16.27304336        1       0.00000000      -0.01612087      -0.01300356       0.11773369      -0.02468059       0.04110091      -0.00857623
Cu       6.42127832       2.21136388      16.34822649        1       0.00000000      -0.00456558      -0.00598259       0.15833845       0.02170134      -0.05408282      -0.64555778
Cu       0.00887451       4.45502125      16.26525967        1       0.00000000      -0.00054238      -0.00750591       0.11860552       0.01138525      -0.00098403       0.07482786
Cu       2.55191972       4.40600636      16.24757725        1       0.00000000      -0.01260682       0.00356957       0.12054136      -0.01143424       0.01546491      -0.01413919
Cu       5.15466303       4.41474087      16.26440276        1       0.00000000      -0.00459704      -0.00465500       0.11023795      -0.04297736       0.03528282      -0.17846195
Cu       1.25429688       6.66787193      16.25972798        1       0.00000000      -0.00791204      -0.00171346       0.12238584      -0.02088677       0.01069915      -0.05259233
Cu       3.83693415       6.64293596      16.41072862        1       0.00000000       0.00766796       0.01551981       0.10750058       0.04410794       0.08664977      -0.43962142
Cu       6.40928140       6.66320695      16.26881328        1       0.00000000       0.01484353       0.00542905       0.11785836       0.04831159      -0.00016594       0.02235039
O        5.11545092       4.09002762      19.17388642        0       0.00000000      -0.00266647      -0.02329462       0.00330109      -0.00140240      -0.00138148       0.05764614
C        5.77773664       3.20546832      18.74407699        0       0.00000000       0.00888691      -0.04082979       0.09277899      -0.06879224       0.09472125       0.34676935
H        4.00876074       5.46562599      18.71782412        0       0.00000000       0.00932494       0.11853913       0.08226314       0.07063082      -0.06465276       0.26622465
O        6.48997216       2.25618093      18.65421097        0       0.00000000       0.00553727      -0.03955455       0.05912673       0.12176692      -0.17097427       0.35998775
O        3.53028208       6.29900488      18.49354037        0       0.50000000       0.01476006       0.07493779       0.03489671      -0.09069734       0.20424427       0.02120402
H        2.57749111       6.08054349      18.54707455        0       0.50000000       0.01898634       0.05095268       0.02841046      -0.01411859       0.00830018       0.02816338
42
Lattice="7.700392847121503 0.0 0.0 0.0 8.891647766302935 0.0 0.0 0.0 26.3637743517507" Properties=species:S:1:pos:R:3:tags:I:1:initial_magmoms:R:1:MACE_forces:R:3:DFT_forces:R:3 _ConfigSet_loc=" / 32" MACE_energy=-173.2601928059687 DFT_energy=-175.13244922 pbc="T T T"
Cu       1.28339881       0.74097065      12.12125812        3       0.00000000       0.00000000       0.00000000       0.00000000       0.01292486      -0.01462958       0.29577939
Cu       3.85019642       0.74097065      12.12125812        3       0.00000000       0.00000000       0.00000000       0.00000000      -0.00209568       0.00561811       0.29374373
Cu       6.41699404       0.74097065      12.12125812        3       0.00000000       0.00000000       0.00000000       0.00000000      -0.00973070      -0.01266967       0.30677834
Cu       0.00000000       2.96388259      12.12125812        3       0.00000000       0.00000000       0.00000000       0.00000000      -0.00121555       0.00396073       0.29982905
Cu       2.56679762       2.96388259      12.12125812        3       0.00000000       0.00000000       0.00000000       0.00000000       0.01040724      -0.01668970       0.27292413
Cu       5.13359523       2.96388259      12.12125812        3       0.00000000       0.00000000       0.00000000       0.00000000      -0.01098917      -0.01465816       0.27796741
Cu       1.28339881       5.18679453      12.12125812        3       0.00000000       0.00000000       0.00000000       0.00000000      -0.01428537      -0.00058071       0.27560809
Cu       3.85019642       5.18679453      12.12125812        3       0.00000000       0.00000000       0.00000000       0.00000000       0.00345857      -0.01101681       0.29723432
Cu       6.41699404       5.18679453      12.12125812        3       0.00000000       0.00000000       0.00000000       0.00000000       0.00834903       0.00271466       0.29056994
Cu       0.00000000       7.40970647      12.12125812        3       0.00000000       0.00000000       0.00000000       0.00000000      -0.00292632      -0.00720210       0.28035588
Cu       2.56679762       7.40970647      12.12125812        3       0.00000000       0.00000000       0.00000000       0.00000000      -0.01284481       0.00764592       0.28554783
Cu       5.13359523       7.40970647      12.12125812        3       0.00000000       0.00000000       0.00000000       0.00000000       0.01721680      -0.00241390       0.28887720
Cu       0.00000000       1.48194129      14.24251623        2       0.00000000       0.00000000       0.00000000       0.00000000      -0.05299026       0.02552036      -0.24107186
Cu       2.56679762       1.48194129      14.24251623        2       0.00000000       0.00000000       0.00000000       0.00000000      -0.00082844      -0.00747315      -0.38695807
Cu       5.13359523       1.48194129      14.24251623        2       0.00000000       0.00000000       0.00000000       0.00000000       0.06717621       0.02145197      -0.25341797
Cu       1.28339881       3.70485324      14.24251623        2       0.00000000       0.00000000       0.00000000       0.00000000      -0.04933826      -0.04516279      -0.42031851
Cu       3.85019642       3.70485324      14.24251623        2       0.00000000       0.00000000       0.00000000       0.00000000       0.00488954      -0.01503318      -0.36502985
Cu       6.41699404       3.70485324      14.24251623        2       0.00000000       0.00000000       0.00000000       0.00000000       0.05440558      -0.10787624      -0.31949567
Cu       0.00000000       5.92776518      14.24251623        2       0.00000000       0.00000000       0.00000000       0.00000000      -0.02270624      -0.00940341      -0.42102987
Cu       2.56679762       5.92776518      14.24251623        2       0.00000000       0.00000000       0.00000000       0.00000000       0.11581842       0.06650058      -0.15639378
Cu       5.13359523       5.92776518      14.24251623        2       0.00000000       0.00000000       0.00000000       0.00000000      -0.15107177       0.09083089      -0.14557362
Cu       1.28339881       8.15067712      14.24251623        2       0.00000000       0.00000000       0.00000000       0.00000000       0.01559291      -0.01451532      -0.35678145
Cu       3.85019642       8.15067712      14.24251623        2       0.00000000       0.00000000       0.00000000       0.00000000      -0.02815808      -0.19631612      -0.13440595
Cu       6.41699404       8.15067712      14.24251623        2       0.00000000       0.00000000       0.00000000       0.00000000       0.00754247      -0.00618702      -0.32814729
Cu       7.70147633       8.87944978      16.26898289        1       0.00000000      -0.00005541      -0.00815820       0.12720936      -0.00969640       0.00043793       0.01023865
Cu       2.56172654       8.89366630      16.26711384        1       0.00000000      -0.00889793       0.00242781       0.12614976      -0.03158667      -0.00792873       0.02615596
Cu       5.12534868       8.87511903      16.26195504        1       0.00000000       0.00331946       0.00398543       0.12440231       0.03420811       0.04807525       0.02008541
Cu       1.29017488       2.21140293      16.26971373        1       0.00000000      -0.00139132      -0.00786267       0.12631539      -0.00228165       0.02777611       0.02530942
Cu       3.84792489       2.20675305      16.27148675        1       0.00000000      -0.01654960      -0.01294292       0.11577484      -0.00442204       0.04750289       0.00572232
Cu       6.42161360       2.21045796      16.32502598        1       0.00000000      -0.00283260      -0.01009744       0.11482203       0.01200634      -0.03258113      -0.50306519
Cu       0.00753569       4.45327674      16.26559237        1       0.00000000      -0.00289557      -0.00810340       0.11876859      -0.00056620      -0.01008502       0.08516723
Cu       2.55095352       4.40520962      16.24840285        1       0.00000000      -0.01254972       0.00622853       0.12549911      -0.00446776       0.01875379      -0.00654970
Cu       5.15089921       4.42164560      16.24790252        1       0.00000000      -0.00690760      -0.00071666       0.10055170      -0.04081388       0.01754353      -0.12014781
Cu       1.25435035       6.66789378      16.26030810        1       0.00000000      -0.00743158      -0.00214898       0.12425957      -0.01849675       0.00692190      -0.05264911
Cu       3.83617038       6.64533689      16.40723804        1       0.00000000       0.01258359       0.02082948       0.11366603       0.05188241       0.08642161      -0.43553623
Cu       6.41061384       6.66443280      16.27003383        1       0.00000000       0.01213520       0.00560185       0.11954501       0.04062778      -0.00404274       0.01861907
O        5.11963067       4.08864525      19.24118769        0       0.00000000       0.01768489      -0.05582015       0.03425115      -0.06218494       0.08154691       0.05717394
C        5.79617476       3.18825238      18.89136164        0       0.00000000       0.06956922      -0.12134219       0.15034330      -0.05736312       0.08310053       0.23467388
H        4.01068000       5.46390562      18.71471673        0       0.00000000       0.02371277       0.10552720       0.10285389       0.03988628      -0.04882614       0.27101663
O        6.50128171       2.25101418      18.74626342        0       0.00000000      -0.06441898       0.06128936       0.16680001       0.18250597      -0.26911610       0.38885961
O        3.53804355       6.30047642      18.49682811        0       0.50000000      -0.01183706       0.07503187       0.02327056      -0.07769423       0.19458644       0.01890179
H        2.58438449       6.08236262      18.54500992        0       0.50000000       0.02616408       0.06129931       0.02842922      -0.01014421       0.01749762       0.01943275
42
Lattice="7.700392847121503 0.0 0.0 0.0 8.891647766302935 0.0 0.0 0.0 26.3637743517507" Properties=species:S:1:pos:R:3:tags:I:1:initial_magmoms:R:1:MACE_forces:R:3:DFT_forces:R:3 _ConfigSet_loc=" / 33" MACE_energy=-173.31206683326084 DFT_energy=-175.22153339 pbc="T T T"
Cu       1.28339881       0.74097065      12.12125812        3       0.00000000       0.00000000       0.00000000       0.00000000       0.01103821      -0.01330277       0.29763841
Cu       3.85019642       0.74097065      12.12125812        3       0.00000000       0.00000000       0.00000000       0.00000000      -0.00023979       0.00605305       0.29214022
Cu       6.41699404       0.74097065      12.12125812        3       0.00000000       0.00000000       0.00000000       0.00000000      -0.00996198      -0.01202167       0.30676043
Cu       0.00000000       2.96388259      12.12125812        3       0.00000000       0.00000000       0.00000000       0.00000000      -0.00216517       0.00414731       0.30033432
Cu       2.56679762       2.96388259      12.12125812        3       0.00000000       0.00000000       0.00000000       0.00000000       0.01155058      -0.01671664       0.27381720
Cu       5.13359523       2.96388259      12.12125812        3       0.00000000       0.00000000       0.00000000       0.00000000      -0.01106292      -0.01548146       0.27784358
Cu       1.28339881       5.18679453      12.12125812        3       0.00000000       0.00000000       0.00000000       0.00000000      -0.01368631      -0.00007087       0.27849069
Cu       3.85019642       5.18679453      12.12125812        3       0.00000000       0.00000000       0.00000000       0.00000000       0.00254550      -0.01100319       0.29902203
Cu       6.41699404       5.18679453      12.12125812        3       0.00000000       0.00000000       0.00000000       0.00000000       0.00897351       0.00198390       0.29041456
Cu       0.00000000       7.40970647      12.12125812        3       0.00000000       0.00000000       0.00000000       0.00000000      -0.00250412      -0.00786974       0.28299065
Cu       2.56679762       7.40970647      12.12125812        3       0.00000000       0.00000000       0.00000000       0.00000000      -0.01275466       0.00507260       0.28875940
Cu       5.13359523       7.40970647      12.12125812        3       0.00000000       0.00000000       0.00000000       0.00000000       0.01638347      -0.00169225       0.29008823
Cu       0.00000000       1.48194129      14.24251623        2       0.00000000       0.00000000       0.00000000       0.00000000      -0.03120156       0.01007180      -0.27120977
Cu       2.56679762       1.48194129      14.24251623        2       0.00000000       0.00000000       0.00000000       0.00000000      -0.00808115      -0.00406922      -0.37618451
Cu       5.13359523       1.48194129      14.24251623        2       0.00000000       0.00000000       0.00000000       0.00000000       0.04288049       0.01141384      -0.28252583
Cu       1.28339881       3.70485324      14.24251623        2       0.00000000       0.00000000       0.00000000       0.00000000      -0.04689299      -0.04554626      -0.40574146
Cu       3.85019642       3.70485324      14.24251623        2       0.00000000       0.00000000       0.00000000       0.00000000      -0.01155724      -0.01952842      -0.36442544
Cu       6.41699404       3.70485324      14.24251623        2       0.00000000       0.00000000       0.00000000       0.00000000       0.05828405      -0.08981882      -0.35225412
Cu       0.00000000       5.92776518      14.24251623        2       0.00000000       0.00000000       0.00000000       0.00000000      -0.02220064      -0.02117812      -0.41196015
Cu       2.56679762       5.92776518      14.24251623        2       0.00000000       0.00000000       0.00000000       0.00000000       0.11463624       0.06481824      -0.15540942
Cu       5.13359523       5.92776518      14.24251623        2       0.00000000       0.00000000       0.00000000       0.00000000      -0.14279817       0.09527030      -0.15807800
Cu       1.28339881       8.15067712      14.24251623        2       0.00000000       0.00000000       0.00000000       0.00000000       0.00984754      -0.01378459      -0.34820000
Cu       3.85019642       8.15067712      14.24251623        2       0.00000000       0.00000000       0.00000000       0.00000000      -0.02168490      -0.18812275      -0.12946890
Cu       6.41699404       8.15067712      14.24251623        2       0.00000000       0.00000000       0.00000000       0.00000000       0.00488191      -0.00547582      -0.31962810
Cu       7.69991779       8.87938560      16.27176234        1       0.00000000       0.00195151      -0.00397182       0.12934651      -0.00678098       0.00299059       0.00983315
Cu       2.55937173       8.89364705      16.26718336        1       0.00000000      -0.00512435       0.00683539       0.12423179      -0.02602344      -0.00785193       0.02249054
Cu       5.12749961       8.87990414      16.26507868        1       0.00000000       0.00165072       0.00023371       0.12137161       0.02926044       0.04219577       0.01201871
Cu       1.28542279       2.21081848      16.27376724        1       0.00000000      -0.00024568      -0.00417920       0.12755616      -0.00188751       0.03000854       0.01865056
Cu       3.84540185       2.20611823      16.27258008        1       0.00000000      -0.01073714      -0.00904147       0.11911436       0.00537118       0.05011872       0.01105808
Cu       6.41931885       2.20822449      16.30527213        1       0.00000000       0.00127953      -0.00569662       0.11542309       0.00677783      -0.00784103      -0.35706122
Cu       0.00304692       4.44674197      16.26930713        1       0.00000000       0.00319821      -0.00136004       0.11931490       0.00287266       0.00375088       0.07843102
Cu       2.54892725       4.40782800      16.25211902        1       0.00000000      -0.01014336      -0.00158876       0.11972645      -0.00289822       0.01107263      -0.01189969
Cu       5.14705552       4.42093743      16.24178496        1       0.00000000      -0.00091987       0.00218867       0.11479854      -0.02915873       0.01026297      -0.06944299
Cu       1.25441648       6.66496120      16.26018870        1       0.00000000      -0.00260010       0.00181098       0.12741829      -0.01356071       0.00905479      -0.04853370
Cu       3.84295871       6.64933177      16.40003183        1       0.00000000      -0.00331534       0.00600341       0.13104978       0.03437932       0.06833201      -0.42193285
Cu       6.41357013       6.66305736      16.27034175        1       0.00000000       0.01082419       0.00812631       0.11993475       0.03542423      -0.00119442       0.01296049
O        5.11840984       4.07881498      19.27690742        0       0.00000000      -0.03719700       0.02402070       0.06911701      -0.14300325       0.18817537       0.09438410
C        5.80881891       3.16577562      19.00406563        0       0.00000000       0.06492444      -0.10713581       0.15143957       0.01426654      -0.01298977       0.14473290
H        4.03656959       5.51098422      18.74745572        0       0.00000000       0.02170467       0.07171941       0.05437695       0.06031368      -0.04256684       0.31054464
O        6.51402201       2.23346226      18.86625042        0       0.00000000      -0.02895500       0.02202958       0.16503829       0.18540448      -0.25880347       0.29153814
O        3.55640463       6.33201486      18.49317411        0       0.50000000       0.01420438       0.06228684       0.07144295      -0.07932641       0.17282936      -0.02196014
H        2.60473806       6.10774715      18.54755843        0       0.50000000       0.02072911       0.04757953       0.03420537      -0.01566098       0.00930738       0.02097426
42
Lattice="7.700392847121503 0.0 0.0 0.0 8.891647766302935 0.0 0.0 0.0 26.3637743517507" Properties=species:S:1:pos:R:3:tags:I:1:initial_magmoms:R:1:MACE_forces:R:3:DFT_forces:R:3 _ConfigSet_loc=" / 34" MACE_energy=-173.34201821222422 DFT_energy=-175.26715753 pbc="T T T"
Cu       1.28339881       0.74097065      12.12125812        3       0.00000000       0.00000000       0.00000000       0.00000000       0.01043638      -0.01313357       0.29716537
Cu       3.85019642       0.74097065      12.12125812        3       0.00000000       0.00000000       0.00000000       0.00000000       0.00018396       0.00656652       0.29144444
Cu       6.41699404       0.74097065      12.12125812        3       0.00000000       0.00000000       0.00000000       0.00000000      -0.00944805      -0.01221262       0.30418721
Cu       0.00000000       2.96388259      12.12125812        3       0.00000000       0.00000000       0.00000000       0.00000000      -0.00238430       0.00461111       0.29954135
Cu       2.56679762       2.96388259      12.12125812        3       0.00000000       0.00000000       0.00000000       0.00000000       0.01200755      -0.01714414       0.27600938
Cu       5.13359523       2.96388259      12.12125812        3       0.00000000       0.00000000       0.00000000       0.00000000      -0.01085446      -0.01575802       0.27891857
Cu       1.28339881       5.18679453      12.12125812        3       0.00000000       0.00000000       0.00000000       0.00000000      -0.01296690       0.00148084       0.27874220
Cu       3.85019642       5.18679453      12.12125812        3       0.00000000       0.00000000       0.00000000       0.00000000       0.00201661      -0.00992149       0.29779584
Cu       6.41699404       5.18679453      12.12125812        3       0.00000000       0.00000000       0.00000000       0.00000000       0.00943006       0.00268487       0.28823416
Cu       0.00000000       7.40970647      12.12125812        3       0.00000000       0.00000000       0.00000000       0.00000000      -0.00193318      -0.00786365       0.28624011
Cu       2.56679762       7.40970647      12.12125812        3       0.00000000       0.00000000       0.00000000       0.00000000      -0.01291950       0.00394690       0.28992153
Cu       5.13359523       7.40970647      12.12125812        3       0.00000000       0.00000000       0.00000000       0.00000000       0.01634482      -0.00106186       0.29110210
Cu       0.00000000       1.48194129      14.24251623        2       0.00000000       0.00000000       0.00000000       0.00000000      -0.01654601       0.00326919      -0.28403964
Cu       2.56679762       1.48194129      14.24251623        2       0.00000000       0.00000000       0.00000000       0.00000000      -0.00499241      -0.00104058      -0.35965634
Cu       5.13359523       1.48194129      14.24251623        2       0.00000000       0.00000000       0.00000000       0.00000000       0.03161786       0.00411341      -0.29256288
Cu       1.28339881       3.70485324      14.24251623        2       0.00000000       0.00000000       0.00000000       0.00000000      -0.04699527      -0.04473402      -0.39854599
Cu       3.85019642       3.70485324      14.24251623        2       0.00000000       0.00000000       0.00000000       0.00000000      -0.00973949      -0.02046678      -0.35974531
Cu       6.41699404       3.70485324      14.24251623        2       0.00000000       0.00000000       0.00000000       0.00000000       0.06503378      -0.07675584      -0.36781328
Cu       0.00000000       5.92776518      14.24251623        2       0.00000000       0.00000000       0.00000000       0.00000000      -0.01769244      -0.02353762      -0.39899359
Cu       2.56679762       5.92776518      14.24251623        2       0.00000000       0.00000000       0.00000000       0.00000000       0.11420004       0.06309690      -0.14709977
Cu       5.13359523       5.92776518      14.24251623        2       0.00000000       0.00000000       0.00000000       0.00000000      -0.14026216       0.09783559      -0.15182740
Cu       1.28339881       8.15067712      14.24251623        2       0.00000000       0.00000000       0.00000000       0.00000000       0.00826258      -0.00973750      -0.33962720
Cu       3.85019642       8.15067712      14.24251623        2       0.00000000       0.00000000       0.00000000       0.00000000      -0.01651004      -0.19330881      -0.11418991
Cu       6.41699404       8.15067712      14.24251623        2       0.00000000       0.00000000       0.00000000       0.00000000       0.00782426      -0.00325042      -0.31362683
Cu       7.70193348       8.88191229      16.27462217        1       0.00000000      -0.00286300      -0.00444018       0.12805919      -0.00931526       0.00032802       0.00375063
Cu       2.56245515       8.89344977      16.26869607        1       0.00000000      -0.00850027       0.00513098       0.12672716      -0.03029084      -0.00463674       0.01735634
Cu       5.12961859       8.87998185      16.26739251        1       0.00000000       0.00230956       0.00658158       0.12601058       0.02841193       0.04746809       0.00829586
Cu       1.28599620       2.21116632      16.27684650        1       0.00000000      -0.00274011      -0.00750917       0.12753265      -0.00100566       0.02736507       0.01730027
Cu       3.84973945       2.20697084      16.27568221        1       0.00000000      -0.01293630      -0.01169593       0.11634791       0.00629539       0.04746309       0.01172489
Cu       6.42170219       2.20927211      16.29568307        1       0.00000000      -0.00237153      -0.00796085       0.11245847      -0.00123956       0.00176656      -0.26463136
Cu       0.00526990       4.44715231      16.27244426        1       0.00000000      -0.00345596      -0.00813960       0.12046490      -0.00387554      -0.00412062       0.07180382
Cu       2.55037490       4.40506248      16.25337766        1       0.00000000      -0.01272910       0.00472664       0.11680850      -0.00297203       0.01535238      -0.01719270
Cu       5.15094766       4.42087545      16.24144537        1       0.00000000      -0.00522181      -0.00370614       0.10338269      -0.02755204      -0.00544257      -0.05153936
Cu       1.25766127       6.66706178      16.26201669        1       0.00000000      -0.00726294      -0.00358120       0.12393499      -0.01882660      -0.00062850      -0.04641712
Cu       3.84046717       6.64729653      16.40412330        1       0.00000000       0.01457643       0.01336719       0.10234108       0.05323614       0.07868158      -0.45316919
Cu       6.41661130       6.66492445      16.27051419        1       0.00000000       0.00867967       0.00435667       0.11866803       0.03048184      -0.00937190       0.01026789
O        5.15029228       4.07947632      19.35754160        0       0.00000000      -0.00228759      -0.03052125       0.03689092      -0.14006145       0.17971132       0.09094397
C        5.84126222       3.15967245      19.11079704        0       0.00000000       0.02402648      -0.05434614       0.15352414       0.03567825      -0.04156129       0.11685649
H        4.07658747       5.46105294      18.71267273        0       0.00000000       0.02856729       0.08964494       0.11228216       0.04690708      -0.05103133       0.31540595
O        6.54107418       2.22793091      18.95999862        0       0.00000000      -0.01214710       0.00745638       0.16991282       0.16349193      -0.22859505       0.19712108
O        3.59665138       6.29178039      18.48763756        0       0.50000000      -0.01086381       0.06651773       0.07269689      -0.08825560       0.20065972       0.00739847
H        2.64537329       6.07707672      18.57308074        0       0.50000000       0.02412091       0.05021066       0.01595838      -0.01522166       0.00891377       0.01314996
42
Lattice="7.700392847121503 0.0 0.0 0.0 8.891647766302935 0.0 0.0 0.0 26.3637743517507" Properties=species:S:1:pos:R:3:tags:I:1:initial_magmoms:R:1:MACE_forces:R:3:DFT_forces:R:3 _ConfigSet_loc=" / 35" MACE_energy=-173.37004400368573 DFT_energy=-175.29524112 pbc="T T T"
Cu       1.28339881       0.74097065      12.12125812        3       0.00000000       0.00000000       0.00000000       0.00000000       0.00992197      -0.01219795       0.29865946
Cu       3.85019642       0.74097065      12.12125812        3       0.00000000       0.00000000       0.00000000       0.00000000       0.00020538       0.00718708       0.29119232
Cu       6.41699404       0.74097065      12.12125812        3       0.00000000       0.00000000       0.00000000       0.00000000      -0.00959787      -0.01085852       0.30425052
Cu       0.00000000       2.96388259      12.12125812        3       0.00000000       0.00000000       0.00000000       0.00000000      -0.00261858       0.00568649       0.30044309
Cu       2.56679762       2.96388259      12.12125812        3       0.00000000       0.00000000       0.00000000       0.00000000       0.01217581      -0.01625991       0.27748347
Cu       5.13359523       2.96388259      12.12125812        3       0.00000000       0.00000000       0.00000000       0.00000000      -0.01109981      -0.01519272       0.27826642
Cu       1.28339881       5.18679453      12.12125812        3       0.00000000       0.00000000       0.00000000       0.00000000      -0.01278547       0.00269071       0.27930546
Cu       3.85019642       5.18679453      12.12125812        3       0.00000000       0.00000000       0.00000000       0.00000000       0.00118071      -0.00872660       0.29765586
Cu       6.41699404       5.18679453      12.12125812        3       0.00000000       0.00000000       0.00000000       0.00000000       0.00990209       0.00334500       0.28673456
Cu       0.00000000       7.40970647      12.12125812        3       0.00000000       0.00000000       0.00000000       0.00000000      -0.00146210      -0.00797029       0.28845605
Cu       2.56679762       7.40970647      12.12125812        3       0.00000000       0.00000000       0.00000000       0.00000000      -0.01325813       0.00352799       0.29034824
Cu       5.13359523       7.40970647      12.12125812        3       0.00000000       0.00000000       0.00000000       0.00000000       0.01555568      -0.00043659       0.29259190
Cu       0.00000000       1.48194129      14.24251623        2       0.00000000       0.00000000       0.00000000       0.00000000      -0.00676017      -0.00048383      -0.29057909
Cu       2.56679762       1.48194129      14.24251623        2       0.00000000       0.00000000       0.00000000       0.00000000      -0.00722901       0.00103671      -0.34451021
Cu       5.13359523       1.48194129      14.24251623        2       0.00000000       0.00000000       0.00000000       0.00000000       0.02378718       0.00120625      -0.29804103
Cu       1.28339881       3.70485324      14.24251623        2       0.00000000       0.00000000       0.00000000       0.00000000      -0.04595645      -0.04479845      -0.38790231
Cu       3.85019642       3.70485324      14.24251623        2       0.00000000       0.00000000       0.00000000       0.00000000      -0.01607788      -0.02220840      -0.35867492
Cu       6.41699404       3.70485324      14.24251623        2       0.00000000       0.00000000       0.00000000       0.00000000       0.07574592      -0.07204377      -0.38566299
Cu       0.00000000       5.92776518      14.24251623        2       0.00000000       0.00000000       0.00000000       0.00000000      -0.01148385      -0.03037897      -0.38919110
Cu       2.56679762       5.92776518      14.24251623        2       0.00000000       0.00000000       0.00000000       0.00000000       0.11291414       0.06239988      -0.14879587
Cu       5.13359523       5.92776518      14.24251623        2       0.00000000       0.00000000       0.00000000       0.00000000      -0.13267089       0.09764959      -0.15694618
Cu       1.28339881       8.15067712      14.24251623        2       0.00000000       0.00000000       0.00000000       0.00000000       0.00517505      -0.00424086      -0.33077272
Cu       3.85019642       8.15067712      14.24251623        2       0.00000000       0.00000000       0.00000000       0.00000000      -0.01071828      -0.18942375      -0.10504711
Cu       6.41699404       8.15067712      14.24251623        2       0.00000000       0.00000000       0.00000000       0.00000000       0.00922865       0.00238476      -0.30728813
Cu       7.70297265       8.88484309      16.27767084        1       0.00000000      -0.00232545      -0.00884137       0.12682738      -0.00687666      -0.00851711      -0.00522395
Cu       2.56423679       8.89271402      16.27031695        1       0.00000000      -0.00844137       0.00488096       0.12538598      -0.02839654      -0.00227539       0.00891300
Cu       5.13231223       8.88297843      16.27018085        1       0.00000000      -0.00007617       0.00169510       0.12297379       0.02439990       0.03697148      -0.00119413
Cu       1.28513082       2.21168717      16.28071453        1       0.00000000      -0.00116949      -0.00839309       0.12488869       0.00377413       0.02617644       0.00629276
Cu       3.85054736       2.20758125      16.27776554        1       0.00000000      -0.01100479      -0.01288338       0.11672864       0.00956875       0.04498379       0.01089292
Cu       6.42282543       2.20932818      16.29104562        1       0.00000000      -0.00416556      -0.00661208       0.11700493      -0.00572702       0.00780098      -0.20596843
Cu       0.00596951       4.44457282      16.27637077        1       0.00000000      -0.00283196      -0.00418956       0.11765079      -0.00415341       0.00448723       0.05844324
Cu       2.55083021       4.40663938      16.25479257        1       0.00000000      -0.01311168      -0.00207087       0.11572045      -0.00356699       0.00742820      -0.02158664
Cu       5.15402982       4.41736508      16.23762053        1       0.00000000      -0.00833442       0.00165816       0.10973586      -0.02547719      -0.00570633      -0.02392103
Cu       1.26124657       6.66820258      16.26272883        1       0.00000000      -0.00792264      -0.00600123       0.12630808      -0.01973040      -0.00419777      -0.03817517
Cu       3.84486680       6.64521858      16.39925808        1       0.00000000       0.00610747       0.01078106       0.12160147       0.04645395       0.08053015      -0.43749961
Cu       6.42213358       6.66594374      16.26906307        1       0.00000000       0.00567964       0.00287159       0.12019850       0.02433110      -0.01147176       0.01124523
O        5.18094055       4.07308097      19.39160984        0       0.00000000       0.04323735      -0.09164608       0.04396593      -0.10902926       0.14385210       0.10602306
C        5.87157328       3.14180520      19.18824957        0       0.00000000      -0.04108156       0.03674623       0.15029226       0.06423564      -0.08413867       0.09172823
H        4.13016350       5.44385187      18.71348066        0       0.00000000       0.02296513       0.07516115       0.09923635       0.03606809      -0.00985108       0.34250093
O        6.56628944       2.20517492      19.05901951        0       0.00000000       0.02312631      -0.03394572       0.14426629       0.10342349      -0.16341346       0.12326913
O        3.64421125       6.26793194      18.47846416        0       0.50000000      -0.04017507       0.11478809       0.10689455      -0.09742411       0.18779166      -0.00485952
H        2.69630608       6.06878470      18.61561722        0       0.50000000       0.03931264       0.04082727      -0.01362062      -0.00594756      -0.00234433      -0.00285571
42
Lattice="7.700392847121503 0.0 0.0 0.0 8.891647766302935 0.0 0.0 0.0 26.3637743517507" Properties=species:S:1:pos:R:3:tags:I:1:initial_magmoms:R:1:MACE_forces:R:3:DFT_forces:R:3 _ConfigSet_loc=" / 36" MACE_energy=-173.40311117825917 DFT_energy=-175.31964465 pbc="T T T"
Cu       1.28339881       0.74097065      12.12125812        3       0.00000000       0.00000000       0.00000000       0.00000000       0.00892755      -0.01205664       0.29948342
Cu       3.85019642       0.74097065      12.12125812        3       0.00000000       0.00000000       0.00000000       0.00000000       0.00048080       0.00688522       0.29074603
Cu       6.41699404       0.74097065      12.12125812        3       0.00000000       0.00000000       0.00000000       0.00000000      -0.00970333      -0.01043296       0.30332401
Cu       0.00000000       2.96388259      12.12125812        3       0.00000000       0.00000000       0.00000000       0.00000000      -0.00281338       0.00567286       0.30031701
Cu       2.56679762       2.96388259      12.12125812        3       0.00000000       0.00000000       0.00000000       0.00000000       0.01211678      -0.01606069       0.27928203
Cu       5.13359523       2.96388259      12.12125812        3       0.00000000       0.00000000       0.00000000       0.00000000      -0.01133113      -0.01563483       0.27838987
Cu       1.28339881       5.18679453      12.12125812        3       0.00000000       0.00000000       0.00000000       0.00000000      -0.01263213       0.00303760       0.28075528
Cu       3.85019642       5.18679453      12.12125812        3       0.00000000       0.00000000       0.00000000       0.00000000       0.00007080      -0.00808505       0.29878884
Cu       6.41699404       5.18679453      12.12125812        3       0.00000000       0.00000000       0.00000000       0.00000000       0.01051130       0.00311073       0.28648419
Cu       0.00000000       7.40970647      12.12125812        3       0.00000000       0.00000000       0.00000000       0.00000000      -0.00114427      -0.00831818       0.28963058
Cu       2.56679762       7.40970647      12.12125812        3       0.00000000       0.00000000       0.00000000       0.00000000      -0.01306229       0.00242134       0.29134446
Cu       5.13359523       7.40970647      12.12125812        3       0.00000000       0.00000000       0.00000000       0.00000000       0.01408037      -0.00037422       0.29459661
Cu       0.00000000       1.48194129      14.24251623        2       0.00000000       0.00000000       0.00000000       0.00000000      -0.00266537      -0.00443693      -0.29306365
Cu       2.56679762       1.48194129      14.24251623        2       0.00000000       0.00000000       0.00000000       0.00000000      -0.00951565       0.00169514      -0.33220236
Cu       5.13359523       1.48194129      14.24251623        2       0.00000000       0.00000000       0.00000000       0.00000000       0.01798375      -0.00138498      -0.30010397
Cu       1.28339881       3.70485324      14.24251623        2       0.00000000       0.00000000       0.00000000       0.00000000      -0.04515939      -0.04546564      -0.37819190
Cu       3.85019642       3.70485324      14.24251623        2       0.00000000       0.00000000       0.00000000       0.00000000      -0.02002472      -0.02395212      -0.35283252
Cu       6.41699404       3.70485324      14.24251623        2       0.00000000       0.00000000       0.00000000       0.00000000       0.07449331      -0.06656405      -0.38661138
Cu       0.00000000       5.92776518      14.24251623        2       0.00000000       0.00000000       0.00000000       0.00000000      -0.00812861      -0.03440244      -0.37897349
Cu       2.56679762       5.92776518      14.24251623        2       0.00000000       0.00000000       0.00000000       0.00000000       0.11836691       0.06326478      -0.13752539
Cu       5.13359523       5.92776518      14.24251623        2       0.00000000       0.00000000       0.00000000       0.00000000      -0.13265599       0.09712283      -0.15053508
Cu       1.28339881       8.15067712      14.24251623        2       0.00000000       0.00000000       0.00000000       0.00000000       0.00191770      -0.00485524      -0.32134055
Cu       3.85019642       8.15067712      14.24251623        2       0.00000000       0.00000000       0.00000000       0.00000000      -0.00764303      -0.19123105      -0.09564672
Cu       6.41699404       8.15067712      14.24251623        2       0.00000000       0.00000000       0.00000000       0.00000000       0.00868124       0.00303850      -0.30232457
Cu       7.70270058       8.88481940      16.27990735        1       0.00000000      -0.00143801      -0.00761828       0.12663788      -0.00481456      -0.00963583      -0.01132806
Cu       2.56456865       8.89060314      16.27114567        1       0.00000000      -0.00836413       0.00662400       0.12505502      -0.02744843       0.00268154       0.00480546
Cu       5.13331106       8.88359752      16.27190184        1       0.00000000       0.00050269       0.00324193       0.12203267       0.02371157       0.03573202      -0.00525417
Cu       1.28322293       2.21068848      16.28324816        1       0.00000000      -0.00004366      -0.00661897       0.12459428       0.00703867       0.02829295      -0.00130664
Cu       3.85035289       2.20692739      16.27945377        1       0.00000000      -0.01091200      -0.01124639       0.11668139       0.00873032       0.04485447       0.00883159
Cu       6.42199559       2.20905559      16.28850240        1       0.00000000      -0.00266469      -0.00633280       0.11883557      -0.00698447       0.01231914      -0.16534714
Cu       0.00444683       4.44182509      16.27894086        1       0.00000000      -0.00022638      -0.00266013       0.11684632      -0.00213232       0.00967657       0.05067315
Cu       2.55051724       4.40734650      16.25706073        1       0.00000000      -0.01131453      -0.00132955       0.11567270      -0.00335416       0.00634764      -0.02230969
Cu       5.15237864       4.41675794      16.23800706        1       0.00000000      -0.00594526       0.00095596       0.10959842      -0.01622369      -0.01344018      -0.00855060
Cu       1.26445770       6.66614899      16.26455000        1       0.00000000      -0.00769657      -0.00345846       0.12567585      -0.02275925      -0.00141966      -0.03718072
Cu       3.84815129       6.64394566      16.40542443        1       0.00000000       0.00476786       0.01013190       0.11671163       0.04193230       0.07915225      -0.45122536
Cu       6.42441312       6.66524241      16.26872350        1       0.00000000       0.00697167       0.00360560       0.11979749       0.02289742      -0.01002102       0.00828611
O        5.20755809       4.05794188      19.41606378        0       0.00000000       0.04293361      -0.08738997       0.04427611      -0.10550158       0.14386182       0.10913512
C        5.89840172       3.11831196      19.25589017        0       0.00000000      -0.05261732       0.05716829       0.13263401       0.06778096      -0.09221149       0.07778569
H        4.17313959       5.45735552      18.72990263        0       0.00000000       0.02118296       0.06385286       0.08864554       0.04371620      -0.02210057       0.33032666
O        6.59044896       2.17724254      19.15328577        0       0.00000000       0.02496819      -0.03232899       0.12263939       0.08978308      -0.14157854       0.06138523
O        3.68175569       6.27748707      18.49248206        0       0.50000000      -0.03900242       0.09977565       0.09257395      -0.09963228       0.18772860      -0.01611550
H        2.73608009       6.07300262      18.63560934        0       0.50000000       0.03734471       0.03547505      -0.00640122      -0.00789102      -0.00323369       0.00359811
42
Lattice="7.700392847121503 0.0 0.0 0.0 8.891647766302935 0.0 0.0 0.0 26.3637743517507" Properties=species:S:1:pos:R:3:tags:I:1:initial_magmoms:R:1:MACE_forces:R:3:DFT_forces:R:3 _ConfigSet_loc=" / 37" MACE_energy=-173.4224578675572 DFT_energy=-175.33498669 pbc="T T T"
Cu       1.28339881       0.74097065      12.12125812        3       0.00000000       0.00000000       0.00000000       0.00000000       0.00836557      -0.01166881       0.30058211
Cu       3.85019642       0.74097065      12.12125812        3       0.00000000       0.00000000       0.00000000       0.00000000       0.00041077       0.00670966       0.29024436
Cu       6.41699404       0.74097065      12.12125812        3       0.00000000       0.00000000       0.00000000       0.00000000      -0.01002408      -0.00967794       0.30277065
Cu       0.00000000       2.96388259      12.12125812        3       0.00000000       0.00000000       0.00000000       0.00000000      -0.00297906       0.00576007       0.30073211
Cu       2.56679762       2.96388259      12.12125812        3       0.00000000       0.00000000       0.00000000       0.00000000       0.01194228      -0.01595424       0.28076705
Cu       5.13359523       2.96388259      12.12125812        3       0.00000000       0.00000000       0.00000000       0.00000000      -0.01156462      -0.01579270       0.27779678
Cu       1.28339881       5.18679453      12.12125812        3       0.00000000       0.00000000       0.00000000       0.00000000      -0.01243206       0.00370711       0.28125657
Cu       3.85019642       5.18679453      12.12125812        3       0.00000000       0.00000000       0.00000000       0.00000000      -0.00085478      -0.00709933       0.29787457
Cu       6.41699404       5.18679453      12.12125812        3       0.00000000       0.00000000       0.00000000       0.00000000       0.01068468       0.00326543       0.28542998
Cu       0.00000000       7.40970647      12.12125812        3       0.00000000       0.00000000       0.00000000       0.00000000      -0.00092743      -0.00903816       0.29124680
Cu       2.56679762       7.40970647      12.12125812        3       0.00000000       0.00000000       0.00000000       0.00000000      -0.01280267       0.00130768       0.29134265
Cu       5.13359523       7.40970647      12.12125812        3       0.00000000       0.00000000       0.00000000       0.00000000       0.01252981      -0.00071257       0.29566049
Cu       0.00000000       1.48194129      14.24251623        2       0.00000000       0.00000000       0.00000000       0.00000000       0.00310518      -0.00660045      -0.29587659
Cu       2.56679762       1.48194129      14.24251623        2       0.00000000       0.00000000       0.00000000       0.00000000      -0.01167441       0.00209237      -0.32182946
Cu       5.13359523       1.48194129      14.24251623        2       0.00000000       0.00000000       0.00000000       0.00000000       0.01502835      -0.00273012      -0.30303903
Cu       1.28339881       3.70485324      14.24251623        2       0.00000000       0.00000000       0.00000000       0.00000000      -0.04720549      -0.04865192      -0.37714782
Cu       3.85019642       3.70485324      14.24251623        2       0.00000000       0.00000000       0.00000000       0.00000000      -0.02359793      -0.02838076      -0.36080639
Cu       6.41699404       3.70485324      14.24251623        2       0.00000000       0.00000000       0.00000000       0.00000000       0.08413043      -0.06697997      -0.40096468
Cu       0.00000000       5.92776518      14.24251623        2       0.00000000       0.00000000       0.00000000       0.00000000      -0.00293374      -0.03964388      -0.37418402
Cu       2.56679762       5.92776518      14.24251623        2       0.00000000       0.00000000       0.00000000       0.00000000       0.11656796       0.06421512      -0.14474901
Cu       5.13359523       5.92776518      14.24251623        2       0.00000000       0.00000000       0.00000000       0.00000000      -0.12493781       0.09622264      -0.15982101
Cu       1.28339881       8.15067712      14.24251623        2       0.00000000       0.00000000       0.00000000       0.00000000      -0.00013976      -0.00055610      -0.31469832
Cu       3.85019642       8.15067712      14.24251623        2       0.00000000       0.00000000       0.00000000       0.00000000      -0.00363095      -0.18671570      -0.09049741
Cu       6.41699404       8.15067712      14.24251623        2       0.00000000       0.00000000       0.00000000       0.00000000       0.00890350       0.00737234      -0.29876738
Cu       7.70347245       8.88695283      16.28216547        1       0.00000000       0.00016187      -0.01154306       0.12694945      -0.00230638      -0.01660288      -0.01792927
Cu       2.56613121       8.89005391      16.27243878        1       0.00000000      -0.00618039      -0.00165744       0.12614770      -0.02392790      -0.00225197       0.00030168
Cu       5.13517160       8.88618588      16.27379006        1       0.00000000      -0.00250192      -0.00883639       0.12106214       0.01900780       0.01942249      -0.01006946
Cu       1.28299264       2.21107235      16.28609111        1       0.00000000       0.00060197      -0.00894825       0.12336362       0.01010121       0.02559544      -0.00933355
Cu       3.85132178       2.20721991      16.28024926        1       0.00000000      -0.01257986      -0.01223013       0.12007699       0.00776766       0.04170302       0.01059326
Cu       6.42336600       2.20891637      16.28682519        1       0.00000000      -0.00208303      -0.00768310       0.12014654      -0.00862846       0.01477664      -0.13045990
Cu       0.00537615       4.43979860      16.28124106        1       0.00000000       0.00035206       0.00172448       0.11588250      -0.00343016       0.01532779       0.04229555
Cu       2.55080624       4.40832852      16.25534506        1       0.00000000      -0.00737387      -0.00207447       0.13347519       0.00092552       0.00416527      -0.00618953
Cu       5.15480845       4.41325315      16.23367555        1       0.00000000      -0.01145041       0.01026349       0.13071283      -0.01651370      -0.00753665       0.02072290
Cu       1.26770912       6.66665494      16.26484026        1       0.00000000      -0.00284290      -0.00410338       0.13201191      -0.01889406      -0.00409192      -0.02685340
Cu       3.85204041       6.63860806      16.39993504        1       0.00000000      -0.00378134       0.01743187       0.17562218       0.03328853       0.08591949      -0.38904449
Cu       6.42911695       6.66575071      16.26678010        1       0.00000000       0.00076030       0.00374390       0.12566222       0.01036558      -0.01079743       0.01279377
O        5.24476956       4.04671313      19.43820021        0       0.00000000      -0.02578643       0.00592163       0.07050687      -0.16167780       0.23310247       0.13029876
C        5.92887111       3.09739187      19.32135866        0       0.00000000       0.08899646      -0.13533880       0.10312799       0.01816654      -0.01455694       0.07066821
H        4.21660307       5.44013148      18.74158339        0       0.00000000       0.02565115       0.08471422       0.06405419       0.06073076      -0.02834151       0.30168242
O        6.61374199       2.14752629      19.25071063        0       0.00000000      -0.03725254       0.05718409       0.10427552       0.20980991      -0.30710213      -0.00581977
O        3.72671843       6.26073358      18.50212401        0       0.50000000      -0.02843075       0.09537801       0.06938676      -0.09312484       0.20781978      -0.03962640
H        2.78575021       6.06747557      18.67924680        0       0.50000000       0.00490843       0.04093479      -0.02425337      -0.04762395       0.00299926      -0.00735377
42
Lattice="7.700392847121503 0.0 0.0 0.0 8.891647766302935 0.0 0.0 0.0 26.3637743517507" Properties=species:S:1:pos:R:3:tags:I:1:initial_magmoms:R:1:MACE_forces:R:3:DFT_forces:R:3 _ConfigSet_loc=" / 38" MACE_energy=-173.45397864324406 DFT_energy=-175.3491591 pbc="T T T"
Cu       1.28339881       0.74097065      12.12125812        3       0.00000000       0.00000000       0.00000000       0.00000000       0.00808583      -0.01132834       0.30168289
Cu       3.85019642       0.74097065      12.12125812        3       0.00000000       0.00000000       0.00000000       0.00000000       0.00140000       0.00662369       0.29027335
Cu       6.41699404       0.74097065      12.12125812        3       0.00000000       0.00000000       0.00000000       0.00000000      -0.00927818      -0.00904184       0.30192464
Cu       0.00000000       2.96388259      12.12125812        3       0.00000000       0.00000000       0.00000000       0.00000000      -0.00235987       0.00613625       0.30014343
Cu       2.56679762       2.96388259      12.12125812        3       0.00000000       0.00000000       0.00000000       0.00000000       0.01253184      -0.01512096       0.28334573
Cu       5.13359523       2.96388259      12.12125812        3       0.00000000       0.00000000       0.00000000       0.00000000      -0.01095123      -0.01567476       0.27852433
Cu       1.28339881       5.18679453      12.12125812        3       0.00000000       0.00000000       0.00000000       0.00000000      -0.01125396       0.00452457       0.28317563
Cu       3.85019642       5.18679453      12.12125812        3       0.00000000       0.00000000       0.00000000       0.00000000      -0.00114923      -0.00555307       0.29973046
Cu       6.41699404       5.18679453      12.12125812        3       0.00000000       0.00000000       0.00000000       0.00000000       0.01172058       0.00347757       0.28588391
Cu       0.00000000       7.40970647      12.12125812        3       0.00000000       0.00000000       0.00000000       0.00000000       0.00007052      -0.00889860       0.29263580
Cu       2.56679762       7.40970647      12.12125812        3       0.00000000       0.00000000       0.00000000       0.00000000      -0.01156222       0.00017795       0.29240624
Cu       5.13359523       7.40970647      12.12125812        3       0.00000000       0.00000000       0.00000000       0.00000000       0.01160074      -0.00073054       0.29824827
Cu       0.00000000       1.48194129      14.24251623        2       0.00000000       0.00000000       0.00000000       0.00000000       0.00586625      -0.00942175      -0.29521859
Cu       2.56679762       1.48194129      14.24251623        2       0.00000000       0.00000000       0.00000000       0.00000000      -0.01208269       0.00189149      -0.31009412
Cu       5.13359523       1.48194129      14.24251623        2       0.00000000       0.00000000       0.00000000       0.00000000       0.01195923      -0.00362108      -0.30116459
Cu       1.28339881       3.70485324      14.24251623        2       0.00000000       0.00000000       0.00000000       0.00000000      -0.04420236      -0.04880619      -0.36744607
Cu       3.85019642       3.70485324      14.24251623        2       0.00000000       0.00000000       0.00000000       0.00000000      -0.02335452      -0.02948943      -0.35134612
Cu       6.41699404       3.70485324      14.24251623        2       0.00000000       0.00000000       0.00000000       0.00000000       0.07982899      -0.06226439      -0.39321652
Cu       0.00000000       5.92776518      14.24251623        2       0.00000000       0.00000000       0.00000000       0.00000000       0.00185447      -0.04186164      -0.36463885
Cu       2.56679762       5.92776518      14.24251623        2       0.00000000       0.00000000       0.00000000       0.00000000       0.12478334       0.06586963      -0.13037902
Cu       5.13359523       5.92776518      14.24251623        2       0.00000000       0.00000000       0.00000000       0.00000000      -0.12596448       0.09357133      -0.14684272
Cu       1.28339881       8.15067712      14.24251623        2       0.00000000       0.00000000       0.00000000       0.00000000      -0.00236041      -0.00187085      -0.30579065
Cu       3.85019642       8.15067712      14.24251623        2       0.00000000       0.00000000       0.00000000       0.00000000      -0.00026509      -0.19019919      -0.08031180
Cu       6.41699404       8.15067712      14.24251623        2       0.00000000       0.00000000       0.00000000       0.00000000       0.00905724       0.00708744      -0.29464883
Cu       7.70338214       8.88602149      16.28435177        1       0.00000000       0.00114865      -0.00918741       0.12671702       0.00006428      -0.01488263      -0.02439739
Cu       2.56659852       8.88713320      16.27329198        1       0.00000000      -0.00507567      -0.00041410       0.12679732      -0.02068996       0.00396307      -0.00300965
Cu       5.13587118       8.88583223      16.27511621        1       0.00000000      -0.00164226      -0.00714098       0.12132113       0.01944104       0.01913069      -0.01205034
Cu       1.28165032       2.20974132      16.28822792        1       0.00000000       0.00203482      -0.00721396       0.12352191       0.01276916       0.02823248      -0.01663405
Cu       3.85115871       2.20627533      16.28208732        1       0.00000000      -0.01222887      -0.01066016       0.11980012       0.00779392       0.03989814       0.00425551
Cu       6.42307675       2.20789574      16.28646107        1       0.00000000      -0.00029155      -0.00770741       0.12044678      -0.00949678       0.01864095      -0.10418903
Cu       0.00445630       4.43731812      16.28311528        1       0.00000000       0.00274542       0.00312326       0.11575057      -0.00158859       0.01827014       0.03543918
Cu       2.55142569       4.40905632      16.25785718        1       0.00000000      -0.00620838      -0.00132632       0.13341109       0.00039167       0.00340512      -0.00562062
Cu       5.15303535       4.41231668      16.23665413        1       0.00000000      -0.00783776       0.00883802       0.12746585      -0.00744818      -0.01318269       0.02262715
Cu       1.27173399       6.66415865      16.26706097        1       0.00000000      -0.00322500      -0.00125100       0.13052151      -0.02223254      -0.00054402      -0.02737041
Cu       3.85541732       6.63598558      16.41008192        1       0.00000000      -0.00216294       0.01828067       0.16956172       0.03197088       0.08321978      -0.40612362
Cu       6.43123343       6.66448969      16.26642299        1       0.00000000       0.00236807       0.00480260       0.12546121       0.01005189      -0.00818582       0.00909063
O        5.28698838       4.02268039      19.46930492        0       0.00000000      -0.07494954       0.08236940       0.06379067      -0.19954924       0.27671716       0.12482937
C        5.96534236       3.06488283      19.40404792        0       0.00000000       0.08658618      -0.13141711       0.08114299       0.04412303      -0.05421809       0.05723644
H        4.26675974       5.45491651      18.76796962        0       0.00000000       0.00408678       0.10163450       0.04139188       0.13568745      -0.06950616       0.28646170
O        6.64289367       2.10865864      19.37086031        0       0.00000000      -0.01038868       0.02214318       0.07555400       0.19073196      -0.29907241      -0.05325246
O        3.77216595       6.27263952      18.52474998        0       0.50000000       0.04850654       0.04759159       0.04641391      -0.11546544       0.24259033      -0.06562609
H        2.83450023       6.07624826      18.70828943        0       0.50000000      -0.04609336       0.02303459      -0.00306448      -0.10052936      -0.00995335       0.01145690
42
Lattice="7.700392847121503 0.0 0.0 0.0 8.891647766302935 0.0 0.0 0.0 26.3637743517507" Properties=species:S:1:pos:R:3:tags:I:1:initial_magmoms:R:1:MACE_forces:R:3:DFT_forces:R:3 _ConfigSet_loc=" / 39" MACE_energy=-173.4707223787693 DFT_energy=-175.35375877 pbc="T T T"
Cu       1.28339881       0.74097065      12.12125812        3       0.00000000       0.00000000       0.00000000       0.00000000       0.00737939      -0.01148105       0.30264517
Cu       3.85019642       0.74097065      12.12125812        3       0.00000000       0.00000000       0.00000000       0.00000000       0.00146304       0.00623054       0.29062299
Cu       6.41699404       0.74097065      12.12125812        3       0.00000000       0.00000000       0.00000000       0.00000000      -0.00930277      -0.00893562       0.30166774
Cu       0.00000000       2.96388259      12.12125812        3       0.00000000       0.00000000       0.00000000       0.00000000      -0.00252245       0.00582426       0.30004750
Cu       2.56679762       2.96388259      12.12125812        3       0.00000000       0.00000000       0.00000000       0.00000000       0.01226837      -0.01506070       0.28534112
Cu       5.13359523       2.96388259      12.12125812        3       0.00000000       0.00000000       0.00000000       0.00000000      -0.01094961      -0.01605791       0.27926130
Cu       1.28339881       5.18679453      12.12125812        3       0.00000000       0.00000000       0.00000000       0.00000000      -0.01105055       0.00462326       0.28444372
Cu       3.85019642       5.18679453      12.12125812        3       0.00000000       0.00000000       0.00000000       0.00000000      -0.00181120      -0.00498521       0.30153706
Cu       6.41699404       5.18679453      12.12125812        3       0.00000000       0.00000000       0.00000000       0.00000000       0.01181780       0.00319340       0.28645392
Cu       0.00000000       7.40970647      12.12125812        3       0.00000000       0.00000000       0.00000000       0.00000000       0.00017773      -0.00915894       0.29366694
Cu       2.56679762       7.40970647      12.12125812        3       0.00000000       0.00000000       0.00000000       0.00000000      -0.01128366      -0.00088430       0.29342091
Cu       5.13359523       7.40970647      12.12125812        3       0.00000000       0.00000000       0.00000000       0.00000000       0.01046877      -0.00114184       0.30025666
Cu       0.00000000       1.48194129      14.24251623        2       0.00000000       0.00000000       0.00000000       0.00000000       0.00634966      -0.01126615      -0.29358034
Cu       2.56679762       1.48194129      14.24251623        2       0.00000000       0.00000000       0.00000000       0.00000000      -0.01252328       0.00088161      -0.30257109
Cu       5.13359523       1.48194129      14.24251623        2       0.00000000       0.00000000       0.00000000       0.00000000       0.00992948      -0.00422851      -0.29837023
Cu       1.28339881       3.70485324      14.24251623        2       0.00000000       0.00000000       0.00000000       0.00000000      -0.04207958      -0.04877853      -0.36036321
Cu       3.85019642       3.70485324      14.24251623        2       0.00000000       0.00000000       0.00000000       0.00000000      -0.02290968      -0.03002129      -0.34323109
Cu       6.41699404       3.70485324      14.24251623        2       0.00000000       0.00000000       0.00000000       0.00000000       0.07546516      -0.05988580      -0.38541593
Cu       0.00000000       5.92776518      14.24251623        2       0.00000000       0.00000000       0.00000000       0.00000000       0.00448806      -0.04319449      -0.35788820
Cu       2.56679762       5.92776518      14.24251623        2       0.00000000       0.00000000       0.00000000       0.00000000       0.13016436       0.06635561      -0.11946908
Cu       5.13359523       5.92776518      14.24251623        2       0.00000000       0.00000000       0.00000000       0.00000000      -0.12794127       0.09080492      -0.13603372
Cu       1.28339881       8.15067712      14.24251623        2       0.00000000       0.00000000       0.00000000       0.00000000      -0.00408000      -0.00340946      -0.30017814
Cu       3.85019642       8.15067712      14.24251623        2       0.00000000       0.00000000       0.00000000       0.00000000       0.00113694      -0.19344124      -0.07352699
Cu       6.41699404       8.15067712      14.24251623        2       0.00000000       0.00000000       0.00000000       0.00000000       0.00861804       0.00607509      -0.29208760
Cu       7.70336170       8.88512613      16.28560080        1       0.00000000       0.00188584      -0.00744221       0.12646609       0.00165280      -0.01308076      -0.02781819
Cu       2.56692926       8.88495357      16.27390441        1       0.00000000      -0.00445389       0.00143643       0.12693901      -0.01936413       0.00827556      -0.00429743
Cu       5.13620080       8.88521452      16.27586284        1       0.00000000      -0.00067345      -0.00472495       0.12138461       0.01897356       0.02012579      -0.01328831
Cu       1.28096241       2.20876343      16.28934646        1       0.00000000       0.00309934      -0.00592437       0.12365337       0.01367140       0.02898998      -0.02020112
Cu       3.85094788       2.20556577      16.28335510        1       0.00000000      -0.01129538      -0.00959274       0.11934052       0.00794621       0.03836341      -0.00076769
Cu       6.42288077       2.20702428      16.28680624        1       0.00000000       0.00087934      -0.00739404       0.11966493      -0.01010427       0.02071507      -0.09227411
Cu       0.00399436       4.43584983      16.28418914        1       0.00000000       0.00433222       0.00359032       0.11571675      -0.00042097       0.01879885       0.03150300
Cu       2.55208551       4.40955564      16.25985203        1       0.00000000      -0.00597932      -0.00121894       0.13087207      -0.00115906       0.00178938      -0.00846495
Cu       5.15196114       4.41163426      16.23945611        1       0.00000000      -0.00496240       0.00689051       0.12342295      -0.00225489      -0.01647666       0.01822300
Cu       1.27443962       6.66246347      16.26862270        1       0.00000000      -0.00377581       0.00053723       0.12896577      -0.02468065       0.00143648      -0.02752890
Cu       3.85781650       6.63456759      16.41807577        1       0.00000000      -0.00112138       0.01702644       0.15940255       0.03030029       0.08267109      -0.42607229
Cu       6.43246420       6.66350521      16.26632690        1       0.00000000       0.00436122       0.00553346       0.12450231       0.01012143      -0.00684450       0.00614316
O        5.31542053       4.00668551      19.49091150        0       0.00000000      -0.03919964       0.03702500       0.05370422      -0.15908859       0.22360961       0.11472857
C        5.98964762       3.04324318      19.45865025        0       0.00000000      -0.03698847       0.04557741       0.07193386       0.10934460      -0.14521005       0.05153949
H        4.30017198       5.46554175      18.78635774        0       0.00000000      -0.00606194       0.10078773       0.02735432       0.16055687      -0.08328610       0.27700167
O        6.66130235       2.08395097      19.45133427        0       0.00000000       0.06327196      -0.08276328       0.05866798       0.08100840      -0.13500279      -0.07635107
O        3.80251820       6.28045317      18.53910693        0       0.50000000       0.07001031       0.02959553       0.03628669      -0.12407193       0.24965805      -0.07972603
H        2.86663702       6.08309564      18.72809732        0       0.50000000      -0.05881896       0.01407136       0.00773585      -0.11570377      -0.01659007       0.02100182
42
Lattice="7.700392847121503 0.0 0.0 0.0 8.891647766302935 0.0 0.0 0.0 26.3637743517507" Properties=species:S:1:pos:R:3:tags:I:1:initial_magmoms:R:1:MACE_forces:R:3:DFT_forces:R:3 _ConfigSet_loc=" / 40" MACE_energy=-173.47919568464658 DFT_energy=-175.35525719 pbc="T T T"
Cu       1.28339881       0.74097065      12.12125812        3       0.00000000       0.00000000       0.00000000       0.00000000       0.00710349      -0.01165025       0.30298811
Cu       3.85019642       0.74097065      12.12125812        3       0.00000000       0.00000000       0.00000000       0.00000000       0.00159985       0.00595382       0.29067408
Cu       6.41699404       0.74097065      12.12125812        3       0.00000000       0.00000000       0.00000000       0.00000000      -0.00923198      -0.00896792       0.30129313
Cu       0.00000000       2.96388259      12.12125812        3       0.00000000       0.00000000       0.00000000       0.00000000      -0.00251811       0.00565606       0.29980685
Cu       2.56679762       2.96388259      12.12125812        3       0.00000000       0.00000000       0.00000000       0.00000000       0.01221715      -0.01506036       0.28628852
Cu       5.13359523       2.96388259      12.12125812        3       0.00000000       0.00000000       0.00000000       0.00000000      -0.01083224      -0.01628513       0.27949765
Cu       1.28339881       5.18679453      12.12125812        3       0.00000000       0.00000000       0.00000000       0.00000000      -0.01083251       0.00459052       0.28501678
Cu       3.85019642       5.18679453      12.12125812        3       0.00000000       0.00000000       0.00000000       0.00000000      -0.00206301      -0.00474978       0.30237345
Cu       6.41699404       5.18679453      12.12125812        3       0.00000000       0.00000000       0.00000000       0.00000000       0.01193141       0.00293866       0.28660382
Cu       0.00000000       7.40970647      12.12125812        3       0.00000000       0.00000000       0.00000000       0.00000000       0.00032997      -0.00937654       0.29404175
Cu       2.56679762       7.40970647      12.12125812        3       0.00000000       0.00000000       0.00000000       0.00000000      -0.01104722      -0.00153686       0.29376206
Cu       5.13359523       7.40970647      12.12125812        3       0.00000000       0.00000000       0.00000000       0.00000000       0.00995756      -0.00146490       0.30115619
Cu       0.00000000       1.48194129      14.24251623        2       0.00000000       0.00000000       0.00000000       0.00000000       0.00678634      -0.01233943      -0.29279788
Cu       2.56679762       1.48194129      14.24251623        2       0.00000000       0.00000000       0.00000000       0.00000000      -0.01250480       0.00017858      -0.29860124
Cu       5.13359523       1.48194129      14.24251623        2       0.00000000       0.00000000       0.00000000       0.00000000       0.00877375      -0.00455790      -0.29693828
Cu       1.28339881       3.70485324      14.24251623        2       0.00000000       0.00000000       0.00000000       0.00000000      -0.04059009      -0.04867369      -0.35625727
Cu       3.85019642       3.70485324      14.24251623        2       0.00000000       0.00000000       0.00000000       0.00000000      -0.02238946      -0.03018672      -0.33827362
Cu       6.41699404       3.70485324      14.24251623        2       0.00000000       0.00000000       0.00000000       0.00000000       0.07301739      -0.05850961      -0.38086224
Cu       0.00000000       5.92776518      14.24251623        2       0.00000000       0.00000000       0.00000000       0.00000000       0.00614272      -0.04398750      -0.35447285
Cu       2.56679762       5.92776518      14.24251623        2       0.00000000       0.00000000       0.00000000       0.00000000       0.13335337       0.06650862      -0.11343780
Cu       5.13359523       5.92776518      14.24251623        2       0.00000000       0.00000000       0.00000000       0.00000000      -0.12898904       0.08893714      -0.12975970
Cu       1.28339881       8.15067712      14.24251623        2       0.00000000       0.00000000       0.00000000       0.00000000      -0.00480759      -0.00438287      -0.29736929
Cu       3.85019642       8.15067712      14.24251623        2       0.00000000       0.00000000       0.00000000       0.00000000       0.00197717      -0.19534704      -0.07004728
Cu       6.41699404       8.15067712      14.24251623        2       0.00000000       0.00000000       0.00000000       0.00000000       0.00847868       0.00529910      -0.29087014
Cu       7.70338891       8.88453481      16.28628341        1       0.00000000       0.00231375      -0.00620419       0.12634867       0.00256130      -0.01240282      -0.02990703
Cu       2.56713733       8.88371605      16.27427866        1       0.00000000      -0.00410630       0.00261387       0.12689457      -0.01817370       0.01096650      -0.00595600
Cu       5.13638944       8.88484150      16.27626327        1       0.00000000       0.00000631      -0.00312227       0.12131544       0.01930657       0.02114435      -0.01389253
Cu       1.28067580       2.20821232      16.28992344        1       0.00000000       0.00353947      -0.00520260       0.12380984       0.01429712       0.02928829      -0.02204748
Cu       3.85083543       2.20520137      16.28414598        1       0.00000000      -0.01062727      -0.00902138       0.11899632       0.00783677       0.03724294      -0.00388548
Cu       6.42279507       2.20645092      16.28693215        1       0.00000000       0.00160929      -0.00693992       0.11930479      -0.01006399       0.02160160      -0.08521035
Cu       0.00379702       4.43504053      16.28480068        1       0.00000000       0.00520051       0.00372251       0.11577783       0.00033433       0.01917483       0.02904807
Cu       2.55253695       4.40990806      16.26108786        1       0.00000000      -0.00585237      -0.00134432       0.12876100      -0.00214698       0.00106638      -0.01135557
Cu       5.15145578       4.41115363      16.24125091        1       0.00000000      -0.00349140       0.00586961       0.12069635      -0.00011544      -0.01798084       0.01496485
Cu       1.27597981       6.66152244      16.26950496        1       0.00000000      -0.00380820       0.00142739       0.12824156      -0.02592798       0.00274089      -0.02785969
Cu       3.85930815       6.63391030      16.42271706        1       0.00000000      -0.00089659       0.01550206       0.15235330       0.02778880       0.08167687      -0.43828902
Cu       6.43320561       6.66290146      16.26628246        1       0.00000000       0.00560396       0.00595872       0.12377217       0.01077965      -0.00609787       0.00469505
O        5.33310303       3.99676127      19.50466953        0       0.00000000      -0.02575301       0.02056262       0.04863640      -0.13856346       0.19577032       0.10934393
C        6.00433750       3.03037280      19.49163242        0       0.00000000      -0.03247942       0.04095570       0.06573458       0.08315184      -0.11010791       0.05002954
H        4.31981080       5.47263975      18.79717717        0       0.00000000      -0.00116722       0.08360027       0.02283770       0.13710777      -0.07968470       0.27581981
O        6.67283825       2.06848924      19.50028864        0       0.00000000       0.03853927      -0.04814237       0.05022280       0.08207226      -0.12792546      -0.08584961
O        3.82065265       6.28518943      18.54686877        0       0.50000000       0.04400974       0.03159850       0.03487276      -0.11637962       0.23464089      -0.08345589
H        2.88548767       6.08765014      18.74060006        0       0.50000000      -0.04022191       0.01542758       0.00711937      -0.09972806      -0.01410030       0.01999260
42
Lattice="7.700392847121503 0.0 0.0 0.0 8.891647766302935 0.0 0.0 0.0 26.3637743517507" Properties=species:S:1:pos:R:3:tags:I:1:initial_magmoms:R:1:MACE_forces:R:3:DFT_forces:R:3 _ConfigSet_loc=" / 41" MACE_energy=-173.49253698483224 DFT_energy=-175.35279236 pbc="T T T"
Cu       1.28339881       0.74097065      12.12125812        3       0.00000000       0.00000000       0.00000000       0.00000000       0.00700869      -0.01133797       0.30384429
Cu       3.85019642       0.74097065      12.12125812        3       0.00000000       0.00000000       0.00000000       0.00000000       0.00191403       0.00586363       0.29133150
Cu       6.41699404       0.74097065      12.12125812        3       0.00000000       0.00000000       0.00000000       0.00000000      -0.00898024      -0.00850755       0.30100265
Cu       0.00000000       2.96388259      12.12125812        3       0.00000000       0.00000000       0.00000000       0.00000000      -0.00233618       0.00603461       0.29988163
Cu       2.56679762       2.96388259      12.12125812        3       0.00000000       0.00000000       0.00000000       0.00000000       0.01211756      -0.01454161       0.28840555
Cu       5.13359523       2.96388259      12.12125812        3       0.00000000       0.00000000       0.00000000       0.00000000      -0.01027442      -0.01604121       0.28051025
Cu       1.28339881       5.18679453      12.12125812        3       0.00000000       0.00000000       0.00000000       0.00000000      -0.01027224       0.00488931       0.28619602
Cu       3.85019642       5.18679453      12.12125812        3       0.00000000       0.00000000       0.00000000       0.00000000      -0.00231274      -0.00376609       0.30489004
Cu       6.41699404       5.18679453      12.12125812        3       0.00000000       0.00000000       0.00000000       0.00000000       0.01228949       0.00287876       0.28734098
Cu       0.00000000       7.40970647      12.12125812        3       0.00000000       0.00000000       0.00000000       0.00000000       0.00074805      -0.00938624       0.29503888
Cu       2.56679762       7.40970647      12.12125812        3       0.00000000       0.00000000       0.00000000       0.00000000      -0.01037270      -0.00222119       0.29493890
Cu       5.13359523       7.40970647      12.12125812        3       0.00000000       0.00000000       0.00000000       0.00000000       0.00924199      -0.00165666       0.30343262
Cu       0.00000000       1.48194129      14.24251623        2       0.00000000       0.00000000       0.00000000       0.00000000       0.00808402      -0.01416093      -0.29034847
Cu       2.56679762       1.48194129      14.24251623        2       0.00000000       0.00000000       0.00000000       0.00000000      -0.01078496      -0.00104219      -0.28997388
Cu       5.13359523       1.48194129      14.24251623        2       0.00000000       0.00000000       0.00000000       0.00000000       0.00637588      -0.00463128      -0.29132080
Cu       1.28339881       3.70485324      14.24251623        2       0.00000000       0.00000000       0.00000000       0.00000000      -0.03561192      -0.04630137      -0.34495067
Cu       3.85019642       3.70485324      14.24251623        2       0.00000000       0.00000000       0.00000000       0.00000000      -0.02166441      -0.02784787      -0.32225802
Cu       6.41699404       3.70485324      14.24251623        2       0.00000000       0.00000000       0.00000000       0.00000000       0.06743124      -0.05619609      -0.36901742
Cu       0.00000000       5.92776518      14.24251623        2       0.00000000       0.00000000       0.00000000       0.00000000       0.00831755      -0.04496356      -0.34771299
Cu       2.56679762       5.92776518      14.24251623        2       0.00000000       0.00000000       0.00000000       0.00000000       0.13958848       0.06625283      -0.09848254
Cu       5.13359523       5.92776518      14.24251623        2       0.00000000       0.00000000       0.00000000       0.00000000      -0.13219194       0.08399658      -0.11337325
Cu       1.28339881       8.15067712      14.24251623        2       0.00000000       0.00000000       0.00000000       0.00000000      -0.00573026      -0.00481998      -0.29281947
Cu       3.85019642       8.15067712      14.24251623        2       0.00000000       0.00000000       0.00000000       0.00000000       0.00327813      -0.19978114      -0.06161702
Cu       6.41699404       8.15067712      14.24251623        2       0.00000000       0.00000000       0.00000000       0.00000000       0.00812024       0.00407993      -0.28765069
Cu       7.70334945       8.88271411      16.28764718        1       0.00000000       0.00298099      -0.00167284       0.12584362       0.00366585      -0.00668442      -0.03437647
Cu       2.56751635       8.88127543      16.27530095        1       0.00000000      -0.00332821       0.00532084       0.12611400      -0.01570953       0.01483075      -0.00931185
Cu       5.13616545       8.88351311      16.27725214        1       0.00000000       0.00233556       0.00151906       0.12090427       0.02036830       0.02450458      -0.01627490
Cu       1.28074903       2.20711215      16.29081420        1       0.00000000       0.00265116      -0.00387043       0.12490992       0.01371312       0.02974517      -0.02453185
Cu       3.85078959       2.20506281      16.28637562        1       0.00000000      -0.00878806      -0.01011437       0.11610574       0.00834789       0.03253288      -0.01337305
Cu       6.42321116       2.20394918      16.28771735        1       0.00000000       0.00069856      -0.00108431       0.11569812      -0.01170579       0.02989051      -0.07439703
Cu       0.00333678       4.43350931      16.28593165        1       0.00000000       0.00686186       0.00265795       0.11696508       0.00180207       0.01817596       0.02468552
Cu       2.55320759       4.41110733      16.26510073        1       0.00000000      -0.00569298      -0.00493816       0.11463420      -0.00378242      -0.00300178      -0.02656357
Cu       5.15104636       4.40936476      16.24601669        1       0.00000000      -0.00158381       0.00427062       0.10987655       0.00429991      -0.01841961       0.00025065
Cu       1.27782179       6.66020910      16.27080012        1       0.00000000      -0.00167030       0.00131276       0.12744731      -0.02264966       0.00288589      -0.02717288
Cu       3.86161396       6.63299187      16.43361729        1       0.00000000      -0.00206001       0.00507422       0.12688391       0.02060273       0.07439564      -0.46856719
Cu       6.43376774       6.66140559      16.26652717        1       0.00000000       0.00971195       0.00704974       0.12057196       0.01298326      -0.00431805      -0.00002554
O        5.37880154       3.96658214      19.54241095        0       0.00000000      -0.02496886       0.02366602       0.02649011      -0.12355628       0.17825864       0.09114642
C        6.04163980       2.99423687      19.56431101        0       0.00000000       0.03408347      -0.05119372       0.07516764       0.00746588      -0.00570612       0.02933841
H        4.35599935       5.48029012      18.82499271        0       0.00000000       0.00545053       0.03559901       0.00587007       0.08150076      -0.04363202       0.29887124
O        6.70236780       2.02623846      19.60475872        0       0.00000000      -0.04505004       0.07145884       0.02165280       0.12699474      -0.19776710      -0.09433262
O        3.85274086       6.28327643      18.55762324        0       0.50000000      -0.01412585       0.06017063       0.06529785      -0.10137205       0.18481142      -0.09512971
H        2.92021254       6.09631378      18.77573907        0       0.50000000       0.01204541       0.01127941      -0.00437300      -0.05695212      -0.01729507       0.01247635
42
Lattice="7.700392847121503 0.0 0.0 0.0 8.891647766302935 0.0 0.0 0.0 26.3637743517507" Properties=species:S:1:pos:R:3:tags:I:1:initial_magmoms:R:1:MACE_forces:R:3:DFT_forces:R:3 _ConfigSet_loc=" / 42" MACE_energy=-173.50120929737042 DFT_energy=-175.35031187 pbc="T T T"
Cu       1.28339881       0.74097065      12.12125812        3       0.00000000       0.00000000       0.00000000       0.00000000       0.00669659      -0.01121710       0.30441663
Cu       3.85019642       0.74097065      12.12125812        3       0.00000000       0.00000000       0.00000000       0.00000000       0.00240833       0.00569749       0.29168835
Cu       6.41699404       0.74097065      12.12125812        3       0.00000000       0.00000000       0.00000000       0.00000000      -0.00823097      -0.00825103       0.30048884
Cu       0.00000000       2.96388259      12.12125812        3       0.00000000       0.00000000       0.00000000       0.00000000      -0.00195300       0.00605117       0.29918161
Cu       2.56679762       2.96388259      12.12125812        3       0.00000000       0.00000000       0.00000000       0.00000000       0.01214056      -0.01409906       0.29024684
Cu       5.13359523       2.96388259      12.12125812        3       0.00000000       0.00000000       0.00000000       0.00000000      -0.00951043      -0.01579802       0.28126504
Cu       1.28339881       5.18679453      12.12125812        3       0.00000000       0.00000000       0.00000000       0.00000000      -0.00959207       0.00503271       0.28736629
Cu       3.85019642       5.18679453      12.12125812        3       0.00000000       0.00000000       0.00000000       0.00000000      -0.00214658      -0.00278484       0.30686053
Cu       6.41699404       5.18679453      12.12125812        3       0.00000000       0.00000000       0.00000000       0.00000000       0.01265650       0.00273810       0.28835905
Cu       0.00000000       7.40970647      12.12125812        3       0.00000000       0.00000000       0.00000000       0.00000000       0.00122660      -0.00889841       0.29564623
Cu       2.56679762       7.40970647      12.12125812        3       0.00000000       0.00000000       0.00000000       0.00000000      -0.00934345      -0.00285976       0.29651230
Cu       5.13359523       7.40970647      12.12125812        3       0.00000000       0.00000000       0.00000000       0.00000000       0.00859790      -0.00184770       0.30559999
Cu       0.00000000       1.48194129      14.24251623        2       0.00000000       0.00000000       0.00000000       0.00000000       0.00796038      -0.01577846      -0.28977177
Cu       2.56679762       1.48194129      14.24251623        2       0.00000000       0.00000000       0.00000000       0.00000000      -0.01132525      -0.00353102      -0.28318262
Cu       5.13359523       1.48194129      14.24251623        2       0.00000000       0.00000000       0.00000000       0.00000000       0.00405630      -0.00698282      -0.28948122
Cu       1.28339881       3.70485324      14.24251623        2       0.00000000       0.00000000       0.00000000       0.00000000      -0.03535577      -0.04668617      -0.33916817
Cu       3.85019642       3.70485324      14.24251623        2       0.00000000       0.00000000       0.00000000       0.00000000      -0.01834948      -0.02959235      -0.31621097
Cu       6.41699404       3.70485324      14.24251623        2       0.00000000       0.00000000       0.00000000       0.00000000       0.06188738      -0.05161219      -0.36006533
Cu       0.00000000       5.92776518      14.24251623        2       0.00000000       0.00000000       0.00000000       0.00000000       0.01098100      -0.04563080      -0.33958827
Cu       2.56679762       5.92776518      14.24251623        2       0.00000000       0.00000000       0.00000000       0.00000000       0.14623956       0.06773951      -0.08731584
Cu       5.13359523       5.92776518      14.24251623        2       0.00000000       0.00000000       0.00000000       0.00000000      -0.13611620       0.08222093      -0.09942443
Cu       1.28339881       8.15067712      14.24251623        2       0.00000000       0.00000000       0.00000000       0.00000000      -0.00646257      -0.00799565      -0.28688598
Cu       3.85019642       8.15067712      14.24251623        2       0.00000000       0.00000000       0.00000000       0.00000000       0.00426334      -0.20376999      -0.05563293
Cu       6.41699404       8.15067712      14.24251623        2       0.00000000       0.00000000       0.00000000       0.00000000       0.00749187       0.00144892      -0.28544793
Cu       7.70280050       8.88121625      16.28840116        1       0.00000000       0.00398492      -0.00179067       0.12621036       0.00499957      -0.00551206      -0.03731243
Cu       2.56759628       8.87765762      16.27610972        1       0.00000000      -0.00289995       0.00846453       0.12618459      -0.01393126       0.02035040      -0.01214549
Cu       5.13584048       8.88116899      16.27795069        1       0.00000000       0.00266431       0.00412955       0.12098375       0.01994700       0.02732653      -0.01750483
Cu       1.27939602       2.20509210      16.29153232        1       0.00000000       0.00540249      -0.00164782       0.12475226       0.01543223       0.03009325      -0.02756055
Cu       3.84994240       2.20293944      16.28742029        1       0.00000000      -0.00697745      -0.00594484       0.11807831       0.00811732       0.03364719      -0.01763634
Cu       6.42153845       2.20342988      16.28700363        1       0.00000000       0.00426756      -0.00409424       0.11745773      -0.00778103       0.02667265      -0.05922226
Cu       0.00242324       4.43155826      16.28738756        1       0.00000000       0.00782579       0.00387371       0.11624955       0.00354326       0.01932389       0.01611899
Cu       2.55389283       4.41023340      16.26579809        1       0.00000000      -0.00572071      -0.00170613       0.11984155      -0.00415863       0.00009166      -0.02038448
Cu       5.14894092       4.40898059      16.24973258        1       0.00000000       0.00186974       0.00201145       0.11038490       0.01005941      -0.02056089      -0.00459625
Cu       1.28056136       6.65731632      16.27277673        1       0.00000000      -0.00427542       0.00461241       0.12550761      -0.02585639       0.00588092      -0.03108219
Cu       3.86228360       6.62973415      16.44627753        1       0.00000000       0.00038137       0.01025911       0.12013504       0.01977121       0.07836906      -0.47945728
Cu       6.43399010       6.65955885      16.26687820        1       0.00000000       0.01014980       0.00768189       0.12055520       0.01350680      -0.00357625      -0.00413291
O        5.42069220       3.93319521      19.58446381        0       0.00000000      -0.02227959       0.02393232       0.01549546      -0.11381422       0.16023115       0.07726047
C        6.07698877       2.95699124      19.63448105        0       0.00000000      -0.01514916       0.02067967       0.04186437       0.03707652      -0.04445030       0.03605079
H        4.38408053       5.49431256      18.84492895        0       0.00000000       0.00726216       0.03118606       0.00699634       0.09663321      -0.07480214       0.27221558
O        6.73066779       1.98579871      19.69546405        0       0.00000000      -0.01675143       0.03083009       0.02316524       0.05847929      -0.11298919      -0.12724037
O        3.87830511       6.29740545      18.58364424        0       0.50000000       0.00059137       0.02703794       0.03171660      -0.08815494       0.17955403      -0.09480184
H        2.94806781       6.10319353      18.80388599        0       0.50000000       0.00295926       0.01175602      -0.00055341      -0.07208990      -0.01324334       0.01597515
