46
Lattice="7.26 0.0 0.0 0.0 7.700392847121503 0.0 0.0 0.0 30.391999999999996" Properties=species:S:1:pos:R:3:tags:I:1:MACE_forces:R:3:forces:R:3:DFT_forces:R:3 method=neb MACE_energy=-186.92761514704858 energy=-186.97781233356525 stress="0.006651952307557245 -3.2073154882963493e-07 1.4710622538436238e-06 -3.2073154882963493e-07 0.007771409437050713 -2.2644539661852852e-05 1.4710622538436238e-06 -2.2644539661852852e-05 0.002609307520851428" free_energy=-186.97781233356525 DFT_energy=-191.69950508 pbc="T T T"
Cu       0.00000000       0.00000000      12.59800000        7       0.00000000       0.00000000       0.00000000      -0.00000029       0.00006157       0.42267225      -0.00170846       0.00000316       0.59996169
Cu       3.63000000       0.00000000      12.59800000        7       0.00000000       0.00000000       0.00000000       0.00000011      -0.00011203       0.42221863      -0.00151218      -0.00377200       0.60763631
Cu       0.00000000       2.56679762      12.59800000        7       0.00000000       0.00000000       0.00000000      -0.00000051      -0.00005019       0.42237447       0.00126609       0.00118192       0.62176325
Cu       3.63000000       2.56679762      12.59800000        7       0.00000000       0.00000000       0.00000000       0.00000020      -0.00004698       0.42177359      -0.00191355      -0.00344758       0.61395587
Cu       0.00000000       5.13359523      12.59800000        7       0.00000000       0.00000000       0.00000000      -0.00000027      -0.00001481       0.42185505      -0.00025950       0.00349453       0.59882914
Cu       3.63000000       5.13359523      12.59800000        7       0.00000000       0.00000000       0.00000000       0.00000004       0.00015532       0.42177615       0.00066228       0.01260212       0.60860925
Cu       1.81500000       1.28339881      13.89700000        6       0.00000000       0.00000000       0.00000000      -0.00022683       0.00009041      -0.15920623       0.02905356       0.00180710      -0.19636735
Cu       5.44500000       1.28339881      13.89700000        6       0.00000000       0.00000000       0.00000000       0.00022595       0.00008877      -0.15920394      -0.02713866       0.00260553      -0.18832424
Cu       1.81500000       3.85019642      13.89700000        6       0.00000000       0.00000000       0.00000000      -0.00038750      -0.00030452      -0.16005378       0.02741645      -0.00022588      -0.19117230
Cu       5.44500000       3.85019642      13.89700000        6       0.00000000       0.00000000       0.00000000       0.00038610      -0.00030302      -0.16005276      -0.02616682       0.00208374      -0.18658657
Cu       1.81500000       6.41699404      13.89700000        6       0.00000000       0.00000000       0.00000000      -0.00003901       0.00026416      -0.16014005       0.02334947      -0.00129110      -0.15946406
Cu       5.44500000       6.41699404      13.89700000        6       0.00000000       0.00000000       0.00000000       0.00003923       0.00026450      -0.16014223      -0.02398225       0.00562679      -0.15651729
Cu       0.00000000       0.00000000      15.19600000        5       0.00000000       0.00000000       0.00000000      -0.00000068       0.00071538      -0.06243817      -0.00021935       0.03508393       0.02928487
Cu       3.63000000       0.00000000      15.19600000        5       0.00000000       0.00000000       0.00000000       0.00000471       0.00180197      -0.05752107       0.00110312       0.00225185       0.03402607
Cu       0.00000000       2.56679762      15.19600000        5       0.00000000       0.00000000       0.00000000      -0.00000066       0.00093842      -0.06215943      -0.00011299       0.00476654       0.12888823
Cu       3.63000000       2.56679762      15.19600000        5       0.00000000       0.00000000       0.00000000       0.00000388      -0.00071459      -0.05546671       0.00497436       0.00234807      -0.00693959
Cu       0.00000000       5.13359523      15.19600000        5       0.00000000       0.00000000       0.00000000       0.00000066      -0.00152757      -0.05922213      -0.00251066      -0.03597924       0.01990677
Cu       3.63000000       5.13359523      15.19600000        5       0.00000000       0.00000000       0.00000000       0.00000320      -0.00087843      -0.05661467      -0.00505199       0.00122802       0.01432067
Cu       1.81500000       1.28339881      16.49500000        4       0.00000000       0.00000000       0.00000000       0.00102264       0.00278032      -0.11731386       0.01995790       0.00508581      -0.19652369
Cu       5.44500000       1.28339881      16.49500000        4       0.00000000       0.00000000       0.00000000      -0.00100309       0.00277903      -0.11721969      -0.02603611       0.00214711      -0.19359142
Cu       1.81500000       3.85019642      16.49500000        4       0.00000000       0.00000000       0.00000000       0.00504832       0.00200166      -0.11189502       0.02532291       0.00890720      -0.18389076
Cu       5.44500000       3.85019642      16.49500000        4       0.00000000       0.00000000       0.00000000      -0.00503772       0.00200438      -0.11178487      -0.02243259       0.00270767      -0.18782763
Cu       1.81500000       6.41699404      16.49500000        4       0.00000000       0.00000000       0.00000000       0.00429298      -0.00129282      -0.12954447      -0.03487369      -0.00043690      -0.17973784
Cu       5.44500000       6.41699404      16.49500000        4       0.00000000       0.00000000       0.00000000      -0.00428790      -0.00128103      -0.12964371       0.03534734      -0.00319748      -0.15388379
Cu       0.00000000       0.00000000      17.79400000        3       0.00000000       0.00000000       0.00000000       0.00007122      -0.02952130      -0.28123294       0.00168848       0.08685927      -0.15862170
Cu       3.63000000       0.00000000      17.79400000        3       0.00000000       0.00000000       0.00000000       0.00014836       0.01744399      -0.37451516       0.00583715       0.00960640      -0.44682365
Cu       0.00000000       2.56679762      17.79400000        3       0.00000000       0.00000000       0.00000000       0.00011479      -0.00645390      -0.22304873      -0.00737277      -0.01264117      -0.12083651
Cu       3.63000000       2.56679762      17.79400000        3       0.00000000       0.00000000       0.00000000       0.00021651      -0.01716088      -0.36156520      -0.00624532       0.00071285      -0.43863283
Cu       0.00000000       5.13359523      17.79400000        3       0.00000000       0.00000000       0.00000000       0.00007328      -0.00595957      -0.38055265      -0.00314333      -0.08952387      -0.17253712
Cu       3.63000000       5.13359523      17.79400000        3       0.00000000       0.00000000       0.00000000       0.00016078      -0.02756118      -0.38006320       0.00294525      -0.03693532      -0.43445229
Cu       1.81436815       1.27425335      19.04035782        2       0.00597450       0.00451477       0.10381601       0.00004464       0.01060957       0.09923922       0.01443218      -0.02556556      -0.04251649
Cu       5.44369730       1.27294998      19.04166742        2      -0.00243305       0.00329080       0.10825775      -0.00006697       0.01059386       0.09914589      -0.02027703      -0.01339186      -0.03265732
Cu       1.80910114       3.84508367      19.04292577        2       0.00855996       0.00355626       0.10206285      -0.00274407       0.00796860       0.10373897      -0.00788432       0.00668300       0.00002469
Cu       5.44780012       3.84486514      19.04269550        2      -0.00329540       0.00610958       0.10719191       0.00262506       0.00803866       0.10361893       0.00565130      -0.00133974       0.01203186
Cu       1.81593238       6.40915966      19.02120543        2       0.00106756       0.00352021       0.10510060      -0.00140203       0.00420356       0.09839746       0.07082563       0.00508000      -0.02836262
Cu       5.44434463       6.40999866      19.02895479        2       0.00188474       0.00289634       0.10830728       0.00142104       0.00423963       0.09835207      -0.04875301       0.00606229       0.04118125
Cu      -0.00165386       0.05073466      20.28445822        1       0.00478345       0.00589288       0.13896845       0.00004000       0.00860619       0.14274682       0.06384143      -0.23192961       0.06901484
Cu       3.62640604      -0.01501118      20.23008621        1      -0.00210935       0.00547534       0.12468693      -0.00002015       0.00252742       0.11837160       0.00553081       0.00264211      -0.06356505
Cu      -0.00170740       2.55296914      20.28706173        1       0.00298067       0.00774615       0.13640702      -0.00017140      -0.00533259       0.16685886       0.00696791       0.06625006      -0.63061767
Cu       3.62724673       2.55365278      20.22976086        1       0.00413997       0.00837761       0.12683496      -0.00008180       0.01320092       0.11930561       0.00737849       0.00572366      -0.06476959
Cu      -0.00713561       5.05991615      20.29230472        1       0.00742437       0.00466170       0.13490255      -0.00005270       0.00079805       0.12888788       0.06299369       0.14530745       0.05682477
Cu       3.62757130       5.12032923      20.22852943        1      -0.00203720       0.00771569       0.12429568      -0.00010797       0.00682300       0.11913722       0.00881271       0.00231551      -0.05124250
O        0.10305514       6.40704766      21.69688965        0      -0.00293371      -0.00179966       0.03022482      -0.00041156      -0.01592458       0.01424090      -0.10887000       0.00948013       0.03962793
C        0.00596617       2.32509707      22.06549959        0      -0.00024998      -0.01232409       0.03913585      -0.00007043       0.05269624       0.06192348       0.00836936      -0.10243785      -0.28794170
H       -0.73977841       6.41556895      22.18428960        0      -0.00901694      -0.00296498      -0.00972799       0.00058760      -0.00686929      -0.00747315      -0.01529075       0.13175882       0.94084885
O       -0.00329925       2.28218705      23.22421597        0      -0.00053107      -0.00528845       0.00223884      -0.00041770      -0.04038631       0.03143877      -0.04197253      -0.01029749       0.11766726
46
Lattice="7.26 0.0 0.0 0.0 7.700392847121503 0.0 0.0 0.0 30.391999999999996" Properties=species:S:1:pos:R:3:tags:I:1:MACE_forces:R:3:forces:R:3:DFT_forces:R:3 method=neb MACE_energy=-186.91730612431599 energy=-186.97781233356525 stress="0.006651952307557245 -3.2073154882963493e-07 1.4710622538436238e-06 -3.2073154882963493e-07 0.007771409437050713 -2.2644539661852852e-05 1.4710622538436238e-06 -2.2644539661852852e-05 0.002609307520851428" free_energy=-186.97781233356525 DFT_energy=-191.68985878 pbc="T T T"
Cu       0.00000000       0.00000000      12.59800000        7       0.00000000       0.00000000       0.00000000      -0.00000029       0.00006157       0.42267225      -0.00181853      -0.00122852       0.60024374
Cu       3.63000000       0.00000000      12.59800000        7       0.00000000       0.00000000       0.00000000       0.00000011      -0.00011203       0.42221863      -0.00086130      -0.00554147       0.60814062
Cu       0.00000000       2.56679762      12.59800000        7       0.00000000       0.00000000       0.00000000      -0.00000051      -0.00005019       0.42237447       0.00137960       0.00057881       0.62168541
Cu       3.63000000       2.56679762      12.59800000        7       0.00000000       0.00000000       0.00000000       0.00000020      -0.00004698       0.42177359      -0.00233838      -0.00436838       0.61446171
Cu       0.00000000       5.13359523      12.59800000        7       0.00000000       0.00000000       0.00000000      -0.00000027      -0.00001481       0.42185505      -0.00032415       0.00325196       0.59925683
Cu       3.63000000       5.13359523      12.59800000        7       0.00000000       0.00000000       0.00000000       0.00000004       0.00015532       0.42177615       0.00007100       0.01257583       0.60877373
Cu       1.81500000       1.28339881      13.89700000        6       0.00000000       0.00000000       0.00000000      -0.00022683       0.00009041      -0.15920623       0.02840420       0.00133939      -0.19607735
Cu       5.44500000       1.28339881      13.89700000        6       0.00000000       0.00000000       0.00000000       0.00022595       0.00008877      -0.15920394      -0.02692217       0.00124657      -0.18845656
Cu       1.81500000       3.85019642      13.89700000        6       0.00000000       0.00000000       0.00000000      -0.00038750      -0.00030452      -0.16005378       0.02687387      -0.00110957      -0.19070916
Cu       5.44500000       3.85019642      13.89700000        6       0.00000000       0.00000000       0.00000000       0.00038610      -0.00030302      -0.16005276      -0.02568572       0.00146529      -0.18496493
Cu       1.81500000       6.41699404      13.89700000        6       0.00000000       0.00000000       0.00000000      -0.00003901       0.00026416      -0.16014005       0.02308438      -0.00269385      -0.16071785
Cu       5.44500000       6.41699404      13.89700000        6       0.00000000       0.00000000       0.00000000       0.00003923       0.00026450      -0.16014223      -0.02360000       0.00533713      -0.15782278
Cu       0.00000000       0.00000000      15.19600000        5       0.00000000       0.00000000       0.00000000      -0.00000068       0.00071538      -0.06243817      -0.00062398       0.03543799       0.03101289
Cu       3.63000000       0.00000000      15.19600000        5       0.00000000       0.00000000       0.00000000       0.00000471       0.00180197      -0.05752107       0.00156712       0.00090803       0.03568295
Cu       0.00000000       2.56679762      15.19600000        5       0.00000000       0.00000000       0.00000000      -0.00000066       0.00093842      -0.06215943      -0.00017169       0.00138633       0.12570861
Cu       3.63000000       2.56679762      15.19600000        5       0.00000000       0.00000000       0.00000000       0.00000388      -0.00071459      -0.05546671       0.00457089       0.00167663      -0.00745677
Cu       0.00000000       5.13359523      15.19600000        5       0.00000000       0.00000000       0.00000000       0.00000066      -0.00152757      -0.05922213      -0.00274531      -0.03596010       0.02054474
Cu       3.63000000       5.13359523      15.19600000        5       0.00000000       0.00000000       0.00000000       0.00000320      -0.00087843      -0.05661467      -0.00498213      -0.00018899       0.01351379
Cu       1.81500000       1.28339881      16.49500000        4       0.00000000       0.00000000       0.00000000       0.00102264       0.00278032      -0.11731386       0.02171263       0.00415435      -0.21092417
Cu       5.44500000       1.28339881      16.49500000        4       0.00000000       0.00000000       0.00000000      -0.00100309       0.00277903      -0.11721969      -0.02808379       0.00196677      -0.20626670
Cu       1.81500000       3.85019642      16.49500000        4       0.00000000       0.00000000       0.00000000       0.00504832       0.00200166      -0.11189502       0.02359244       0.00960227      -0.18319475
Cu       5.44500000       3.85019642      16.49500000        4       0.00000000       0.00000000       0.00000000      -0.00503772       0.00200438      -0.11178487      -0.02050342       0.00139136      -0.18549031
Cu       1.81500000       6.41699404      16.49500000        4       0.00000000       0.00000000       0.00000000       0.00429298      -0.00129282      -0.12954447      -0.03546585      -0.00339113      -0.18728905
Cu       5.44500000       6.41699404      16.49500000        4       0.00000000       0.00000000       0.00000000      -0.00428790      -0.00128103      -0.12964371       0.03487761      -0.00598021      -0.16010315
Cu       0.00000000       0.00000000      17.79400000        3       0.00000000       0.00000000       0.00000000       0.00007122      -0.02952130      -0.28123294      -0.00017923       0.09388263      -0.19413104
Cu       3.63000000       0.00000000      17.79400000        3       0.00000000       0.00000000       0.00000000       0.00014836       0.01744399      -0.37451516       0.00705261       0.00662999      -0.46509403
Cu       0.00000000       2.56679762      17.79400000        3       0.00000000       0.00000000       0.00000000       0.00011479      -0.00645390      -0.22304873      -0.00648660      -0.01905932      -0.15892924
Cu       3.63000000       2.56679762      17.79400000        3       0.00000000       0.00000000       0.00000000       0.00021651      -0.01716088      -0.36156520      -0.00123653       0.02357475      -0.44902452
Cu       0.00000000       5.13359523      17.79400000        3       0.00000000       0.00000000       0.00000000       0.00007328      -0.00595957      -0.38055265      -0.00236327      -0.07987024      -0.12555309
Cu       3.63000000       5.13359523      17.79400000        3       0.00000000       0.00000000       0.00000000       0.00016078      -0.02756118      -0.38006320       0.00539935      -0.03735133      -0.44710981
Cu       1.81640140       1.27845066      19.03504839        2       0.00974415       0.01253829       0.11327656       0.00004464       0.01060957       0.09923922       0.02454880      -0.01468838      -0.04428237
Cu       5.44245678       1.27704332      19.03731470        2      -0.00602480       0.01175481       0.11516839      -0.00006697       0.01059386       0.09914589      -0.03199132      -0.00587042      -0.03722184
Cu       1.80530971       3.85115657      19.04226946        2       0.00519792       0.01585584       0.11719390      -0.00274407       0.00796860       0.10373897      -0.01846228       0.02649149       0.02955608
Cu       5.45292372       3.85168710      19.04308312        2      -0.00498063       0.01392958       0.11789782       0.00262506       0.00803866       0.10361893       0.00912186       0.01404481       0.03047481
Cu       1.81492029       6.41130035      19.01816498        2       0.00234299       0.00908043       0.11735934      -0.00140203       0.00420356       0.09839746       0.06937467       0.00583845      -0.01573374
Cu       5.44567976       6.41199967      19.02716925        2      -0.00270005       0.01163859       0.11716056       0.00142104       0.00423963       0.09835207      -0.04815896       0.01192182       0.05118125
Cu      -0.00256662       0.06803477      20.26982104        1       0.01596449       0.02208449       0.15785535       0.00004000       0.00860619       0.14274682       0.07179257      -0.20560710       0.09054784
Cu       3.62645260      -0.01260659      20.22541198        1      -0.00184376       0.00650962       0.14182930      -0.00002015       0.00252742       0.11837160       0.00616596       0.00406263      -0.05071321
Cu       0.00022192       2.56881409      20.27713463        1       0.00357726       0.02616308       0.13558071      -0.00017140      -0.00533259       0.16685886       0.01107475       0.11003207      -0.61410402
Cu       3.62861473       2.55689742      20.22522183        1       0.00008627       0.01547118       0.14020486      -0.00008180       0.01320092       0.11930561      -0.00061548       0.01295495      -0.05459814
Cu      -0.00917009       5.09384860      20.31747423        1      -0.00862469      -0.00636261       0.12827026      -0.00005270       0.00079805       0.12888788       0.04872238       0.12143239       0.05017636
Cu       3.62761063       5.12287691      20.22390356        1      -0.00079424       0.00968195       0.14351839      -0.00010797       0.00682300       0.11913722       0.00930941       0.00414141      -0.03030840
O        0.12224633       6.47131399      21.71234253        0       0.04069613      -0.04633368      -0.00637958      -0.00041156      -0.01592458       0.01424090      -0.06840614      -0.08187862      -0.01142386
C       -0.01130092       2.30175967      22.04988353        0      -0.00771675       0.01511698       0.05840733      -0.00007043       0.05269624       0.06192348       0.01191637      -0.16523055      -0.25419918
H       -0.70046110       6.52516030      22.22915804        0      -0.03976055      -0.06012295      -0.02803540       0.00058760      -0.00686929      -0.00747315      -0.02389971       0.22431837       0.93633381
O       -0.03932982       2.28833102      23.20892020        0       0.00067988      -0.03793468       0.01974790      -0.00041770      -0.04038631       0.03143877      -0.06468651      -0.07162630       0.10460487
46
Lattice="7.26 0.0 0.0 0.0 7.700392847121503 0.0 0.0 0.0 30.391999999999996" Properties=species:S:1:pos:R:3:tags:I:1:MACE_forces:R:3:forces:R:3:DFT_forces:R:3 method=neb MACE_energy=-186.91016122386435 energy=-186.97781233356525 stress="0.006651952307557245 -3.2073154882963493e-07 1.4710622538436238e-06 -3.2073154882963493e-07 0.007771409437050713 -2.2644539661852852e-05 1.4710622538436238e-06 -2.2644539661852852e-05 0.002609307520851428" free_energy=-186.97781233356525 DFT_energy=-191.68093618 pbc="T T T"
Cu       0.00000000       0.00000000      12.59800000        7       0.00000000       0.00000000       0.00000000      -0.00000029       0.00006157       0.42267225      -0.00197526      -0.00365299       0.60191267
Cu       3.63000000       0.00000000      12.59800000        7       0.00000000       0.00000000       0.00000000       0.00000011      -0.00011203       0.42221863       0.00012645      -0.00603372       0.61233968
Cu       0.00000000       2.56679762      12.59800000        7       0.00000000       0.00000000       0.00000000      -0.00000051      -0.00005019       0.42237447       0.00206480       0.00021827       0.62360614
Cu       3.63000000       2.56679762      12.59800000        7       0.00000000       0.00000000       0.00000000       0.00000020      -0.00004698       0.42177359      -0.00266118      -0.00522391       0.61826464
Cu       0.00000000       5.13359523      12.59800000        7       0.00000000       0.00000000       0.00000000      -0.00000027      -0.00001481       0.42185505       0.00023968       0.00248794       0.59948149
Cu       3.63000000       5.13359523      12.59800000        7       0.00000000       0.00000000       0.00000000       0.00000004       0.00015532       0.42177615      -0.00009484       0.00963854       0.61272899
Cu       1.81500000       1.28339881      13.89700000        6       0.00000000       0.00000000       0.00000000      -0.00022683       0.00009041      -0.15920623       0.02718654      -0.00019125      -0.19791236
Cu       5.44500000       1.28339881      13.89700000        6       0.00000000       0.00000000       0.00000000       0.00022595       0.00008877      -0.15920394      -0.02639170      -0.00096100      -0.18975536
Cu       1.81500000       3.85019642      13.89700000        6       0.00000000       0.00000000       0.00000000      -0.00038750      -0.00030452      -0.16005378       0.02645790      -0.00225258      -0.19292180
Cu       5.44500000       3.85019642      13.89700000        6       0.00000000       0.00000000       0.00000000       0.00038610      -0.00030302      -0.16005276      -0.02488155       0.00085201      -0.18689094
Cu       1.81500000       6.41699404      13.89700000        6       0.00000000       0.00000000       0.00000000      -0.00003901       0.00026416      -0.16014005       0.02256543      -0.00432332      -0.16271805
Cu       5.44500000       6.41699404      13.89700000        6       0.00000000       0.00000000       0.00000000       0.00003923       0.00026450      -0.16014223      -0.02183189       0.00433489      -0.16029194
Cu       0.00000000       0.00000000      15.19600000        5       0.00000000       0.00000000       0.00000000      -0.00000068       0.00071538      -0.06243817      -0.00052264       0.03544618       0.03063241
Cu       3.63000000       0.00000000      15.19600000        5       0.00000000       0.00000000       0.00000000       0.00000471       0.00180197      -0.05752107       0.00275261      -0.00217481       0.03566678
Cu       0.00000000       2.56679762      15.19600000        5       0.00000000       0.00000000       0.00000000      -0.00000066       0.00093842      -0.06215943       0.00015708      -0.00264912       0.12342413
Cu       3.63000000       2.56679762      15.19600000        5       0.00000000       0.00000000       0.00000000       0.00000388      -0.00071459      -0.05546671       0.00395785       0.00060818      -0.00600009
Cu       0.00000000       5.13359523      15.19600000        5       0.00000000       0.00000000       0.00000000       0.00000066      -0.00152757      -0.05922213      -0.00295554      -0.03628364       0.02334867
Cu       3.63000000       5.13359523      15.19600000        5       0.00000000       0.00000000       0.00000000       0.00000320      -0.00087843      -0.05661467      -0.00452200      -0.00070418       0.01542764
Cu       1.81500000       1.28339881      16.49500000        4       0.00000000       0.00000000       0.00000000       0.00102264       0.00278032      -0.11731386       0.02256264       0.00244508      -0.21884319
Cu       5.44500000       1.28339881      16.49500000        4       0.00000000       0.00000000       0.00000000      -0.00100309       0.00277903      -0.11721969      -0.02756502       0.00058726      -0.20857802
Cu       1.81500000       3.85019642      16.49500000        4       0.00000000       0.00000000       0.00000000       0.00504832       0.00200166      -0.11189502       0.02264760       0.00773221      -0.18100746
Cu       5.44500000       3.85019642      16.49500000        4       0.00000000       0.00000000       0.00000000      -0.00503772       0.00200438      -0.11178487      -0.01847567      -0.00207287      -0.18305970
Cu       1.81500000       6.41699404      16.49500000        4       0.00000000       0.00000000       0.00000000       0.00429298      -0.00129282      -0.12954447      -0.03636714      -0.00668541      -0.18812530
Cu       5.44500000       6.41699404      16.49500000        4       0.00000000       0.00000000       0.00000000      -0.00428790      -0.00128103      -0.12964371       0.03410368      -0.00925352      -0.16096550
Cu       0.00000000       0.00000000      17.79400000        3       0.00000000       0.00000000       0.00000000       0.00007122      -0.02952130      -0.28123294      -0.00029420       0.10928724      -0.21327252
Cu       3.63000000       0.00000000      17.79400000        3       0.00000000       0.00000000       0.00000000       0.00014836       0.01744399      -0.37451516       0.00875462       0.01294162      -0.46963162
Cu       0.00000000       2.56679762      17.79400000        3       0.00000000       0.00000000       0.00000000       0.00011479      -0.00645390      -0.22304873      -0.00464324      -0.01337662      -0.18270938
Cu       3.63000000       2.56679762      17.79400000        3       0.00000000       0.00000000       0.00000000       0.00021651      -0.01716088      -0.36156520       0.00602888       0.04954427      -0.45694048
Cu       0.00000000       5.13359523      17.79400000        3       0.00000000       0.00000000       0.00000000       0.00007328      -0.00595957      -0.38055265      -0.00564801      -0.06271488      -0.10965948
Cu       3.63000000       5.13359523      17.79400000        3       0.00000000       0.00000000       0.00000000       0.00016078      -0.02756118      -0.38006320       0.00633688      -0.02366096      -0.45025382
Cu       1.81932375       1.28916143      19.03157521        2       0.01118819       0.01104988       0.11475449       0.00004464       0.01060957       0.09923922       0.02574114      -0.00408804      -0.04495207
Cu       5.44209723       1.28668916      19.03642795        2      -0.00658636       0.00818469       0.12001276      -0.00006697       0.01059386       0.09914589      -0.03796166      -0.00593232      -0.03957393
Cu       1.80300785       3.86379902      19.04315898        2       0.01575570       0.00736929       0.11314720      -0.00274407       0.00796860       0.10373897      -0.00465205       0.02147310       0.02837614
Cu       5.45494377       3.86322301      19.04413737        2      -0.01527401       0.00619826       0.11199454       0.00262506       0.00803866       0.10361893      -0.00471818       0.01294088       0.02205792
Cu       1.81339840       6.41894076      19.01758287        2       0.00835975       0.00830321       0.11865825      -0.00140203       0.00420356       0.09839746       0.07719861       0.00438432      -0.01683072
Cu       5.44718615       6.42181352      19.02745384        2      -0.00530195       0.01049216       0.11983636       0.00142104       0.00423963       0.09835207      -0.04826745       0.01437842       0.05618624
Cu       0.00440138       0.09460827      20.26406901        1       0.01293321       0.01000462       0.15131894       0.00004000       0.00860619       0.14274682       0.05845121      -0.21369036       0.09648716
Cu       3.62617603      -0.00521252      20.22378427        1      -0.00321957       0.01430013       0.14683555      -0.00002015       0.00252742       0.11837160       0.00581968       0.01697132      -0.04929996
Cu       0.00259315       2.59469900      20.27023543        1       0.00151401       0.01085250       0.14199786      -0.00017140      -0.00533259       0.16685886       0.01112405       0.09972373      -0.60566302
Cu       3.62863177       2.56693461      20.22296333        1      -0.00026604       0.01657627       0.14857343      -0.00008180       0.01320092       0.11930561      -0.00394901       0.02076621      -0.05026021
Cu      -0.01638098       5.11901724      20.32804202        1       0.00501336      -0.01056077       0.11191591      -0.00005270       0.00079805       0.12888788       0.06243518       0.10263158       0.02268169
Cu       3.62854092       5.13108233      20.22269497        1       0.00096046       0.01766479       0.14868676      -0.00010797       0.00682300       0.11913722       0.01085246       0.01509675      -0.02822633
O        0.14938524       6.50801625      21.71041834        0      -0.00043794      -0.04400353       0.01356987      -0.00041156      -0.01592458       0.01424090      -0.10857753      -0.08911689       0.02090721
C       -0.03510861       2.29801287      22.03639213        0      -0.00793973       0.00756041       0.08327744      -0.00007043       0.05269624       0.06192348       0.01105661      -0.16676499      -0.24421178
H       -0.66387183       6.58671770      22.24024240        0      -0.01532748      -0.08708997      -0.03305827       0.00058760      -0.00686929      -0.00747315      -0.02675481       0.21831063       0.95737680
O       -0.07662249       2.26938152      23.19497562        0      -0.00303618      -0.03720514       0.01883542      -0.00041770      -0.04038631       0.03143877      -0.03491101      -0.10099324       0.09764862
46
Lattice="7.26 0.0 0.0 0.0 7.700392847121503 0.0 0.0 0.0 30.391999999999996" Properties=species:S:1:pos:R:3:tags:I:1:MACE_forces:R:3:forces:R:3:DFT_forces:R:3 method=neb MACE_energy=-186.89825219211798 energy=-186.97781233356525 stress="0.006651952307557245 -3.2073154882963493e-07 1.4710622538436238e-06 -3.2073154882963493e-07 0.007771409437050713 -2.2644539661852852e-05 1.4710622538436238e-06 -2.2644539661852852e-05 0.002609307520851428" free_energy=-186.97781233356525 DFT_energy=-191.66464814 pbc="T T T"
Cu       0.00000000       0.00000000      12.59800000        7       0.00000000       0.00000000       0.00000000      -0.00000029       0.00006157       0.42267225      -0.00178405      -0.00445791       0.60268701
Cu       3.63000000       0.00000000      12.59800000        7       0.00000000       0.00000000       0.00000000       0.00000011      -0.00011203       0.42221863       0.00063184      -0.00674013       0.61357378
Cu       0.00000000       2.56679762      12.59800000        7       0.00000000       0.00000000       0.00000000      -0.00000051      -0.00005019       0.42237447       0.00264890       0.00026093       0.62440224
Cu       3.63000000       2.56679762      12.59800000        7       0.00000000       0.00000000       0.00000000       0.00000020      -0.00004698       0.42177359      -0.00278281      -0.00457875       0.61913457
Cu       0.00000000       5.13359523      12.59800000        7       0.00000000       0.00000000       0.00000000      -0.00000027      -0.00001481       0.42185505       0.00078958       0.00259414       0.59974825
Cu       3.63000000       5.13359523      12.59800000        7       0.00000000       0.00000000       0.00000000       0.00000004       0.00015532       0.42177615      -0.00025515       0.00782876       0.61361775
Cu       1.81500000       1.28339881      13.89700000        6       0.00000000       0.00000000       0.00000000      -0.00022683       0.00009041      -0.15920623       0.02573584      -0.00077787      -0.19914326
Cu       5.44500000       1.28339881      13.89700000        6       0.00000000       0.00000000       0.00000000       0.00022595       0.00008877      -0.15920394      -0.02661954      -0.00219455      -0.19034517
Cu       1.81500000       3.85019642      13.89700000        6       0.00000000       0.00000000       0.00000000      -0.00038750      -0.00030452      -0.16005378       0.02629816      -0.00299314      -0.19365383
Cu       5.44500000       3.85019642      13.89700000        6       0.00000000       0.00000000       0.00000000       0.00038610      -0.00030302      -0.16005276      -0.02584910       0.00113955      -0.18773085
Cu       1.81500000       6.41699404      13.89700000        6       0.00000000       0.00000000       0.00000000      -0.00003901       0.00026416      -0.16014005       0.02287360      -0.00466409      -0.16412170
Cu       5.44500000       6.41699404      13.89700000        6       0.00000000       0.00000000       0.00000000       0.00003923       0.00026450      -0.16014223      -0.02037198       0.00401038      -0.16120936
Cu       0.00000000       0.00000000      15.19600000        5       0.00000000       0.00000000       0.00000000      -0.00000068       0.00071538      -0.06243817      -0.00087273       0.03648631       0.02784341
Cu       3.63000000       0.00000000      15.19600000        5       0.00000000       0.00000000       0.00000000       0.00000471       0.00180197      -0.05752107       0.00435180      -0.00408894       0.03359083
Cu       0.00000000       2.56679762      15.19600000        5       0.00000000       0.00000000       0.00000000      -0.00000066       0.00093842      -0.06215943       0.00039806      -0.00686320       0.12170122
Cu       3.63000000       2.56679762      15.19600000        5       0.00000000       0.00000000       0.00000000       0.00000388      -0.00071459      -0.05546671       0.00353985      -0.00020029      -0.00593968
Cu       0.00000000       5.13359523      15.19600000        5       0.00000000       0.00000000       0.00000000       0.00000066      -0.00152757      -0.05922213      -0.00355660      -0.03472694       0.02553641
Cu       3.63000000       5.13359523      15.19600000        5       0.00000000       0.00000000       0.00000000       0.00000320      -0.00087843      -0.05661467      -0.00360074      -0.00066462       0.01667937
Cu       1.81500000       1.28339881      16.49500000        4       0.00000000       0.00000000       0.00000000       0.00102264       0.00278032      -0.11731386       0.02450129      -0.00110940      -0.23397085
Cu       5.44500000       1.28339881      16.49500000        4       0.00000000       0.00000000       0.00000000      -0.00100309       0.00277903      -0.11721969      -0.02625402      -0.00115112      -0.20500944
Cu       1.81500000       3.85019642      16.49500000        4       0.00000000       0.00000000       0.00000000       0.00504832       0.00200166      -0.11189502       0.02284454       0.00601152      -0.18950708
Cu       5.44500000       3.85019642      16.49500000        4       0.00000000       0.00000000       0.00000000      -0.00503772       0.00200438      -0.11178487      -0.01575535      -0.00588094      -0.19037482
Cu       1.81500000       6.41699404      16.49500000        4       0.00000000       0.00000000       0.00000000       0.00429298      -0.00129282      -0.12954447      -0.03809874      -0.01003597      -0.19510838
Cu       5.44500000       6.41699404      16.49500000        4       0.00000000       0.00000000       0.00000000      -0.00428790      -0.00128103      -0.12964371       0.03314486      -0.01217961      -0.16101990
Cu       0.00000000       0.00000000      17.79400000        3       0.00000000       0.00000000       0.00000000       0.00007122      -0.02952130      -0.28123294       0.00059285       0.13966569      -0.25366696
Cu       3.63000000       0.00000000      17.79400000        3       0.00000000       0.00000000       0.00000000       0.00014836       0.01744399      -0.37451516       0.02113954       0.03662563      -0.47575197
Cu       0.00000000       2.56679762      17.79400000        3       0.00000000       0.00000000       0.00000000       0.00011479      -0.00645390      -0.22304873      -0.00431245       0.00630716      -0.19656699
Cu       3.63000000       2.56679762      17.79400000        3       0.00000000       0.00000000       0.00000000       0.00021651      -0.01716088      -0.36156520       0.02870049       0.08068730      -0.47053790
Cu       0.00000000       5.13359523      17.79400000        3       0.00000000       0.00000000       0.00000000       0.00007328      -0.00595957      -0.38055265      -0.00791349      -0.03503180      -0.11537823
Cu       3.63000000       5.13359523      17.79400000        3       0.00000000       0.00000000       0.00000000       0.00016078      -0.02756118      -0.38006320       0.01511782       0.00997050      -0.46315735
Cu       1.82616687       1.31186254      19.02474388        2       0.00407403      -0.00065405       0.12269623       0.00004464       0.01060957       0.09923922       0.00696993      -0.01244632      -0.03419365
Cu       5.44135448       1.30563949      19.03844433        2      -0.00796012       0.00277350       0.11647519      -0.00006697       0.01059386       0.09914589      -0.04476037      -0.01322637      -0.05861633
Cu       1.80863964       3.88298532      19.03944605        2       0.00735727       0.00223303       0.12121198      -0.00274407       0.00796860       0.10373897      -0.01908515       0.01119591       0.04008125
Cu       5.45119457       3.88154414      19.04089649        2      -0.00056592       0.00574323       0.12552481       0.00262506       0.00803866       0.10361893       0.01158595       0.01899115       0.03047184
Cu       1.81649365       6.43603144      19.01445261        2       0.00959553       0.00452958       0.11632188      -0.00140203       0.00420356       0.09839746       0.07911582      -0.00281623      -0.02235118
Cu       5.44787765       6.44218774      19.02856862        2      -0.00818174      -0.00019420       0.11779158       0.00142104       0.00423963       0.09835207      -0.05209708      -0.00209790       0.05587546
Cu       0.01696322       0.13619334      20.24989472        1      -0.00276640      -0.00852159       0.16696086       0.00004000       0.00860619       0.14274682       0.02969100      -0.22447814       0.13923751
Cu       3.62441138       0.02166868      20.22399169        1      -0.00093842       0.00902605       0.14921148      -0.00002015       0.00252742       0.11837160       0.01564237       0.02018953      -0.04900094
Cu       0.00678931       2.63543013      20.26423685        1       0.00299504      -0.00390671       0.14863731      -0.00017140      -0.00533259       0.16685886       0.02411512       0.09149167      -0.60788243
Cu       3.62928529       2.59355025      20.22574203        1       0.00062528       0.01375362       0.14502999      -0.00008180       0.01320092       0.11930561      -0.00896079       0.01943570      -0.05703879
Cu      -0.01485446       5.15370344      20.32083422        1       0.00936112      -0.01620337       0.12770977      -0.00005270       0.00079805       0.12888788       0.06122674       0.09412502       0.03946409
Cu       3.63159025       5.15952690      20.22335495        1      -0.00206947       0.00714891       0.14991922      -0.00010797       0.00682300       0.11913722       0.00698783       0.00612748      -0.02666173
O        0.19249102       6.55127959      21.68991688        0      -0.00784693      -0.06277424       0.03424387      -0.00041156      -0.01592458       0.01424090      -0.11529945      -0.11420374       0.04944927
C       -0.08744133       2.29759394      22.01934801        0      -0.00865284      -0.02440696       0.09088353      -0.00007043       0.05269624       0.06192348      -0.00081330      -0.13868459      -0.23444098
H       -0.60400041       6.63895959      22.24302883        0      -0.02618187      -0.08806654      -0.02000792       0.00058760      -0.00686929      -0.00747315      -0.01096864       0.15968766       0.98009220
O       -0.15760212       2.22141174      23.17467913        0      -0.01060374      -0.01683211       0.02283811      -0.00041770      -0.04038631       0.03143877      -0.03863225      -0.10653940       0.10919334
46
Lattice="7.26 0.0 0.0 0.0 7.700392847121503 0.0 0.0 0.0 30.391999999999996" Properties=species:S:1:pos:R:3:tags:I:1:MACE_forces:R:3:forces:R:3:DFT_forces:R:3 method=neb MACE_energy=-186.89285764719452 energy=-186.97781233356525 stress="0.006651952307557245 -3.2073154882963493e-07 1.4710622538436238e-06 -3.2073154882963493e-07 0.007771409437050713 -2.2644539661852852e-05 1.4710622538436238e-06 -2.2644539661852852e-05 0.002609307520851428" free_energy=-186.97781233356525 DFT_energy=-191.6461683 pbc="T T T"
Cu       0.00000000       0.00000000      12.59800000        7       0.00000000       0.00000000       0.00000000      -0.00000029       0.00006157       0.42267225      -0.00137240      -0.00260873       0.60369482
Cu       3.63000000       0.00000000      12.59800000        7       0.00000000       0.00000000       0.00000000       0.00000011      -0.00011203       0.42221863       0.00202359      -0.00412003       0.61453379
Cu       0.00000000       2.56679762      12.59800000        7       0.00000000       0.00000000       0.00000000      -0.00000051      -0.00005019       0.42237447       0.00407985       0.00248474       0.62477116
Cu       3.63000000       2.56679762      12.59800000        7       0.00000000       0.00000000       0.00000000       0.00000020      -0.00004698       0.42177359      -0.00259752      -0.00327317       0.61999993
Cu       0.00000000       5.13359523      12.59800000        7       0.00000000       0.00000000       0.00000000      -0.00000027      -0.00001481       0.42185505       0.00201704       0.00527471       0.59983035
Cu       3.63000000       5.13359523      12.59800000        7       0.00000000       0.00000000       0.00000000       0.00000004       0.00015532       0.42177615       0.00008031       0.00996815       0.61471568
Cu       1.81500000       1.28339881      13.89700000        6       0.00000000       0.00000000       0.00000000      -0.00022683       0.00009041      -0.15920623       0.02539242       0.00136445      -0.19983238
Cu       5.44500000       1.28339881      13.89700000        6       0.00000000       0.00000000       0.00000000       0.00022595       0.00008877      -0.15920394      -0.02632394      -0.00116295      -0.19062135
Cu       1.81500000       3.85019642      13.89700000        6       0.00000000       0.00000000       0.00000000      -0.00038750      -0.00030452      -0.16005378       0.02613498      -0.00119622      -0.19401314
Cu       5.44500000       3.85019642      13.89700000        6       0.00000000       0.00000000       0.00000000       0.00038610      -0.00030302      -0.16005276      -0.02585144       0.00341258      -0.18801890
Cu       1.81500000       6.41699404      13.89700000        6       0.00000000       0.00000000       0.00000000      -0.00003901       0.00026416      -0.16014005       0.02392821      -0.00281797      -0.16479936
Cu       5.44500000       6.41699404      13.89700000        6       0.00000000       0.00000000       0.00000000       0.00003923       0.00026450      -0.16014223      -0.01894584       0.00694093      -0.16257812
Cu       0.00000000       0.00000000      15.19600000        5       0.00000000       0.00000000       0.00000000      -0.00000068       0.00071538      -0.06243817      -0.00124399       0.03860581       0.02697329
Cu       3.63000000       0.00000000      15.19600000        5       0.00000000       0.00000000       0.00000000       0.00000471       0.00180197      -0.05752107       0.00644609      -0.00334330       0.03473045
Cu       0.00000000       2.56679762      15.19600000        5       0.00000000       0.00000000       0.00000000      -0.00000066       0.00093842      -0.06215943       0.00125172      -0.00619966       0.11966080
Cu       3.63000000       2.56679762      15.19600000        5       0.00000000       0.00000000       0.00000000       0.00000388      -0.00071459      -0.05546671       0.00376671       0.00171494      -0.00473430
Cu       0.00000000       5.13359523      15.19600000        5       0.00000000       0.00000000       0.00000000       0.00000066      -0.00152757      -0.05922213      -0.00318139      -0.03157523       0.02698691
Cu       3.63000000       5.13359523      15.19600000        5       0.00000000       0.00000000       0.00000000       0.00000320      -0.00087843      -0.05661467      -0.00240380       0.00151671       0.01640074
Cu       1.81500000       1.28339881      16.49500000        4       0.00000000       0.00000000       0.00000000       0.00102264       0.00278032      -0.11731386       0.02604012      -0.00083866      -0.23521111
Cu       5.44500000       1.28339881      16.49500000        4       0.00000000       0.00000000       0.00000000      -0.00100309       0.00277903      -0.11721969      -0.02378047       0.00021193      -0.20248139
Cu       1.81500000       3.85019642      16.49500000        4       0.00000000       0.00000000       0.00000000       0.00504832       0.00200166      -0.11189502       0.02515170       0.00683660      -0.19343038
Cu       5.44500000       3.85019642      16.49500000        4       0.00000000       0.00000000       0.00000000      -0.00503772       0.00200438      -0.11178487      -0.01255596      -0.00654750      -0.18195092
Cu       1.81500000       6.41699404      16.49500000        4       0.00000000       0.00000000       0.00000000       0.00429298      -0.00129282      -0.12954447      -0.03823807      -0.01116268      -0.20214896
Cu       5.44500000       6.41699404      16.49500000        4       0.00000000       0.00000000       0.00000000      -0.00428790      -0.00128103      -0.12964371       0.03281320      -0.01323284      -0.16083577
Cu       0.00000000       0.00000000      17.79400000        3       0.00000000       0.00000000       0.00000000       0.00007122      -0.02952130      -0.28123294      -0.00073925       0.16753355      -0.26265328
Cu       3.63000000       0.00000000      17.79400000        3       0.00000000       0.00000000       0.00000000       0.00014836       0.01744399      -0.37451516       0.03301521       0.06465845      -0.47974748
Cu       0.00000000       2.56679762      17.79400000        3       0.00000000       0.00000000       0.00000000       0.00011479      -0.00645390      -0.22304873      -0.00064467       0.02613609      -0.20137809
Cu       3.63000000       2.56679762      17.79400000        3       0.00000000       0.00000000       0.00000000       0.00021651      -0.01716088      -0.36156520       0.04771185       0.11197145      -0.47711259
Cu       0.00000000       5.13359523      17.79400000        3       0.00000000       0.00000000       0.00000000       0.00007328      -0.00595957      -0.38055265      -0.00552343      -0.00642918      -0.13468165
Cu       3.63000000       5.13359523      17.79400000        3       0.00000000       0.00000000       0.00000000       0.00016078      -0.02756118      -0.38006320       0.02718753       0.03163232      -0.46660409
Cu       1.82931361       1.32859552      19.02347797        2       0.00621659      -0.00591151       0.12001512       0.00004464       0.01060957       0.09923922       0.01004216      -0.01839366      -0.03832554
Cu       5.44135991       1.32260349      19.03921738        2      -0.00613887      -0.00411683       0.11895126      -0.00006697       0.01059386       0.09914589      -0.05128520      -0.03304621      -0.07219132
Cu       1.81162763       3.89808987      19.03741560        2       0.00830475      -0.00484154       0.11853351      -0.00274407       0.00796860       0.10373897      -0.02800608      -0.00739102       0.04597821
Cu       5.45348853       3.89878211      19.04405952        2      -0.00899552      -0.00470022       0.11693790       0.00262506       0.00803866       0.10361893       0.00275864       0.00868070       0.02347138
Cu       1.82001336       6.45297004      19.01076808        2       0.00624295      -0.00414272       0.12238204      -0.00140203       0.00420356       0.09839746       0.07356433      -0.01733998      -0.01803741
Cu       5.44800512       6.45806290      19.02929714        2      -0.00695499      -0.00517348       0.11903125       0.00142104       0.00423963       0.09835207      -0.04915167      -0.01350403       0.05880556
Cu       0.02050673       0.16573417      20.24657826        1      -0.00080073      -0.02113924       0.16209169       0.00004000       0.00860619       0.14274682       0.02501466      -0.23911713       0.14956340
Cu       3.62571923       0.04764230      20.22469483        1      -0.00103985      -0.00127380       0.14722378      -0.00002015       0.00252742       0.11837160       0.01668558      -0.00487539      -0.05220254
Cu       0.01322300       2.66301898      20.26459856        1       0.00126950      -0.01734771       0.14438456      -0.00017140      -0.00533259       0.16685886       0.03121402       0.09028840      -0.60182927
Cu       3.63113550       2.62011262      20.22597480        1      -0.00163341       0.00111697       0.14766207      -0.00008180       0.01320092       0.11930561      -0.01911503      -0.00498577      -0.05853350
Cu      -0.00505900       5.17894299      20.31107359        1       0.00346737      -0.02112572       0.13209813      -0.00005270       0.00079805       0.12888788       0.04733096       0.05591425       0.05175306
Cu       3.63154043       5.18482183      20.22349764        1      -0.00134847       0.00067803       0.14906262      -0.00010797       0.00682300       0.11913722       0.00944994      -0.01300216      -0.02902127
O        0.22008906       6.57152996      21.67601642        0      -0.01943612      -0.05552190       0.04854351      -0.00041156      -0.01592458       0.01424090      -0.12755389      -0.10018918       0.07778678
C       -0.14404505       2.26445330      22.00419137        0      -0.01344551      -0.03831706       0.09551316      -0.00007043       0.05269624       0.06192348      -0.00576774      -0.15608198      -0.22076781
H       -0.57334967       6.65639308      22.23374548        0      -0.03315560      -0.08690063       0.00757726       0.00058760      -0.00686929      -0.00747315      -0.01986452       0.17161446       0.95124669
O       -0.24870526       2.17365766      23.15617324        0      -0.01611665      -0.01592670       0.02228069      -0.00041770      -0.04038631       0.03143877      -0.03895454      -0.10432658       0.13283893
46
Lattice="7.26 0.0 0.0 0.0 7.700392847121503 0.0 0.0 0.0 30.391999999999996" Properties=species:S:1:pos:R:3:tags:I:1:MACE_forces:R:3:forces:R:3:DFT_forces:R:3 method=neb MACE_energy=-186.88878593579173 energy=-186.97781233356525 stress="0.006651952307557245 -3.2073154882963493e-07 1.4710622538436238e-06 -3.2073154882963493e-07 0.007771409437050713 -2.2644539661852852e-05 1.4710622538436238e-06 -2.2644539661852852e-05 0.002609307520851428" free_energy=-186.97781233356525 DFT_energy=-191.62960129 pbc="T T T"
Cu       0.00000000       0.00000000      12.59800000        7       0.00000000       0.00000000       0.00000000      -0.00000029       0.00006157       0.42267225      -0.00162504      -0.00315575       0.60603651
Cu       3.63000000       0.00000000      12.59800000        7       0.00000000       0.00000000       0.00000000       0.00000011      -0.00011203       0.42221863       0.00246206      -0.00405650       0.61721999
Cu       0.00000000       2.56679762      12.59800000        7       0.00000000       0.00000000       0.00000000      -0.00000051      -0.00005019       0.42237447       0.00453504       0.00279693       0.62537270
Cu       3.63000000       2.56679762      12.59800000        7       0.00000000       0.00000000       0.00000000       0.00000020      -0.00004698       0.42177359      -0.00289154      -0.00431352       0.62178025
Cu       0.00000000       5.13359523      12.59800000        7       0.00000000       0.00000000       0.00000000      -0.00000027      -0.00001481       0.42185505       0.00221029       0.00534094       0.60086368
Cu       3.63000000       5.13359523      12.59800000        7       0.00000000       0.00000000       0.00000000       0.00000004       0.00015532       0.42177615      -0.00018457       0.01021744       0.61699571
Cu       1.81500000       1.28339881      13.89700000        6       0.00000000       0.00000000       0.00000000      -0.00022683       0.00009041      -0.15920623       0.02480569       0.00138682      -0.20013132
Cu       5.44500000       1.28339881      13.89700000        6       0.00000000       0.00000000       0.00000000       0.00022595       0.00008877      -0.15920394      -0.02602426      -0.00167995      -0.19094635
Cu       1.81500000       3.85019642      13.89700000        6       0.00000000       0.00000000       0.00000000      -0.00038750      -0.00030452      -0.16005378       0.02557261      -0.00178636      -0.19408540
Cu       5.44500000       3.85019642      13.89700000        6       0.00000000       0.00000000       0.00000000       0.00038610      -0.00030302      -0.16005276      -0.02516040       0.00332786      -0.18805017
Cu       1.81500000       6.41699404      13.89700000        6       0.00000000       0.00000000       0.00000000      -0.00003901       0.00026416      -0.16014005       0.02391586      -0.00290139      -0.16645489
Cu       5.44500000       6.41699404      13.89700000        6       0.00000000       0.00000000       0.00000000       0.00003923       0.00026450      -0.16014223      -0.01870733       0.00693576      -0.16451163
Cu       0.00000000       0.00000000      15.19600000        5       0.00000000       0.00000000       0.00000000      -0.00000068       0.00071538      -0.06243817      -0.00137135       0.03894723       0.02790083
Cu       3.63000000       0.00000000      15.19600000        5       0.00000000       0.00000000       0.00000000       0.00000471       0.00180197      -0.05752107       0.00656796      -0.00443565       0.03729710
Cu       0.00000000       2.56679762      15.19600000        5       0.00000000       0.00000000       0.00000000      -0.00000066       0.00093842      -0.06215943       0.00129440      -0.00781081       0.11615685
Cu       3.63000000       2.56679762      15.19600000        5       0.00000000       0.00000000       0.00000000       0.00000388      -0.00071459      -0.05546671       0.00344067       0.00176564      -0.00346656
Cu       0.00000000       5.13359523      15.19600000        5       0.00000000       0.00000000       0.00000000       0.00000066      -0.00152757      -0.05922213      -0.00354330      -0.03124388       0.02853960
Cu       3.63000000       5.13359523      15.19600000        5       0.00000000       0.00000000       0.00000000       0.00000320      -0.00087843      -0.05661467      -0.00238030       0.00126092       0.01588625
Cu       1.81500000       1.28339881      16.49500000        4       0.00000000       0.00000000       0.00000000       0.00102264       0.00278032      -0.11731386       0.02647449      -0.00110886      -0.23497123
Cu       5.44500000       1.28339881      16.49500000        4       0.00000000       0.00000000       0.00000000      -0.00100309       0.00277903      -0.11721969      -0.02318009      -0.00037189      -0.20028141
Cu       1.81500000       3.85019642      16.49500000        4       0.00000000       0.00000000       0.00000000       0.00504832       0.00200166      -0.11189502       0.02394936       0.00616556      -0.18625037
Cu       5.44500000       3.85019642      16.49500000        4       0.00000000       0.00000000       0.00000000      -0.00503772       0.00200438      -0.11178487      -0.01097637      -0.00718032      -0.17361926
Cu       1.81500000       6.41699404      16.49500000        4       0.00000000       0.00000000       0.00000000       0.00429298      -0.00129282      -0.12954447      -0.03748023      -0.01367348      -0.19628532
Cu       5.44500000       6.41699404      16.49500000        4       0.00000000       0.00000000       0.00000000      -0.00428790      -0.00128103      -0.12964371       0.03230293      -0.01575883      -0.15845768
Cu       0.00000000       0.00000000      17.79400000        3       0.00000000       0.00000000       0.00000000       0.00007122      -0.02952130      -0.28123294       0.00055743       0.18107690      -0.25960634
Cu       3.63000000       0.00000000      17.79400000        3       0.00000000       0.00000000       0.00000000       0.00014836       0.01744399      -0.37451516       0.03201078       0.07145431      -0.47865184
Cu       0.00000000       2.56679762      17.79400000        3       0.00000000       0.00000000       0.00000000       0.00011479      -0.00645390      -0.22304873       0.00117827       0.03085723      -0.19760213
Cu       3.63000000       2.56679762      17.79400000        3       0.00000000       0.00000000       0.00000000       0.00021651      -0.01716088      -0.36156520       0.05152764       0.13388335      -0.48014701
Cu       0.00000000       5.13359523      17.79400000        3       0.00000000       0.00000000       0.00000000       0.00007328      -0.00595957      -0.38055265      -0.00775945       0.01115951      -0.11674377
Cu       3.63000000       5.13359523      17.79400000        3       0.00000000       0.00000000       0.00000000       0.00016078      -0.02756118      -0.38006320       0.02694361       0.04242231      -0.46273075
Cu       1.83099783       1.33698388      19.02312434        2       0.00645664      -0.00634788       0.11654319       0.00004464       0.01060957       0.09923922       0.01749857      -0.01672782      -0.05100279
Cu       5.44197987       1.33103995      19.03972016        2      -0.00889063      -0.00579482       0.11921202      -0.00006697       0.01059386       0.09914589      -0.06312228      -0.03953567      -0.08054977
Cu       1.80860907       3.90791746      19.03922361        2       0.01258498      -0.00889806       0.11721833      -0.00274407       0.00796860       0.10373897      -0.02806615      -0.01089086       0.05608449
Cu       5.45611252       3.90771074      19.04680456        2      -0.01410829      -0.00922392       0.10951037       0.00262506       0.00803866       0.10361893       0.00161899       0.00411052       0.02406921
Cu       1.81777355       6.46003429      19.01305854        2       0.01240894      -0.00638160       0.11776001      -0.00140203       0.00420356       0.09839746       0.07940593      -0.02403002      -0.02447345
Cu       5.44912135       6.46643713      19.03033769        2      -0.01084698      -0.00782125       0.11575029       0.00142104       0.00423963       0.09835207      -0.05377573      -0.02072202       0.05476197
Cu       0.02423015       0.18803144      20.24630594        1      -0.00361640      -0.02956095       0.15522847       0.00004000       0.00860619       0.14274682       0.02310105      -0.24911837       0.16530243
Cu       3.62642746       0.05328470      20.22403129        1      -0.00467594       0.00585190       0.14852723      -0.00002015       0.00252742       0.11837160       0.01222438       0.00436434      -0.05418354
Cu       0.01565157       2.68368247      20.26941397        1      -0.00266160      -0.02388507       0.14262857      -0.00017140      -0.00533259       0.16685886       0.02661365       0.09275431      -0.57392035
Cu       3.63130040       2.62739839      20.22413464        1      -0.00277135       0.00513136       0.15333560      -0.00008180       0.01320092       0.11930561      -0.02168256       0.00435635      -0.05241597
Cu      -0.01124000       5.20394625      20.32130928        1       0.01002797      -0.02397542       0.11816945      -0.00005270       0.00079805       0.12888788       0.05463417       0.02729932       0.04571384
Cu       3.63120774       5.19111909      20.22242640        1       0.00174236       0.00623974       0.15166854      -0.00010797       0.00682300       0.11913722       0.01253794      -0.00433010      -0.02568642
O        0.21931207       6.60209976      21.68303641        0      -0.01779285      -0.06150693       0.04344720      -0.00041156      -0.01592458       0.01424090      -0.13244132      -0.10592051       0.07631304
C       -0.15137412       2.21592127      21.99643692        0      -0.01081929      -0.03877149       0.05045832      -0.00007043       0.05269624       0.06192348      -0.01259003      -0.19108995      -0.17796233
H       -0.56967622       6.70965890      22.24373070        0      -0.03081825      -0.11277402       0.00344259       0.00058760      -0.00686929      -0.00747315      -0.01627362       0.21403211       0.83458158
O       -0.26219647       2.12000934      23.14734333        0      -0.02177093      -0.02459117       0.05897021      -0.00041770      -0.04038631       0.03143877      -0.02814788      -0.13407315       0.12231202
46
Lattice="7.26 0.0 0.0 0.0 7.700392847121503 0.0 0.0 0.0 30.391999999999996" Properties=species:S:1:pos:R:3:tags:I:1:MACE_forces:R:3:forces:R:3:DFT_forces:R:3 method=neb MACE_energy=-186.876725892328 energy=-186.97781233356525 stress="0.006651952307557245 -3.2073154882963493e-07 1.4710622538436238e-06 -3.2073154882963493e-07 0.007771409437050713 -2.2644539661852852e-05 1.4710622538436238e-06 -2.2644539661852852e-05 0.002609307520851428" free_energy=-186.97781233356525 DFT_energy=-191.59307475 pbc="T T T"
Cu       0.00000000       0.00000000      12.59800000        7       0.00000000       0.00000000       0.00000000      -0.00000029       0.00006157       0.42267225      -0.00119355      -0.00486700       0.61091327
Cu       3.63000000       0.00000000      12.59800000        7       0.00000000       0.00000000       0.00000000       0.00000011      -0.00011203       0.42221863       0.00126869      -0.00374366       0.62153047
Cu       0.00000000       2.56679762      12.59800000        7       0.00000000       0.00000000       0.00000000      -0.00000051      -0.00005019       0.42237447       0.00280731       0.00528470       0.62757742
Cu       3.63000000       2.56679762      12.59800000        7       0.00000000       0.00000000       0.00000000       0.00000020      -0.00004698       0.42177359      -0.00185629      -0.00664917       0.62555065
Cu       0.00000000       5.13359523      12.59800000        7       0.00000000       0.00000000       0.00000000      -0.00000027      -0.00001481       0.42185505       0.00083597       0.00480587       0.60312127
Cu       3.63000000       5.13359523      12.59800000        7       0.00000000       0.00000000       0.00000000       0.00000004       0.00015532       0.42177615      -0.00080357       0.01264225       0.62078342
Cu       1.81500000       1.28339881      13.89700000        6       0.00000000       0.00000000       0.00000000      -0.00022683       0.00009041      -0.15920623       0.02430265       0.00082739      -0.19846960
Cu       5.44500000       1.28339881      13.89700000        6       0.00000000       0.00000000       0.00000000       0.00022595       0.00008877      -0.15920394      -0.02460420      -0.00071826      -0.19215953
Cu       1.81500000       3.85019642      13.89700000        6       0.00000000       0.00000000       0.00000000      -0.00038750      -0.00030452      -0.16005378       0.02339482      -0.00224673      -0.19383863
Cu       5.44500000       3.85019642      13.89700000        6       0.00000000       0.00000000       0.00000000       0.00038610      -0.00030302      -0.16005276      -0.02258878       0.00311122      -0.18800154
Cu       1.81500000       6.41699404      13.89700000        6       0.00000000       0.00000000       0.00000000      -0.00003901       0.00026416      -0.16014005       0.02288582      -0.00218935      -0.17104383
Cu       5.44500000       6.41699404      13.89700000        6       0.00000000       0.00000000       0.00000000       0.00003923       0.00026450      -0.16014223      -0.02025297       0.00696607      -0.16879529
Cu       0.00000000       0.00000000      15.19600000        5       0.00000000       0.00000000       0.00000000      -0.00000068       0.00071538      -0.06243817      -0.00024040       0.03836779       0.03061552
Cu       3.63000000       0.00000000      15.19600000        5       0.00000000       0.00000000       0.00000000       0.00000471       0.00180197      -0.05752107       0.00407168      -0.00584028       0.04270286
Cu       0.00000000       2.56679762      15.19600000        5       0.00000000       0.00000000       0.00000000      -0.00000066       0.00093842      -0.06215943       0.00095611      -0.00752079       0.10532041
Cu       3.63000000       2.56679762      15.19600000        5       0.00000000       0.00000000       0.00000000       0.00000388      -0.00071459      -0.05546671       0.00284386       0.00330883      -0.00251647
Cu       0.00000000       5.13359523      15.19600000        5       0.00000000       0.00000000       0.00000000       0.00000066      -0.00152757      -0.05922213      -0.00396065      -0.03078179       0.03009539
Cu       3.63000000       5.13359523      15.19600000        5       0.00000000       0.00000000       0.00000000       0.00000320      -0.00087843      -0.05661467      -0.00249486       0.00115257       0.01066550
Cu       1.81500000       1.28339881      16.49500000        4       0.00000000       0.00000000       0.00000000       0.00102264       0.00278032      -0.11731386       0.02497570       0.00124619      -0.23149433
Cu       5.44500000       1.28339881      16.49500000        4       0.00000000       0.00000000       0.00000000      -0.00100309       0.00277903      -0.11721969      -0.02406201       0.00151055      -0.20378752
Cu       1.81500000       3.85019642      16.49500000        4       0.00000000       0.00000000       0.00000000       0.00504832       0.00200166      -0.11189502       0.01901242       0.00625108      -0.16883032
Cu       5.44500000       3.85019642      16.49500000        4       0.00000000       0.00000000       0.00000000      -0.00503772       0.00200438      -0.11178487      -0.01007620      -0.00558406      -0.15863098
Cu       1.81500000       6.41699404      16.49500000        4       0.00000000       0.00000000       0.00000000       0.00429298      -0.00129282      -0.12954447      -0.03508920      -0.01606619      -0.19715394
Cu       5.44500000       6.41699404      16.49500000        4       0.00000000       0.00000000       0.00000000      -0.00428790      -0.00128103      -0.12964371       0.03177073      -0.01854529      -0.16005027
Cu       0.00000000       0.00000000      17.79400000        3       0.00000000       0.00000000       0.00000000       0.00007122      -0.02952130      -0.28123294      -0.00102236       0.17671794      -0.26486807
Cu       3.63000000       0.00000000      17.79400000        3       0.00000000       0.00000000       0.00000000       0.00014836       0.01744399      -0.37451516       0.02794530       0.06907605      -0.47950369
Cu       0.00000000       2.56679762      17.79400000        3       0.00000000       0.00000000       0.00000000       0.00011479      -0.00645390      -0.22304873      -0.00222144       0.02401876      -0.18545863
Cu       3.63000000       2.56679762      17.79400000        3       0.00000000       0.00000000       0.00000000       0.00021651      -0.01716088      -0.36156520       0.03680920       0.15066061      -0.47115297
Cu       0.00000000       5.13359523      17.79400000        3       0.00000000       0.00000000       0.00000000       0.00007328      -0.00595957      -0.38055265      -0.00412169       0.02314452      -0.06917920
Cu       3.63000000       5.13359523      17.79400000        3       0.00000000       0.00000000       0.00000000       0.00016078      -0.02756118      -0.38006320       0.02734045       0.02843009      -0.45101949
Cu       1.82947049       1.33527644      19.02507371        2       0.01098711       0.00759602       0.11407524       0.00004464       0.01060957       0.09923922       0.04287605      -0.00887999      -0.07915903
Cu       5.43941826       1.33181216      19.03721473        2      -0.00724834       0.00388485       0.12052704      -0.00006697       0.01059386       0.09914589      -0.06725412      -0.01985291      -0.08375962
Cu       1.80181514       3.90936954      19.04398370        2       0.01211881       0.00290827       0.11759889      -0.00274407       0.00796860       0.10373897      -0.03338440       0.00459436       0.07442169
Cu       5.46315716       3.90959771      19.05172867        2      -0.01638012       0.00151132       0.11062097       0.00262506       0.00803866       0.10361893       0.00765389       0.00513429       0.04482431
Cu       1.81875084       6.45912669      19.01432316        2       0.00668731       0.00102680       0.11890240      -0.00140203       0.00420356       0.09839746       0.05950776      -0.01463014      -0.01109721
Cu       5.44714553       6.46303372      19.02989136        2      -0.00746930       0.00552828       0.11628188       0.00142104       0.00423963       0.09835207      -0.04444903      -0.00485266       0.05588972
Cu       0.01625570       0.19302398      20.23833910        1       0.01489340       0.00474798       0.17497941       0.00004000       0.00860619       0.14274682       0.04392225      -0.20236331       0.23325421
Cu       3.62668404       0.04684690      20.22484646        1      -0.00475098       0.01315271       0.14636115      -0.00002015       0.00252742       0.11837160       0.00874690       0.01356566      -0.06490068
Cu       0.01441592       2.69396317      20.28096758        1      -0.00474373      -0.00040010       0.13834259      -0.00017140      -0.00533259       0.16685886       0.00819355       0.11370655      -0.46778716
Cu       3.63029764       2.62166187      20.22266118        1      -0.00194950       0.01783265       0.15071688      -0.00008180       0.01320092       0.11930561      -0.01244105       0.01507272      -0.05045786
Cu      -0.00661193       5.24704973      20.34777964        1      -0.01634576      -0.05422873       0.10194359      -0.00005270       0.00079805       0.12888788       0.03346315      -0.08001064       0.04506634
Cu       3.62957746       5.18318656      20.22268824        1       0.00196964       0.01508732       0.15082227      -0.00010797       0.00682300       0.11913722       0.01200767       0.00581118      -0.02536787
O        0.18786289       6.66271295      21.72299647        0      -0.01388432      -0.13689526      -0.01037184      -0.00041156      -0.01592458       0.01424090      -0.14307123      -0.19883283       0.01217804
C       -0.09745878       2.09695884      21.99082589        0      -0.01999220      -0.00685088       0.06755515      -0.00007043       0.05269624       0.06192348       0.00137279      -0.25947751      -0.20637171
H       -0.60958413       6.80690338      22.26497469        0      -0.01012058      -0.17569292      -0.02433424       0.00058760      -0.00686929      -0.00747315      -0.01739323       0.37404184       0.66729578
O       -0.18980106       2.02101835      23.14553281        0      -0.01105820      -0.03849741       0.02350841      -0.00041770      -0.04038631       0.03143877       0.00361652      -0.19579650       0.08304916
46
Lattice="7.26 0.0 0.0 0.0 7.700392847121503 0.0 0.0 0.0 30.391999999999996" Properties=species:S:1:pos:R:3:tags:I:1:MACE_forces:R:3:forces:R:3:DFT_forces:R:3 method=neb MACE_energy=-186.81049359520011 energy=-186.97781233356525 stress="0.006651952307557245 -3.2073154882963493e-07 1.4710622538436238e-06 -3.2073154882963493e-07 0.007771409437050713 -2.2644539661852852e-05 1.4710622538436238e-06 -2.2644539661852852e-05 0.002609307520851428" free_energy=-186.97781233356525 DFT_energy=-191.48766252 pbc="T T T"
Cu       0.00000000       0.00000000      12.59800000        7       0.00000000       0.00000000       0.00000000      -0.00000029       0.00006157       0.42267225      -0.00115537      -0.00773135       0.61899104
Cu       3.63000000       0.00000000      12.59800000        7       0.00000000       0.00000000       0.00000000       0.00000011      -0.00011203       0.42221863       0.00059144      -0.00325019       0.62856987
Cu       0.00000000       2.56679762      12.59800000        7       0.00000000       0.00000000       0.00000000      -0.00000051      -0.00005019       0.42237447       0.00129833       0.00930493       0.63121963
Cu       3.63000000       2.56679762      12.59800000        7       0.00000000       0.00000000       0.00000000       0.00000020      -0.00004698       0.42177359      -0.00006630      -0.00854306       0.63189251
Cu       0.00000000       5.13359523      12.59800000        7       0.00000000       0.00000000       0.00000000      -0.00000027      -0.00001481       0.42185505       0.00087619       0.00319112       0.60664156
Cu       3.63000000       5.13359523      12.59800000        7       0.00000000       0.00000000       0.00000000       0.00000004       0.00015532       0.42177615      -0.00154795       0.01429701       0.62638542
Cu       1.81500000       1.28339881      13.89700000        6       0.00000000       0.00000000       0.00000000      -0.00022683       0.00009041      -0.15920623       0.02346695       0.00013298      -0.19603568
Cu       5.44500000       1.28339881      13.89700000        6       0.00000000       0.00000000       0.00000000       0.00022595       0.00008877      -0.15920394      -0.02194525      -0.00004670      -0.19318011
Cu       1.81500000       3.85019642      13.89700000        6       0.00000000       0.00000000       0.00000000      -0.00038750      -0.00030452      -0.16005378       0.01928403      -0.00188916      -0.19403544
Cu       5.44500000       3.85019642      13.89700000        6       0.00000000       0.00000000       0.00000000       0.00038610      -0.00030302      -0.16005276      -0.01883776       0.00287237      -0.18930597
Cu       1.81500000       6.41699404      13.89700000        6       0.00000000       0.00000000       0.00000000      -0.00003901       0.00026416      -0.16014005       0.02154362      -0.00308307      -0.17686086
Cu       5.44500000       6.41699404      13.89700000        6       0.00000000       0.00000000       0.00000000       0.00003923       0.00026450      -0.16014223      -0.02003347       0.00740681      -0.17289386
Cu       0.00000000       0.00000000      15.19600000        5       0.00000000       0.00000000       0.00000000      -0.00000068       0.00071538      -0.06243817       0.00015207       0.03658651       0.03118990
Cu       3.63000000       0.00000000      15.19600000        5       0.00000000       0.00000000       0.00000000       0.00000471       0.00180197      -0.05752107       0.00317079      -0.00768776       0.04636244
Cu       0.00000000       2.56679762      15.19600000        5       0.00000000       0.00000000       0.00000000      -0.00000066       0.00093842      -0.06215943       0.00130380      -0.00708085       0.08963081
Cu       3.63000000       2.56679762      15.19600000        5       0.00000000       0.00000000       0.00000000       0.00000388      -0.00071459      -0.05546671       0.00209049       0.00506069      -0.00132736
Cu       0.00000000       5.13359523      15.19600000        5       0.00000000       0.00000000       0.00000000       0.00000066      -0.00152757      -0.05922213      -0.00335231      -0.02918954       0.03396662
Cu       3.63000000       5.13359523      15.19600000        5       0.00000000       0.00000000       0.00000000       0.00000320      -0.00087843      -0.05661467      -0.00204104       0.00079254       0.00583517
Cu       1.81500000       1.28339881      16.49500000        4       0.00000000       0.00000000       0.00000000       0.00102264       0.00278032      -0.11731386       0.02356729       0.00419730      -0.22668898
Cu       5.44500000       1.28339881      16.49500000        4       0.00000000       0.00000000       0.00000000      -0.00100309       0.00277903      -0.11721969      -0.02527778       0.00476452      -0.21018432
Cu       1.81500000       3.85019642      16.49500000        4       0.00000000       0.00000000       0.00000000       0.00504832       0.00200166      -0.11189502       0.01413124       0.00620889      -0.15069321
Cu       5.44500000       3.85019642      16.49500000        4       0.00000000       0.00000000       0.00000000      -0.00503772       0.00200438      -0.11178487      -0.00566361      -0.00646216      -0.13840410
Cu       1.81500000       6.41699404      16.49500000        4       0.00000000       0.00000000       0.00000000       0.00429298      -0.00129282      -0.12954447      -0.03217961      -0.01835740      -0.20752096
Cu       5.44500000       6.41699404      16.49500000        4       0.00000000       0.00000000       0.00000000      -0.00428790      -0.00128103      -0.12964371       0.02963747      -0.02000061      -0.16247568
Cu       0.00000000       0.00000000      17.79400000        3       0.00000000       0.00000000       0.00000000       0.00007122      -0.02952130      -0.28123294      -0.00758377       0.16250030      -0.31915625
Cu       3.63000000       0.00000000      17.79400000        3       0.00000000       0.00000000       0.00000000       0.00014836       0.01744399      -0.37451516       0.03263753       0.06720114      -0.48327784
Cu       0.00000000       2.56679762      17.79400000        3       0.00000000       0.00000000       0.00000000       0.00011479      -0.00645390      -0.22304873      -0.00607683       0.01955996      -0.16946177
Cu       3.63000000       2.56679762      17.79400000        3       0.00000000       0.00000000       0.00000000       0.00021651      -0.01716088      -0.36156520       0.02161161       0.16688611      -0.45850107
Cu       0.00000000       5.13359523      17.79400000        3       0.00000000       0.00000000       0.00000000       0.00007328      -0.00595957      -0.38055265       0.00101269       0.03726355      -0.00892767
Cu       3.63000000       5.13359523      17.79400000        3       0.00000000       0.00000000       0.00000000       0.00016078      -0.02756118      -0.38006320       0.03250666       0.00266933      -0.43983020
Cu       1.82765033       1.33187442      19.02688760        2       0.01527405       0.02166215       0.11400409       0.00004464       0.01060957       0.09923922       0.06780684       0.00153319      -0.09598838
Cu       5.43561708       1.33207726      19.03313784        2      -0.00677040       0.01595761       0.12146297      -0.00006697       0.01059386       0.09914589      -0.07395518       0.00326161      -0.08911838
Cu       1.79430216       3.90823399      19.04901537        2       0.00801834       0.02067305       0.12151758      -0.00274407       0.00796860       0.10373897      -0.04451572       0.02374406       0.09727599
Cu       5.47160238       3.90986843      19.05886694        2      -0.00893462       0.01969798       0.11925410       0.00262506       0.00803866       0.10361893       0.02668887       0.02062225       0.07110033
Cu       1.82429181       6.45711492      19.01182489        2      -0.00547718       0.00993844       0.12201847      -0.00140203       0.00420356       0.09839746       0.02435195      -0.00604207       0.01092309
Cu       5.44402856       6.45414674      19.03013955        2       0.00280345       0.02012179       0.11854902       0.00142104       0.00423963       0.09835207      -0.01769705       0.01373015       0.06571348
Cu      -0.00008648       0.18185435      20.21431187        1       0.03764684       0.08921452       0.21526373       0.00004000       0.00860619       0.14274682       0.07006454      -0.08843652       0.29519913
Cu       3.62919606       0.04336935      20.22597055        1      -0.00519053       0.01092302       0.14334280      -0.00002015       0.00252742       0.11837160       0.00360197       0.01435751      -0.07714576
Cu       0.01506505       2.69234247      20.29359655        1      -0.00225758       0.05337129       0.13498084      -0.00017140      -0.00533259       0.16685886       0.00796582       0.15125357      -0.37771559
Cu       3.62896614       2.61828010      20.22173584        1      -0.00068625       0.02445656       0.14778220      -0.00008180       0.01320092       0.11930561      -0.00727172       0.01943940      -0.05456553
Cu       0.01685039       5.30161664      20.38448553        1      -0.04710281      -0.06228516       0.14056222      -0.00005270       0.00079805       0.12888788      -0.02102545      -0.12969609       0.06630046
Cu       3.62613423       5.17643963      20.22401449        1       0.00203953       0.01770111       0.14826054      -0.00010797       0.00682300       0.11913722       0.01357646       0.01199329      -0.02860883
O        0.18107591       6.77833408      21.77960722        0      -0.04517144      -0.38794309      -0.11279607      -0.00041156      -0.01592458       0.01424090      -0.15496706      -0.49615301      -0.08972622
C       -0.07401212       2.00172549      21.98903268        0      -0.03596726       0.10436654       0.08729959      -0.00007043       0.05269624       0.06192348       0.02108005      -0.34165644      -0.23460432
H       -0.62811289       6.93222155      22.30310737        0       0.02679389      -0.22340249      -0.06278333       0.00058760      -0.00686929      -0.00747315      -0.04080232       0.59483168       0.54392545
O       -0.17455305       1.96909097      23.14536368        0       0.00404881      -0.05669547      -0.01326416      -0.00041770      -0.04038631       0.03143877       0.04197685      -0.23035677       0.04511145
46
Lattice="7.26 0.0 0.0 0.0 7.700392847121503 0.0 0.0 0.0 30.391999999999996" Properties=species:S:1:pos:R:3:tags:I:1:MACE_forces:R:3:forces:R:3:DFT_forces:R:3 method=neb MACE_energy=-186.6815272002958 energy=-186.97781233356525 stress="0.006651952307557245 -3.2073154882963493e-07 1.4710622538436238e-06 -3.2073154882963493e-07 0.007771409437050713 -2.2644539661852852e-05 1.4710622538436238e-06 -2.2644539661852852e-05 0.002609307520851428" free_energy=-186.97781233356525 DFT_energy=-191.31714946 pbc="T T T"
Cu       0.00000000       0.00000000      12.59800000        7       0.00000000       0.00000000       0.00000000      -0.00000029       0.00006157       0.42267225      -0.00171593      -0.00770158       0.62090659
Cu       3.63000000       0.00000000      12.59800000        7       0.00000000       0.00000000       0.00000000       0.00000011      -0.00011203       0.42221863       0.00047605      -0.00368551       0.62815437
Cu       0.00000000       2.56679762      12.59800000        7       0.00000000       0.00000000       0.00000000      -0.00000051      -0.00005019       0.42237447       0.00093503       0.00989775       0.62986677
Cu       3.63000000       2.56679762      12.59800000        7       0.00000000       0.00000000       0.00000000       0.00000020      -0.00004698       0.42177359      -0.00012403      -0.01097885       0.63208153
Cu       0.00000000       5.13359523      12.59800000        7       0.00000000       0.00000000       0.00000000      -0.00000027      -0.00001481       0.42185505       0.00134544       0.00073571       0.60805076
Cu       3.63000000       5.13359523      12.59800000        7       0.00000000       0.00000000       0.00000000       0.00000004       0.00015532       0.42177615      -0.00176806       0.01600802       0.62609403
Cu       1.81500000       1.28339881      13.89700000        6       0.00000000       0.00000000       0.00000000      -0.00022683       0.00009041      -0.15920623       0.02329863      -0.00072620      -0.19388691
Cu       5.44500000       1.28339881      13.89700000        6       0.00000000       0.00000000       0.00000000       0.00022595       0.00008877      -0.15920394      -0.02076352      -0.00063325      -0.19214858
Cu       1.81500000       3.85019642      13.89700000        6       0.00000000       0.00000000       0.00000000      -0.00038750      -0.00030452      -0.16005378       0.01662989      -0.00117266      -0.19244554
Cu       5.44500000       3.85019642      13.89700000        6       0.00000000       0.00000000       0.00000000       0.00038610      -0.00030302      -0.16005276      -0.01619267       0.00276896      -0.18735597
Cu       1.81500000       6.41699404      13.89700000        6       0.00000000       0.00000000       0.00000000      -0.00003901       0.00026416      -0.16014005       0.02129865      -0.00459442      -0.17873294
Cu       5.44500000       6.41699404      13.89700000        6       0.00000000       0.00000000       0.00000000       0.00003923       0.00026450      -0.16014223      -0.02107314       0.00723239      -0.17501917
Cu       0.00000000       0.00000000      15.19600000        5       0.00000000       0.00000000       0.00000000      -0.00000068       0.00071538      -0.06243817      -0.00025355       0.03377423       0.03208183
Cu       3.63000000       0.00000000      15.19600000        5       0.00000000       0.00000000       0.00000000       0.00000471       0.00180197      -0.05752107       0.00329479      -0.00627935       0.04849635
Cu       0.00000000       2.56679762      15.19600000        5       0.00000000       0.00000000       0.00000000      -0.00000066       0.00093842      -0.06215943       0.00087806      -0.00555744       0.07877591
Cu       3.63000000       2.56679762      15.19600000        5       0.00000000       0.00000000       0.00000000       0.00000388      -0.00071459      -0.05546671       0.00164514       0.00396251      -0.00311794
Cu       0.00000000       5.13359523      15.19600000        5       0.00000000       0.00000000       0.00000000       0.00000066      -0.00152757      -0.05922213      -0.00248074      -0.02879865       0.03576597
Cu       3.63000000       5.13359523      15.19600000        5       0.00000000       0.00000000       0.00000000       0.00000320      -0.00087843      -0.05661467      -0.00204009      -0.00118988      -0.00021044
Cu       1.81500000       1.28339881      16.49500000        4       0.00000000       0.00000000       0.00000000       0.00102264       0.00278032      -0.11731386       0.02174056       0.00651966      -0.22175500
Cu       5.44500000       1.28339881      16.49500000        4       0.00000000       0.00000000       0.00000000      -0.00100309       0.00277903      -0.11721969      -0.02612162       0.00592583      -0.21339251
Cu       1.81500000       3.85019642      16.49500000        4       0.00000000       0.00000000       0.00000000       0.00504832       0.00200166      -0.11189502       0.01112329       0.00669389      -0.14650589
Cu       5.44500000       3.85019642      16.49500000        4       0.00000000       0.00000000       0.00000000      -0.00503772       0.00200438      -0.11178487      -0.00395279      -0.00551161      -0.13250252
Cu       1.81500000       6.41699404      16.49500000        4       0.00000000       0.00000000       0.00000000       0.00429298      -0.00129282      -0.12954447      -0.02901774      -0.01929430      -0.21304567
Cu       5.44500000       6.41699404      16.49500000        4       0.00000000       0.00000000       0.00000000      -0.00428790      -0.00128103      -0.12964371       0.02710020      -0.02123100      -0.16807304
Cu       0.00000000       0.00000000      17.79400000        3       0.00000000       0.00000000       0.00000000       0.00007122      -0.02952130      -0.28123294      -0.00991222       0.14367672      -0.37417862
Cu       3.63000000       0.00000000      17.79400000        3       0.00000000       0.00000000       0.00000000       0.00014836       0.01744399      -0.37451516       0.03127137       0.06558699      -0.48566974
Cu       0.00000000       2.56679762      17.79400000        3       0.00000000       0.00000000       0.00000000       0.00011479      -0.00645390      -0.22304873      -0.00634363       0.01611387      -0.15412859
Cu       3.63000000       2.56679762      17.79400000        3       0.00000000       0.00000000       0.00000000       0.00021651      -0.01716088      -0.36156520       0.01267448       0.15462422      -0.44748852
Cu       0.00000000       5.13359523      17.79400000        3       0.00000000       0.00000000       0.00000000       0.00007328      -0.00595957      -0.38055265       0.00303046       0.03545085      -0.00660730
Cu       3.63000000       5.13359523      17.79400000        3       0.00000000       0.00000000       0.00000000       0.00016078      -0.02756118      -0.38006320       0.03208164      -0.01543609      -0.43930873
Cu       1.82458103       1.32424485      19.02893323        2       0.01958478       0.02847978       0.11111539       0.00004464       0.01060957       0.09923922       0.08601633       0.01035956      -0.10681728
Cu       5.43580178       1.32639809      19.03195663        2      -0.01628406       0.02654750       0.11494739      -0.00006697       0.01059386       0.09914589      -0.09079716       0.02567193      -0.09903535
Cu       1.79381177       3.90047933      19.04978323        2      -0.01456452       0.03525616       0.13569793      -0.00274407       0.00796860       0.10373897      -0.06876494       0.03071294       0.11480613
Cu       5.47270180       3.90247159      19.05986632        2       0.01305860       0.03371851       0.13438057       0.00262506       0.00803866       0.10361893       0.06350152       0.02891083       0.10289297
Cu       1.82850580       6.45277525      19.01187493        2      -0.00137311       0.00834921       0.10826576      -0.00140203       0.00420356       0.09839746       0.01631870      -0.00393494       0.00863708
Cu       5.44017244       6.44632219      19.03000594        2       0.00475033       0.01193332       0.11445338       0.00142104       0.00423963       0.09835207      -0.00662335       0.00737137       0.06478539
Cu      -0.01267027       0.14926597      20.19532389        1       0.03177958       0.19347267       0.21600063       0.00004000       0.00860619       0.14274682       0.07542078       0.02421963       0.27372621
Cu       3.63006746       0.03918520      20.22666648        1      -0.00269695       0.00610601       0.14354279      -0.00002015       0.00252742       0.11837160       0.00523388       0.00937290      -0.07727614
Cu       0.01592443       2.66904663      20.30226297        1      -0.00070580       0.09725475       0.13110842      -0.00017140      -0.00533259       0.16685886       0.00212378       0.18142902      -0.34965751
Cu       3.62893040       2.61203325      20.22125849        1      -0.00149058       0.02401687       0.14832420      -0.00008180       0.01320092       0.11930561      -0.00681668       0.01496987      -0.05107641
Cu       0.03308706       5.31878042      20.38040560        1      -0.01779408       0.10396096       0.35781073      -0.00005270       0.00079805       0.12888788      -0.00889630      -0.08556108       0.16509597
Cu       3.62497686       5.16977346      20.22426519        1      -0.00022392       0.01205976       0.15061653      -0.00010797       0.00682300       0.11913722       0.01232647       0.01307158      -0.02316951
O        0.18700272       6.90302830      21.83585263        0      -0.10301916      -0.85096408      -0.29742513      -0.00041156      -0.01592458       0.01424090      -0.17881048      -0.88764086      -0.15077841
C       -0.05545951       1.93932097      21.99838023        0      -0.04349014       0.25105018       0.06956480      -0.00007043       0.05269624       0.06192348       0.03208649      -0.40964837      -0.20534362
H       -0.65372774       6.99157009      22.32459137        0       0.05984205      -0.17439145      -0.07742347       0.00058760      -0.00686929      -0.00747315      -0.06768011       0.83837509       0.47844720
O       -0.16604866       1.97185868      23.15292677        0       0.01613178      -0.08802797      -0.00732707      -0.00041770      -0.04038631       0.03143877       0.06829710      -0.17386030       0.04006279
46
Lattice="7.26 0.0 0.0 0.0 7.700392847121503 0.0 0.0 0.0 30.391999999999996" Properties=species:S:1:pos:R:3:tags:I:1:MACE_forces:R:3:forces:R:3:DFT_forces:R:3 method=neb MACE_energy=-186.49003981056998 energy=-186.97781233356525 stress="0.006651952307557245 -3.2073154882963493e-07 1.4710622538436238e-06 -3.2073154882963493e-07 0.007771409437050713 -2.2644539661852852e-05 1.4710622538436238e-06 -2.2644539661852852e-05 0.002609307520851428" free_energy=-186.97781233356525 DFT_energy=-191.12521115 pbc="T T T"
Cu       0.00000000       0.00000000      12.59800000        7       0.00000000       0.00000000       0.00000000      -0.00000029       0.00006157       0.42267225      -0.00159024      -0.00726223       0.62165042
Cu       3.63000000       0.00000000      12.59800000        7       0.00000000       0.00000000       0.00000000       0.00000011      -0.00011203       0.42221863       0.00035466      -0.00315579       0.62661204
Cu       0.00000000       2.56679762      12.59800000        7       0.00000000       0.00000000       0.00000000      -0.00000051      -0.00005019       0.42237447       0.00061529       0.01069836       0.62749791
Cu       3.63000000       2.56679762      12.59800000        7       0.00000000       0.00000000       0.00000000       0.00000020      -0.00004698       0.42177359      -0.00038369      -0.01279618       0.63134460
Cu       0.00000000       5.13359523      12.59800000        7       0.00000000       0.00000000       0.00000000      -0.00000027      -0.00001481       0.42185505       0.00161311      -0.00165186       0.60805916
Cu       3.63000000       5.13359523      12.59800000        7       0.00000000       0.00000000       0.00000000       0.00000004       0.00015532       0.42177615      -0.00144106       0.01657233       0.62499425
Cu       1.81500000       1.28339881      13.89700000        6       0.00000000       0.00000000       0.00000000      -0.00022683       0.00009041      -0.15920623       0.02289238      -0.00207178      -0.19168148
Cu       5.44500000       1.28339881      13.89700000        6       0.00000000       0.00000000       0.00000000       0.00022595       0.00008877      -0.15920394      -0.02036158      -0.00102799      -0.19099500
Cu       1.81500000       3.85019642      13.89700000        6       0.00000000       0.00000000       0.00000000      -0.00038750      -0.00030452      -0.16005378       0.01400870      -0.00014614      -0.19052867
Cu       5.44500000       3.85019642      13.89700000        6       0.00000000       0.00000000       0.00000000       0.00038610      -0.00030302      -0.16005276      -0.01357927       0.00345128      -0.18621104
Cu       1.81500000       6.41699404      13.89700000        6       0.00000000       0.00000000       0.00000000      -0.00003901       0.00026416      -0.16014005       0.02069331      -0.00503360      -0.17990125
Cu       5.44500000       6.41699404      13.89700000        6       0.00000000       0.00000000       0.00000000       0.00003923       0.00026450      -0.16014223      -0.02119377       0.00660124      -0.17522807
Cu       0.00000000       0.00000000      15.19600000        5       0.00000000       0.00000000       0.00000000      -0.00000068       0.00071538      -0.06243817      -0.00009046       0.03141145       0.03356802
Cu       3.63000000       0.00000000      15.19600000        5       0.00000000       0.00000000       0.00000000       0.00000471       0.00180197      -0.05752107       0.00359137      -0.00469054       0.05073270
Cu       0.00000000       2.56679762      15.19600000        5       0.00000000       0.00000000       0.00000000      -0.00000066       0.00093842      -0.06215943       0.00020213      -0.00382508       0.07148953
Cu       3.63000000       2.56679762      15.19600000        5       0.00000000       0.00000000       0.00000000       0.00000388      -0.00071459      -0.05546671       0.00072490       0.00323841      -0.00425398
Cu       0.00000000       5.13359523      15.19600000        5       0.00000000       0.00000000       0.00000000       0.00000066      -0.00152757      -0.05922213      -0.00178562      -0.02842561       0.04006743
Cu       3.63000000       5.13359523      15.19600000        5       0.00000000       0.00000000       0.00000000       0.00000320      -0.00087843      -0.05661467      -0.00178485      -0.00267108      -0.00418754
Cu       1.81500000       1.28339881      16.49500000        4       0.00000000       0.00000000       0.00000000       0.00102264       0.00278032      -0.11731386       0.01933282       0.00808890      -0.21878509
Cu       5.44500000       1.28339881      16.49500000        4       0.00000000       0.00000000       0.00000000      -0.00100309       0.00277903      -0.11721969      -0.02463707       0.00638804      -0.21181640
Cu       1.81500000       3.85019642      16.49500000        4       0.00000000       0.00000000       0.00000000       0.00504832       0.00200166      -0.11189502       0.00898178       0.00680941      -0.15028640
Cu       5.44500000       3.85019642      16.49500000        4       0.00000000       0.00000000       0.00000000      -0.00503772       0.00200438      -0.11178487      -0.00365565      -0.00383349      -0.13365389
Cu       1.81500000       6.41699404      16.49500000        4       0.00000000       0.00000000       0.00000000       0.00429298      -0.00129282      -0.12954447      -0.02547367      -0.01976882      -0.21393679
Cu       5.44500000       6.41699404      16.49500000        4       0.00000000       0.00000000       0.00000000      -0.00428790      -0.00128103      -0.12964371       0.02332010      -0.02253122      -0.17387218
Cu       0.00000000       0.00000000      17.79400000        3       0.00000000       0.00000000       0.00000000       0.00007122      -0.02952130      -0.28123294      -0.00958864       0.13316658      -0.39992006
Cu       3.63000000       0.00000000      17.79400000        3       0.00000000       0.00000000       0.00000000       0.00014836       0.01744399      -0.37451516       0.02748333       0.06429054      -0.48510655
Cu       0.00000000       2.56679762      17.79400000        3       0.00000000       0.00000000       0.00000000       0.00011479      -0.00645390      -0.22304873      -0.00551947       0.01661198      -0.14695754
Cu       3.63000000       2.56679762      17.79400000        3       0.00000000       0.00000000       0.00000000       0.00021651      -0.01716088      -0.36156520       0.01257999       0.14023800      -0.44231223
Cu       0.00000000       5.13359523      17.79400000        3       0.00000000       0.00000000       0.00000000       0.00007328      -0.00595957      -0.38055265       0.00146226       0.03252575      -0.06096053
Cu       3.63000000       5.13359523      17.79400000        3       0.00000000       0.00000000       0.00000000       0.00016078      -0.02756118      -0.38006320       0.02890095      -0.01744905      -0.44308517
Cu       1.82274831       1.32001011      19.03000251        2       0.01713576       0.02297672       0.11049616       0.00004464       0.01060957       0.09923922       0.08993650       0.01126577      -0.10849249
Cu       5.43725503       1.32243694      19.03234474        2      -0.01855103       0.02441632       0.11233473      -0.00006697       0.01059386       0.09914589      -0.09538973       0.03093300      -0.09958188
Cu       1.79685632       3.89500810      19.04796559        2      -0.02163820       0.03278760       0.14051476      -0.00274407       0.00796860       0.10373897      -0.07559233       0.01690728       0.11880541
Cu       5.46992367       3.89722024      19.05805361        2       0.01977171       0.03167797       0.13850337       0.00262506       0.00803866       0.10361893       0.08117922       0.02111814       0.11882277
Cu       1.82973541       6.45074455      19.01389875        2       0.00523533       0.00374646       0.10374279      -0.00140203       0.00420356       0.09839746       0.02102311      -0.00576830       0.00544464
Cu       5.43815753       6.44392988      19.03051734        2      -0.00023136       0.00200690       0.11320020       0.00142104       0.00423963       0.09835207      -0.01441534      -0.00447275       0.05914138
Cu      -0.01730256       0.11916526      20.18620951        1       0.00609014       0.20108780       0.18782361       0.00004000       0.00860619       0.14274682       0.05431090       0.02529560       0.20583255
Cu       3.63014679       0.03786216      20.22691110        1      -0.00242312       0.00361911       0.14313370      -0.00002015       0.00252742       0.11837160       0.00653465       0.00646916      -0.07362450
Cu       0.01607008       2.65319146      20.30607073        1      -0.00056175       0.08224254       0.14510175      -0.00017140      -0.00533259       0.16685886       0.00352921       0.15855141      -0.32032461
Cu       3.62905028       2.60917951      20.22108720        1      -0.00104069       0.02077260       0.14989908      -0.00008180       0.01320092       0.11930561      -0.00613108       0.00831214      -0.04713766
Cu       0.03516114       5.30142768      20.34705366        1       0.01942858       0.21639886       0.44210445      -0.00005270       0.00079805       0.12888788       0.01054353      -0.05260894       0.16842992
Cu       3.62487348       5.16759950      20.22419269        1      -0.00124243       0.00637701       0.15233273      -0.00010797       0.00682300       0.11913722       0.01216561       0.01101076      -0.01787520
O        0.19925740       7.03026181      21.88960634        0      -0.07344640      -0.99411154      -0.34760323      -0.00041156      -0.01592458       0.01424090      -0.13247348      -1.05068068      -0.11535847
C       -0.04698448       1.89395132      22.00556102        0      -0.03024257       0.27823830       0.00410862      -0.00007043       0.05269624       0.06192348       0.02377103      -0.40721807      -0.09453946
H       -0.66668846       7.01385651      22.33861838        0       0.01097132      -0.09841105      -0.04657329       0.00058760      -0.00686929      -0.00747315      -0.06455184       0.97529604       0.38803914
O       -0.16452380       1.98041446      23.15526521        0       0.01776548      -0.09501842       0.05195164      -0.00041770      -0.04038631       0.03143877       0.02988797      -0.08816236       0.08008228
46
Lattice="7.26 0.0 0.0 0.0 7.700392847121503 0.0 0.0 0.0 30.391999999999996" Properties=species:S:1:pos:R:3:tags:I:1:MACE_forces:R:3:forces:R:3:DFT_forces:R:3 method=neb MACE_energy=-186.33518437400485 energy=-186.97781233356525 stress="0.006651952307557245 -3.2073154882963493e-07 1.4710622538436238e-06 -3.2073154882963493e-07 0.007771409437050713 -2.2644539661852852e-05 1.4710622538436238e-06 -2.2644539661852852e-05 0.002609307520851428" free_energy=-186.97781233356525 DFT_energy=-190.9404721 pbc="T T T"
Cu       0.00000000       0.00000000      12.59800000        7       0.00000000       0.00000000       0.00000000      -0.00000029       0.00006157       0.42267225      -0.00116385      -0.00690461       0.62355291
Cu       3.63000000       0.00000000      12.59800000        7       0.00000000       0.00000000       0.00000000       0.00000011      -0.00011203       0.42221863       0.00030726      -0.00178440       0.62696360
Cu       0.00000000       2.56679762      12.59800000        7       0.00000000       0.00000000       0.00000000      -0.00000051      -0.00005019       0.42237447       0.00055609       0.01204507       0.62709101
Cu       3.63000000       2.56679762      12.59800000        7       0.00000000       0.00000000       0.00000000       0.00000020      -0.00004698       0.42177359      -0.00065163      -0.01396722       0.63138892
Cu       0.00000000       5.13359523      12.59800000        7       0.00000000       0.00000000       0.00000000      -0.00000027      -0.00001481       0.42185505       0.00179170      -0.00436015       0.60823766
Cu       3.63000000       5.13359523      12.59800000        7       0.00000000       0.00000000       0.00000000       0.00000004       0.00015532       0.42177615      -0.00060870       0.01555638       0.62414445
Cu       1.81500000       1.28339881      13.89700000        6       0.00000000       0.00000000       0.00000000      -0.00022683       0.00009041      -0.15920623       0.02329011      -0.00413919      -0.19202267
Cu       5.44500000       1.28339881      13.89700000        6       0.00000000       0.00000000       0.00000000       0.00022595       0.00008877      -0.15920394      -0.02078963      -0.00197967      -0.19153437
Cu       1.81500000       3.85019642      13.89700000        6       0.00000000       0.00000000       0.00000000      -0.00038750      -0.00030452      -0.16005378       0.01205080       0.00064614      -0.19048201
Cu       5.44500000       3.85019642      13.89700000        6       0.00000000       0.00000000       0.00000000       0.00038610      -0.00030302      -0.16005276      -0.01149168       0.00423776      -0.18711516
Cu       1.81500000       6.41699404      13.89700000        6       0.00000000       0.00000000       0.00000000      -0.00003901       0.00026416      -0.16014005       0.02033579      -0.00454739      -0.18229411
Cu       5.44500000       6.41699404      13.89700000        6       0.00000000       0.00000000       0.00000000       0.00003923       0.00026450      -0.16014223      -0.02121012       0.00625391      -0.17739662
Cu       0.00000000       0.00000000      15.19600000        5       0.00000000       0.00000000       0.00000000      -0.00000068       0.00071538      -0.06243817       0.00014408       0.02929422       0.03471823
Cu       3.63000000       0.00000000      15.19600000        5       0.00000000       0.00000000       0.00000000       0.00000471       0.00180197      -0.05752107       0.00386373      -0.00315998       0.05164601
Cu       0.00000000       2.56679762      15.19600000        5       0.00000000       0.00000000       0.00000000      -0.00000066       0.00093842      -0.06215943      -0.00041511      -0.00233269       0.06718480
Cu       3.63000000       2.56679762      15.19600000        5       0.00000000       0.00000000       0.00000000       0.00000388      -0.00071459      -0.05546671      -0.00022310       0.00295327      -0.00407292
Cu       0.00000000       5.13359523      15.19600000        5       0.00000000       0.00000000       0.00000000       0.00000066      -0.00152757      -0.05922213      -0.00073116      -0.02823347       0.04571164
Cu       3.63000000       5.13359523      15.19600000        5       0.00000000       0.00000000       0.00000000       0.00000320      -0.00087843      -0.05661467      -0.00112087      -0.00474123      -0.00728352
Cu       1.81500000       1.28339881      16.49500000        4       0.00000000       0.00000000       0.00000000       0.00102264       0.00278032      -0.11731386       0.01661516       0.00866016      -0.21671083
Cu       5.44500000       1.28339881      16.49500000        4       0.00000000       0.00000000       0.00000000      -0.00100309       0.00277903      -0.11721969      -0.02227264       0.00566856      -0.20911926
Cu       1.81500000       3.85019642      16.49500000        4       0.00000000       0.00000000       0.00000000       0.00504832       0.00200166      -0.11189502       0.00702525       0.00731961      -0.15579758
Cu       5.44500000       3.85019642      16.49500000        4       0.00000000       0.00000000       0.00000000      -0.00503772       0.00200438      -0.11178487      -0.00337232      -0.00111370      -0.13665187
Cu       1.81500000       6.41699404      16.49500000        4       0.00000000       0.00000000       0.00000000       0.00429298      -0.00129282      -0.12954447      -0.02179351      -0.02043116      -0.21545587
Cu       5.44500000       6.41699404      16.49500000        4       0.00000000       0.00000000       0.00000000      -0.00428790      -0.00128103      -0.12964371       0.01977941      -0.02388780      -0.17837436
Cu       0.00000000       0.00000000      17.79400000        3       0.00000000       0.00000000       0.00000000       0.00007122      -0.02952130      -0.28123294      -0.00925505       0.12374709      -0.42068108
Cu       3.63000000       0.00000000      17.79400000        3       0.00000000       0.00000000       0.00000000       0.00014836       0.01744399      -0.37451516       0.02474973       0.06228862      -0.48347876
Cu       0.00000000       2.56679762      17.79400000        3       0.00000000       0.00000000       0.00000000       0.00011479      -0.00645390      -0.22304873      -0.00437670       0.01715311      -0.13980956
Cu       3.63000000       2.56679762      17.79400000        3       0.00000000       0.00000000       0.00000000       0.00021651      -0.01716088      -0.36156520       0.01533807       0.12665922      -0.43844303
Cu       0.00000000       5.13359523      17.79400000        3       0.00000000       0.00000000       0.00000000       0.00007328      -0.00595957      -0.38055265      -0.00084669       0.02916213      -0.14541191
Cu       3.63000000       5.13359523      17.79400000        3       0.00000000       0.00000000       0.00000000       0.00016078      -0.02756118      -0.38006320       0.02518963      -0.01765192      -0.44644897
Cu       1.82206793       1.31683870      19.03002244        2       0.01338343       0.01285607       0.11239171       0.00004464       0.01060957       0.09923922       0.08786152       0.00943913      -0.10204885
Cu       5.43840215       1.31901676      19.03279254        2      -0.01553806       0.01467718       0.11283115      -0.00006697       0.01059386       0.09914589      -0.08931578       0.02765804      -0.09203234
Cu       1.80007414       3.88979477      19.04606048        2      -0.01271989       0.02058843       0.13518565      -0.00274407       0.00796860       0.10373897      -0.06633784      -0.00190435       0.11485286
Cu       5.46678698       3.89215955      19.05577447        2       0.01186422       0.02046702       0.13358059       0.00262506       0.00803866       0.10361893       0.08111163       0.00691291       0.12383934
Cu       1.83044865       6.44855122      19.01538029        2       0.00669781      -0.00095911       0.11004284      -0.00140203       0.00420356       0.09839746       0.02247867      -0.00969054       0.01379065
Cu       5.43659746       6.44237792      19.03064337        2      -0.00406332      -0.00285540       0.11575186       0.00142104       0.00423963       0.09835207      -0.02435718      -0.01539740       0.05738648
Cu      -0.01718755       0.09074159      20.18122032        1      -0.01032389       0.11821679       0.15886860       0.00004000       0.00860619       0.14274682       0.04039967      -0.05345864       0.12960367
Cu       3.63003722       0.03685458      20.22722606        1      -0.00281153       0.00113525       0.14372211      -0.00002015       0.00252742       0.11837160       0.00720124       0.00419438      -0.07084468
Cu       0.01600629       2.63939677      20.30893138        1      -0.00093325       0.04821290       0.15764189      -0.00017140      -0.00533259       0.16685886       0.00596687       0.10468822      -0.27366846
Cu       3.62928796       2.60723326      20.22171439        1      -0.00064072       0.01611163       0.14969472      -0.00008180       0.01320092       0.11930561      -0.00597840      -0.00066533      -0.04803723
Cu       0.03188116       5.27073860      20.30762174        1       0.01929730       0.13432861       0.31325597      -0.00005270       0.00079805       0.12888788       0.01158097      -0.08091580       0.10827313
Cu       3.62508637       5.16602437      20.22449691        1      -0.00146972       0.00272077       0.15261514      -0.00010797       0.00682300       0.11913722       0.01262953       0.00777260      -0.02004182
O        0.20406343       7.15644450      21.94081954        0      -0.01535187      -0.59767905      -0.17067793      -0.00041156      -0.01592458       0.01424090      -0.08446001      -0.96384370      -0.02827654
C       -0.04115137       1.85039470      22.01400521        0      -0.00204167       0.12718564      -0.00519329      -0.00007043       0.05269624       0.06192348       0.00583991      -0.34492783       0.00498459
H       -0.67240260       7.02267335      22.34718442        0      -0.05422590      -0.07013554      -0.01284324       0.00058760      -0.00686929      -0.00747315      -0.05815164       1.02742327       0.34650814
O       -0.16417027       1.98969675      23.15769990        0       0.01899642      -0.08902599       0.07240002      -0.00041770      -0.04038631       0.03143877       0.00281679      -0.02969565       0.11365629
46
Lattice="7.26 0.0 0.0 0.0 7.700392847121503 0.0 0.0 0.0 30.391999999999996" Properties=species:S:1:pos:R:3:tags:I:1:MACE_forces:R:3:forces:R:3:DFT_forces:R:3 method=neb MACE_energy=-186.2606152592967 energy=-186.97781233356525 stress="0.006651952307557245 -3.2073154882963493e-07 1.4710622538436238e-06 -3.2073154882963493e-07 0.007771409437050713 -2.2644539661852852e-05 1.4710622538436238e-06 -2.2644539661852852e-05 0.002609307520851428" free_energy=-186.97781233356525 DFT_energy=-190.75841467 pbc="T T T"
Cu       0.00000000       0.00000000      12.59800000        7       0.00000000       0.00000000       0.00000000      -0.00000029       0.00006157       0.42267225      -0.00034570      -0.00837955       0.62245076
Cu       3.63000000       0.00000000      12.59800000        7       0.00000000       0.00000000       0.00000000       0.00000011      -0.00011203       0.42221863       0.00087347       0.00031048       0.62547811
Cu       0.00000000       2.56679762      12.59800000        7       0.00000000       0.00000000       0.00000000      -0.00000051      -0.00005019       0.42237447       0.00032111       0.01434799       0.62573774
Cu       3.63000000       2.56679762      12.59800000        7       0.00000000       0.00000000       0.00000000       0.00000020      -0.00004698       0.42177359      -0.00076797      -0.01475745       0.62824425
Cu       0.00000000       5.13359523      12.59800000        7       0.00000000       0.00000000       0.00000000      -0.00000027      -0.00001481       0.42185505       0.00173153      -0.00593804       0.60477729
Cu       3.63000000       5.13359523      12.59800000        7       0.00000000       0.00000000       0.00000000       0.00000004       0.00015532       0.42177615       0.00016378       0.01433411       0.62101255
Cu       1.81500000       1.28339881      13.89700000        6       0.00000000       0.00000000       0.00000000      -0.00022683       0.00009041      -0.15920623       0.02325064      -0.00535208      -0.19004915
Cu       5.44500000       1.28339881      13.89700000        6       0.00000000       0.00000000       0.00000000       0.00022595       0.00008877      -0.15920394      -0.02109005      -0.00300257      -0.19053067
Cu       1.81500000       3.85019642      13.89700000        6       0.00000000       0.00000000       0.00000000      -0.00038750      -0.00030452      -0.16005378       0.00898910       0.00157061      -0.18919916
Cu       5.44500000       3.85019642      13.89700000        6       0.00000000       0.00000000       0.00000000       0.00038610      -0.00030302      -0.16005276      -0.00845646       0.00505542      -0.18672262
Cu       1.81500000       6.41699404      13.89700000        6       0.00000000       0.00000000       0.00000000      -0.00003901       0.00026416      -0.16014005       0.01852186      -0.00398735      -0.18455633
Cu       5.44500000       6.41699404      13.89700000        6       0.00000000       0.00000000       0.00000000       0.00003923       0.00026450      -0.16014223      -0.01886291       0.00624597      -0.17978788
Cu       0.00000000       0.00000000      15.19600000        5       0.00000000       0.00000000       0.00000000      -0.00000068       0.00071538      -0.06243817       0.00039235       0.02782293       0.03765514
Cu       3.63000000       0.00000000      15.19600000        5       0.00000000       0.00000000       0.00000000       0.00000471       0.00180197      -0.05752107       0.00395971      -0.00101626       0.05047701
Cu       0.00000000       2.56679762      15.19600000        5       0.00000000       0.00000000       0.00000000      -0.00000066       0.00093842      -0.06215943      -0.00066081      -0.00184423       0.06036285
Cu       3.63000000       2.56679762      15.19600000        5       0.00000000       0.00000000       0.00000000       0.00000388      -0.00071459      -0.05546671      -0.00103913       0.00299888      -0.00213222
Cu       0.00000000       5.13359523      15.19600000        5       0.00000000       0.00000000       0.00000000       0.00000066      -0.00152757      -0.05922213       0.00134772      -0.02673675       0.05559843
Cu       3.63000000       5.13359523      15.19600000        5       0.00000000       0.00000000       0.00000000       0.00000320      -0.00087843      -0.05661467       0.00021761      -0.00635009      -0.01054064
Cu       1.81500000       1.28339881      16.49500000        4       0.00000000       0.00000000       0.00000000       0.00102264       0.00278032      -0.11731386       0.01186237       0.00696210      -0.21525577
Cu       5.44500000       1.28339881      16.49500000        4       0.00000000       0.00000000       0.00000000      -0.00100309       0.00277903      -0.11721969      -0.01802581       0.00440298      -0.20652401
Cu       1.81500000       3.85019642      16.49500000        4       0.00000000       0.00000000       0.00000000       0.00504832       0.00200166      -0.11189502       0.00521251       0.01031436      -0.16753109
Cu       5.44500000       3.85019642      16.49500000        4       0.00000000       0.00000000       0.00000000      -0.00503772       0.00200438      -0.11178487      -0.00403155       0.00304065      -0.14529645
Cu       1.81500000       6.41699404      16.49500000        4       0.00000000       0.00000000       0.00000000       0.00429298      -0.00129282      -0.12954447      -0.01688559      -0.02062367      -0.21659227
Cu       5.44500000       6.41699404      16.49500000        4       0.00000000       0.00000000       0.00000000      -0.00428790      -0.00128103      -0.12964371       0.01439008      -0.02393275      -0.18433833
Cu       0.00000000       0.00000000      17.79400000        3       0.00000000       0.00000000       0.00000000       0.00007122      -0.02952130      -0.28123294      -0.01237635       0.10672775      -0.40521024
Cu       3.63000000       0.00000000      17.79400000        3       0.00000000       0.00000000       0.00000000       0.00014836       0.01744399      -0.37451516       0.02015958       0.05721634      -0.47866645
Cu       0.00000000       2.56679762      17.79400000        3       0.00000000       0.00000000       0.00000000       0.00011479      -0.00645390      -0.22304873      -0.00275376       0.02320832      -0.13506956
Cu       3.63000000       2.56679762      17.79400000        3       0.00000000       0.00000000       0.00000000       0.00021651      -0.01716088      -0.36156520       0.02030369       0.10571990      -0.43642088
Cu       0.00000000       5.13359523      17.79400000        3       0.00000000       0.00000000       0.00000000       0.00007328      -0.00595957      -0.38055265      -0.00255019       0.02686090      -0.27510358
Cu       3.63000000       5.13359523      17.79400000        3       0.00000000       0.00000000       0.00000000       0.00016078      -0.02756118      -0.38006320       0.02024852      -0.01360149      -0.45417261
Cu       1.82084069       1.31224740      19.03041341        2       0.01220721       0.00198465       0.11176288       0.00004464       0.01060957       0.09923922       0.08514988       0.00815759      -0.08894105
Cu       5.44030789       1.31373909      19.03382022        2      -0.00752139       0.00089145       0.11679400      -0.00006697       0.01059386       0.09914589      -0.07268799       0.01180011      -0.07243780
Cu       1.80567006       3.88241628      19.04274691        2       0.00554285      -0.00287002       0.12274921      -0.00274407       0.00796860       0.10373897      -0.05252544      -0.02182662       0.09980078
Cu       5.46138317       3.88488926      19.05178783        2      -0.00810903      -0.00327942       0.12070466       0.00262506       0.00803866       0.10361893       0.06856894      -0.01545335       0.11816591
Cu       1.83062122       6.44552241      19.01805037        2       0.01125467      -0.01061219       0.11574530      -0.00140203       0.00420356       0.09839746       0.02137239      -0.02221962       0.02419287
Cu       5.43536509       6.44048408      19.03168392        2      -0.01031995      -0.00800025       0.11604947       0.00142104       0.00423963       0.09835207      -0.03176116      -0.02907485       0.05547010
Cu      -0.01342715       0.05417066      20.18136773        1       0.00797538      -0.01733116       0.15233656       0.00004000       0.00860619       0.14274682       0.04239605      -0.20031629      -0.01871003
Cu       3.62976468       0.03327987      20.22773278        1      -0.00076802       0.00168348       0.14534460      -0.00002015       0.00252742       0.11837160       0.00956683       0.00704331      -0.06678291
Cu       0.01616277       2.62334513      20.30800711        1      -0.00134216      -0.02219310       0.16749995      -0.00017140      -0.00533259       0.16685886       0.00895236       0.00080138      -0.18293418
Cu       3.62957246       2.60208378      20.22230912        1      -0.00027527       0.01183454       0.15261083      -0.00008180       0.01320092       0.11930561      -0.00454746      -0.00667701      -0.04356332
Cu       0.02584583       5.22821647      20.25635985        1      -0.00402856      -0.02459718       0.13445632      -0.00005270       0.00079805       0.12888788      -0.01044007      -0.14271801       0.01978998
Cu       3.62552811       5.16197694      20.22492855        1      -0.00023578       0.00182705       0.15362715      -0.00010797       0.00682300       0.11913722       0.01398991       0.00925740      -0.02042221
O        0.20881866       7.34151357      22.00965819        0      -0.03691316      -0.03447008       0.04587656      -0.00041156      -0.01592458       0.01424090      -0.15507198      -0.69804913       0.07310138
C       -0.03848493       1.81204772      22.02928673        0       0.00246519      -0.05458819       0.07770955      -0.00007043       0.05269624       0.06192348      -0.02129128      -0.15842495       0.04691900
H       -0.65383077       7.04459005      22.36388649        0      -0.03314062      -0.02359698       0.02217437       0.00058760      -0.00686929      -0.00747315      -0.05596650       0.90163291       0.45128662
O       -0.17171323       2.02858947      23.16267170        0       0.01719446      -0.03528936       0.05928145      -0.00041770      -0.04038631       0.03143877       0.11019614       0.07444971       0.12697063
46
Lattice="7.26 0.0 0.0 0.0 7.700392847121503 0.0 0.0 0.0 30.391999999999996" Properties=species:S:1:pos:R:3:tags:I:1:MACE_forces:R:3:forces:R:3:DFT_forces:R:3 method=neb MACE_energy=-186.2748977946703 energy=-186.97781233356525 stress="0.006651952307557245 -3.2073154882963493e-07 1.4710622538436238e-06 -3.2073154882963493e-07 0.007771409437050713 -2.2644539661852852e-05 1.4710622538436238e-06 -2.2644539661852852e-05 0.002609307520851428" free_energy=-186.97781233356525 DFT_energy=-190.73370621 pbc="T T T"
Cu       0.00000000       0.00000000      12.59800000        7       0.00000000       0.00000000       0.00000000      -0.00000029       0.00006157       0.42267225       0.00036414      -0.01337889       0.62201891
Cu       3.63000000       0.00000000      12.59800000        7       0.00000000       0.00000000       0.00000000       0.00000011      -0.00011203       0.42221863       0.00115544      -0.00066039       0.62393416
Cu       0.00000000       2.56679762      12.59800000        7       0.00000000       0.00000000       0.00000000      -0.00000051      -0.00005019       0.42237447       0.00022536       0.01616545       0.62608932
Cu       3.63000000       2.56679762      12.59800000        7       0.00000000       0.00000000       0.00000000       0.00000020      -0.00004698       0.42177359      -0.00067047      -0.01508787       0.62561553
Cu       0.00000000       5.13359523      12.59800000        7       0.00000000       0.00000000       0.00000000      -0.00000027      -0.00001481       0.42185505       0.00184913      -0.00594707       0.60605538
Cu       3.63000000       5.13359523      12.59800000        7       0.00000000       0.00000000       0.00000000       0.00000004       0.00015532       0.42177615      -0.00008017       0.01225684       0.62002988
Cu       1.81500000       1.28339881      13.89700000        6       0.00000000       0.00000000       0.00000000      -0.00022683       0.00009041      -0.15920623       0.02322783      -0.00532332      -0.18466310
Cu       5.44500000       1.28339881      13.89700000        6       0.00000000       0.00000000       0.00000000       0.00022595       0.00008877      -0.15920394      -0.02146337      -0.00444537      -0.18564433
Cu       1.81500000       3.85019642      13.89700000        6       0.00000000       0.00000000       0.00000000      -0.00038750      -0.00030452      -0.16005378       0.00765661      -0.00274763      -0.18773629
Cu       5.44500000       3.85019642      13.89700000        6       0.00000000       0.00000000       0.00000000       0.00038610      -0.00030302      -0.16005276      -0.00751816       0.00156368      -0.18506769
Cu       1.81500000       6.41699404      13.89700000        6       0.00000000       0.00000000       0.00000000      -0.00003901       0.00026416      -0.16014005       0.01656300      -0.00261196      -0.18545143
Cu       5.44500000       6.41699404      13.89700000        6       0.00000000       0.00000000       0.00000000       0.00003923       0.00026450      -0.16014223      -0.01517648       0.00663000      -0.18115201
Cu       0.00000000       0.00000000      15.19600000        5       0.00000000       0.00000000       0.00000000      -0.00000068       0.00071538      -0.06243817      -0.00016337       0.01944289       0.03801974
Cu       3.63000000       0.00000000      15.19600000        5       0.00000000       0.00000000       0.00000000       0.00000471       0.00180197      -0.05752107       0.00345020      -0.00795974       0.04872945
Cu       0.00000000       2.56679762      15.19600000        5       0.00000000       0.00000000       0.00000000      -0.00000066       0.00093842      -0.06215943       0.00044248      -0.00125825       0.05538259
Cu       3.63000000       2.56679762      15.19600000        5       0.00000000       0.00000000       0.00000000       0.00000388      -0.00071459      -0.05546671      -0.00015097       0.00517116       0.00238874
Cu       0.00000000       5.13359523      15.19600000        5       0.00000000       0.00000000       0.00000000       0.00000066      -0.00152757      -0.05922213       0.00128729      -0.02223759       0.06512866
Cu       3.63000000       5.13359523      15.19600000        5       0.00000000       0.00000000       0.00000000       0.00000320      -0.00087843      -0.05661467       0.00104000      -0.00376778      -0.01053117
Cu       1.81500000       1.28339881      16.49500000        4       0.00000000       0.00000000       0.00000000       0.00102264       0.00278032      -0.11731386       0.00822021       0.00450531      -0.21967173
Cu       5.44500000       1.28339881      16.49500000        4       0.00000000       0.00000000       0.00000000      -0.00100309       0.00277903      -0.11721969      -0.01184065       0.00566419      -0.20249920
Cu       1.81500000       3.85019642      16.49500000        4       0.00000000       0.00000000       0.00000000       0.00504832       0.00200166      -0.11189502       0.00617584       0.00984682      -0.17980542
Cu       5.44500000       3.85019642      16.49500000        4       0.00000000       0.00000000       0.00000000      -0.00503772       0.00200438      -0.11178487      -0.00555138       0.00188386      -0.16259256
Cu       1.81500000       6.41699404      16.49500000        4       0.00000000       0.00000000       0.00000000       0.00429298      -0.00129282      -0.12954447      -0.01135017      -0.01849350      -0.21212520
Cu       5.44500000       6.41699404      16.49500000        4       0.00000000       0.00000000       0.00000000      -0.00428790      -0.00128103      -0.12964371       0.00765278      -0.02153531      -0.18503473
Cu       0.00000000       0.00000000      17.79400000        3       0.00000000       0.00000000       0.00000000       0.00007122      -0.02952130      -0.28123294      -0.01287332       0.07014313      -0.33809983
Cu       3.63000000       0.00000000      17.79400000        3       0.00000000       0.00000000       0.00000000       0.00014836       0.01744399      -0.37451516       0.01852639       0.03684903      -0.46584257
Cu       0.00000000       2.56679762      17.79400000        3       0.00000000       0.00000000       0.00000000       0.00011479      -0.00645390      -0.22304873      -0.00199061       0.02543472      -0.12733075
Cu       3.63000000       2.56679762      17.79400000        3       0.00000000       0.00000000       0.00000000       0.00021651      -0.01716088      -0.36156520       0.02856474       0.06416626      -0.43118358
Cu       0.00000000       5.13359523      17.79400000        3       0.00000000       0.00000000       0.00000000       0.00007328      -0.00595957      -0.38055265      -0.00190881       0.01901701      -0.38352860
Cu       3.63000000       5.13359523      17.79400000        3       0.00000000       0.00000000       0.00000000       0.00016078      -0.02756118      -0.38006320       0.01808756      -0.01064134      -0.46297569
Cu       1.81944117       1.30242332      19.02963099        2       0.01230548      -0.00566983       0.11200342       0.00004464       0.01060957       0.09923922       0.08037645       0.01371813      -0.06680651
Cu       5.44489333       1.30144400      19.03710429        2      -0.00324768      -0.00970634       0.11932414      -0.00006697       0.01059386       0.09914589      -0.07437408       0.00492704      -0.05788138
Cu       1.81265867       3.86825806      19.03917061        2       0.00846814      -0.01180931       0.12059456      -0.00274407       0.00796860       0.10373897      -0.06015518      -0.02631248       0.09604709
Cu       5.45327168       3.87050493      19.04511809        2      -0.01389841      -0.01297789       0.11742097       0.00262506       0.00803866       0.10361893       0.06272840      -0.02457961       0.10908316
Cu       1.83053650       6.43540519      19.02139943        2       0.00991579      -0.01854473       0.11980455      -0.00140203       0.00420356       0.09839746       0.01549301      -0.03391807       0.01958412
Cu       5.43560812       6.43435852      19.03393890        2      -0.00605067      -0.01187172       0.12050769       0.00142104       0.00423963       0.09835207      -0.02532570      -0.03729458       0.05107960
Cu      -0.00130036       0.01068468      20.19501199        1       0.01581631      -0.04611704       0.16359493       0.00004000       0.00860619       0.14274682       0.04382439      -0.28253733      -0.13878808
Cu       3.62883214       0.02522234      20.22786673        1      -0.00012173      -0.00339915       0.14545942      -0.00002015       0.00252742       0.11837160       0.01078036       0.00083643      -0.06018389
Cu       0.01410662       2.59407277      20.30277005        1      -0.00473799      -0.04217019       0.16539281      -0.00017140      -0.00533259       0.16685886       0.00476807      -0.03390276      -0.10989591
Cu       3.63027137       2.59095086      20.22422172        1      -0.00086642       0.00385303       0.15101189      -0.00008180       0.01320092       0.11930561      -0.00492791      -0.01117480      -0.04496850
Cu       0.01662211       5.17676468      20.21832967        1      -0.00984601      -0.05547816       0.12298205      -0.00005270       0.00079805       0.12888788      -0.01689729      -0.12618610       0.03697933
Cu       3.62755136       5.15298595      20.22598201        1       0.00115173      -0.00206273       0.15188752      -0.00010797       0.00682300       0.11913722       0.01217582       0.01211688      -0.02549651
O        0.22069074       7.49290400      22.06269603        0      -0.02774496       0.07251826       0.07448410      -0.00041156      -0.01592458       0.01424090      -0.22537103      -0.42407473       0.04684550
C       -0.05835796       1.83445622      22.05776980        0      -0.01107027      -0.06929781       0.09681142      -0.00007043       0.05269624       0.06192348      -0.06469351      -0.04605126       0.09963585
H       -0.61726694       7.11851467      22.40949179        0      -0.02206349       0.04711932       0.05282573       0.00058760      -0.00686929      -0.00747315       0.00057600       0.70814017       0.45804904
O       -0.19331581       2.11289859      23.18016497        0       0.00019880       0.01488390       0.07258017      -0.00041770      -0.04038631       0.03143877       0.18727110       0.14364871       0.14426064
46
Lattice="7.26 0.0 0.0 0.0 7.700392847121503 0.0 0.0 0.0 30.391999999999996" Properties=species:S:1:pos:R:3:tags:I:1:MACE_forces:R:3:forces:R:3:DFT_forces:R:3 method=neb MACE_energy=-186.3267333506239 energy=-186.97781233356525 stress="0.006651952307557245 -3.2073154882963493e-07 1.4710622538436238e-06 -3.2073154882963493e-07 0.007771409437050713 -2.2644539661852852e-05 1.4710622538436238e-06 -2.2644539661852852e-05 0.002609307520851428" free_energy=-186.97781233356525 DFT_energy=-190.78029249 pbc="T T T"
Cu       0.00000000       0.00000000      12.59800000        7       0.00000000       0.00000000       0.00000000      -0.00000029       0.00006157       0.42267225       0.00060379      -0.01479119       0.62256313
Cu       3.63000000       0.00000000      12.59800000        7       0.00000000       0.00000000       0.00000000       0.00000011      -0.00011203       0.42221863       0.00141031       0.00482279       0.62334553
Cu       0.00000000       2.56679762      12.59800000        7       0.00000000       0.00000000       0.00000000      -0.00000051      -0.00005019       0.42237447       0.00062976       0.01890319       0.62856088
Cu       3.63000000       2.56679762      12.59800000        7       0.00000000       0.00000000       0.00000000       0.00000020      -0.00004698       0.42177359      -0.00193963      -0.01384044       0.62341888
Cu       0.00000000       5.13359523      12.59800000        7       0.00000000       0.00000000       0.00000000      -0.00000027      -0.00001481       0.42185505       0.00101556      -0.00286347       0.60459656
Cu       3.63000000       5.13359523      12.59800000        7       0.00000000       0.00000000       0.00000000       0.00000004       0.00015532       0.42177615       0.00003882       0.01015060       0.61996028
Cu       1.81500000       1.28339881      13.89700000        6       0.00000000       0.00000000       0.00000000      -0.00022683       0.00009041      -0.15920623       0.02252010      -0.00374015      -0.18377965
Cu       5.44500000       1.28339881      13.89700000        6       0.00000000       0.00000000       0.00000000       0.00022595       0.00008877      -0.15920394      -0.02134623      -0.00481865      -0.18355825
Cu       1.81500000       3.85019642      13.89700000        6       0.00000000       0.00000000       0.00000000      -0.00038750      -0.00030452      -0.16005378       0.00644821       0.00028185      -0.18827114
Cu       5.44500000       3.85019642      13.89700000        6       0.00000000       0.00000000       0.00000000       0.00038610      -0.00030302      -0.16005276      -0.00668413       0.00409787      -0.18474396
Cu       1.81500000       6.41699404      13.89700000        6       0.00000000       0.00000000       0.00000000      -0.00003901       0.00026416      -0.16014005       0.01376497      -0.00049817      -0.18740591
Cu       5.44500000       6.41699404      13.89700000        6       0.00000000       0.00000000       0.00000000       0.00003923       0.00026450      -0.16014223      -0.01229680       0.00755019      -0.18600083
Cu       0.00000000       0.00000000      15.19600000        5       0.00000000       0.00000000       0.00000000      -0.00000068       0.00071538      -0.06243817      -0.00130509       0.01996247       0.04038237
Cu       3.63000000       0.00000000      15.19600000        5       0.00000000       0.00000000       0.00000000       0.00000471       0.00180197      -0.05752107       0.00207267      -0.00396501       0.04330724
Cu       0.00000000       2.56679762      15.19600000        5       0.00000000       0.00000000       0.00000000      -0.00000066       0.00093842      -0.06215943       0.00096153      -0.00039680       0.04713884
Cu       3.63000000       2.56679762      15.19600000        5       0.00000000       0.00000000       0.00000000       0.00000388      -0.00071459      -0.05546671       0.00122306       0.00687087       0.00957841
Cu       0.00000000       5.13359523      15.19600000        5       0.00000000       0.00000000       0.00000000       0.00000066      -0.00152757      -0.05922213       0.00037487      -0.01816251       0.07435060
Cu       3.63000000       5.13359523      15.19600000        5       0.00000000       0.00000000       0.00000000       0.00000320      -0.00087843      -0.05661467       0.00076079      -0.00368002      -0.01221617
Cu       1.81500000       1.28339881      16.49500000        4       0.00000000       0.00000000       0.00000000       0.00102264       0.00278032      -0.11731386       0.00505412       0.00168020      -0.22956124
Cu       5.44500000       1.28339881      16.49500000        4       0.00000000       0.00000000       0.00000000      -0.00100309       0.00277903      -0.11721969      -0.00639549       0.00594247      -0.19462663
Cu       1.81500000       3.85019642      16.49500000        4       0.00000000       0.00000000       0.00000000       0.00504832       0.00200166      -0.11189502       0.00702584       0.01758050      -0.18644418
Cu       5.44500000       3.85019642      16.49500000        4       0.00000000       0.00000000       0.00000000      -0.00503772       0.00200438      -0.11178487      -0.00641529       0.01118012      -0.17999547
Cu       1.81500000       6.41699404      16.49500000        4       0.00000000       0.00000000       0.00000000       0.00429298      -0.00129282      -0.12954447      -0.00685805      -0.01302361      -0.21213026
Cu       5.44500000       6.41699404      16.49500000        4       0.00000000       0.00000000       0.00000000      -0.00428790      -0.00128103      -0.12964371       0.00300120      -0.01787462      -0.18024774
Cu       0.00000000       0.00000000      17.79400000        3       0.00000000       0.00000000       0.00000000       0.00007122      -0.02952130      -0.28123294      -0.00950289       0.02608233      -0.26364252
Cu       3.63000000       0.00000000      17.79400000        3       0.00000000       0.00000000       0.00000000       0.00014836       0.01744399      -0.37451516       0.02516115      -0.00458490      -0.45808691
Cu       0.00000000       2.56679762      17.79400000        3       0.00000000       0.00000000       0.00000000       0.00011479      -0.00645390      -0.22304873      -0.00347263       0.01310486      -0.13121072
Cu       3.63000000       2.56679762      17.79400000        3       0.00000000       0.00000000       0.00000000       0.00021651      -0.01716088      -0.36156520       0.03562640       0.02273723      -0.43429540
Cu       0.00000000       5.13359523      17.79400000        3       0.00000000       0.00000000       0.00000000       0.00007328      -0.00595957      -0.38055265      -0.00594341      -0.00417351      -0.42627412
Cu       3.63000000       5.13359523      17.79400000        3       0.00000000       0.00000000       0.00000000       0.00016078      -0.02756118      -0.38006320       0.02211836      -0.01621526      -0.46786063
Cu       1.82142721       1.28631831      19.02407875        2      -0.00557620      -0.01264235       0.12930419       0.00004464       0.01060957       0.09923922       0.04842908       0.00558103      -0.01873571
Cu       5.44830474       1.28065488      19.03970016        2      -0.00167956      -0.00826974       0.12224995      -0.00006697       0.01059386       0.09914589      -0.07814690      -0.00563975      -0.03602995
Cu       1.81630869       3.84707567      19.03753525        2       0.01092317      -0.00621327       0.12529899      -0.00274407       0.00796860       0.10373897      -0.05965096      -0.01751242       0.10071243
Cu       5.44437789       3.84874827      19.03847081        2      -0.00501023      -0.00587471       0.12122197       0.00262506       0.00803866       0.10361893       0.06520644      -0.00947639       0.10422586
Cu       1.82942049       6.41392078      19.02334048        2       0.00009546      -0.00497416       0.12983241      -0.00140203       0.00420356       0.09839746       0.00218542      -0.03189192       0.03132160
Cu       5.44063002       6.41976488      19.03946905        2      -0.00909561      -0.00912676       0.11935149       0.00142104       0.00423963       0.09835207      -0.02643394      -0.03956063       0.04744030
Cu       0.01383791      -0.03388736      20.21250940        1       0.00306055      -0.02923617       0.19210193       0.00004000       0.00860619       0.14274682       0.01707109      -0.32450754      -0.25130593
Cu       3.62868513       0.00323117      20.22671074        1      -0.00269119      -0.00497200       0.14578763      -0.00002015       0.00252742       0.11837160       0.00216635       0.00262488      -0.05450166
Cu       0.00702892       2.55778535      20.29391417        1       0.00279810      -0.03897560       0.15065153      -0.00017140      -0.00533259       0.16685886       0.00901096      -0.05230529      -0.00030219
Cu       3.62961448       2.56665243      20.22735977        1       0.00205305       0.00247964       0.14453170      -0.00008180       0.01320092       0.11930561      -0.00298589      -0.01527263      -0.05254363
Cu       0.00662543       5.12420331      20.20325798        1      -0.00215663      -0.03861024       0.11752257      -0.00005270       0.00079805       0.12888788      -0.00076013      -0.07741782       0.02710925
Cu       3.63008031       5.13132782      20.22634726        1       0.00210012      -0.00053268       0.15245342      -0.00010797       0.00682300       0.11913722       0.00601698       0.00638095      -0.02701894
O        0.24709661       7.66205564      22.10185627        0      -0.00347577       0.09718290       0.09251479      -0.00041156      -0.01592458       0.01424090      -0.33639111      -0.10715525       0.13179607
C       -0.08561007       1.86744855      22.08942884        0      -0.02042370      -0.06360919       0.14208369      -0.00007043       0.05269624       0.06192348      -0.13217324      -0.05006793       0.18676709
H       -0.57248511       7.29782930      22.50209173        0      -0.03252982       0.11106510       0.03175224       0.00058760      -0.00686929      -0.00747315       0.16921822       0.57145256       0.24298497
O       -0.22445736       2.22154616      23.19466659        0      -0.00466012      -0.01183164       0.01221253      -0.00041770      -0.04038631       0.03143877       0.24958574       0.09644891       0.12122946
46
Lattice="7.26 0.0 0.0 0.0 7.700392847121503 0.0 0.0 0.0 30.391999999999996" Properties=species:S:1:pos:R:3:tags:I:1:MACE_forces:R:3:forces:R:3:DFT_forces:R:3 method=neb MACE_energy=-186.359032310855 energy=-186.97781233356525 stress="0.006651952307557245 -3.2073154882963493e-07 1.4710622538436238e-06 -3.2073154882963493e-07 0.007771409437050713 -2.2644539661852852e-05 1.4710622538436238e-06 -2.2644539661852852e-05 0.002609307520851428" free_energy=-186.97781233356525 DFT_energy=-190.82564009 pbc="T T T"
Cu       0.00000000       0.00000000      12.59800000        7       0.00000000       0.00000000       0.00000000      -0.00000029       0.00006157       0.42267225       0.00168329      -0.01512159       0.62256546
Cu       3.63000000       0.00000000      12.59800000        7       0.00000000       0.00000000       0.00000000       0.00000011      -0.00011203       0.42221863       0.00220847       0.00805130       0.62318003
Cu       0.00000000       2.56679762      12.59800000        7       0.00000000       0.00000000       0.00000000      -0.00000051      -0.00005019       0.42237447       0.00004342       0.01959013       0.62929138
Cu       3.63000000       2.56679762      12.59800000        7       0.00000000       0.00000000       0.00000000       0.00000020      -0.00004698       0.42177359      -0.00238544      -0.01191712       0.62197439
Cu       0.00000000       5.13359523      12.59800000        7       0.00000000       0.00000000       0.00000000      -0.00000027      -0.00001481       0.42185505       0.00072442      -0.00037525       0.60410628
Cu       3.63000000       5.13359523      12.59800000        7       0.00000000       0.00000000       0.00000000       0.00000004       0.00015532       0.42177615       0.00006362       0.00791286       0.62029008
Cu       1.81500000       1.28339881      13.89700000        6       0.00000000       0.00000000       0.00000000      -0.00022683       0.00009041      -0.15920623       0.02136023      -0.00186132      -0.18327643
Cu       5.44500000       1.28339881      13.89700000        6       0.00000000       0.00000000       0.00000000       0.00022595       0.00008877      -0.15920394      -0.02090521      -0.00566031      -0.18331222
Cu       1.81500000       3.85019642      13.89700000        6       0.00000000       0.00000000       0.00000000      -0.00038750      -0.00030452      -0.16005378       0.00616589       0.00208152      -0.18802839
Cu       5.44500000       3.85019642      13.89700000        6       0.00000000       0.00000000       0.00000000       0.00038610      -0.00030302      -0.16005276      -0.00647508       0.00639550      -0.18426194
Cu       1.81500000       6.41699404      13.89700000        6       0.00000000       0.00000000       0.00000000      -0.00003901       0.00026416      -0.16014005       0.01203416      -0.00033315      -0.18854436
Cu       5.44500000       6.41699404      13.89700000        6       0.00000000       0.00000000       0.00000000       0.00003923       0.00026450      -0.16014223      -0.00937107       0.00840382      -0.18842360
Cu       0.00000000       0.00000000      15.19600000        5       0.00000000       0.00000000       0.00000000      -0.00000068       0.00071538      -0.06243817      -0.00233707       0.02044207       0.04361793
Cu       3.63000000       0.00000000      15.19600000        5       0.00000000       0.00000000       0.00000000       0.00000471       0.00180197      -0.05752107       0.00182087      -0.00024928       0.03957511
Cu       0.00000000       2.56679762      15.19600000        5       0.00000000       0.00000000       0.00000000      -0.00000066       0.00093842      -0.06215943       0.00231779       0.00000392       0.04293162
Cu       3.63000000       2.56679762      15.19600000        5       0.00000000       0.00000000       0.00000000       0.00000388      -0.00071459      -0.05546671       0.00146596       0.00716977       0.01650752
Cu       0.00000000       5.13359523      15.19600000        5       0.00000000       0.00000000       0.00000000       0.00000066      -0.00152757      -0.05922213      -0.00007038      -0.01534706       0.07766339
Cu       3.63000000       5.13359523      15.19600000        5       0.00000000       0.00000000       0.00000000       0.00000320      -0.00087843      -0.05661467       0.00027074      -0.00397457      -0.01171043
Cu       1.81500000       1.28339881      16.49500000        4       0.00000000       0.00000000       0.00000000       0.00102264       0.00278032      -0.11731386       0.00426124      -0.00243836      -0.21566359
Cu       5.44500000       1.28339881      16.49500000        4       0.00000000       0.00000000       0.00000000      -0.00100309       0.00277903      -0.11721969      -0.00424616       0.00372697      -0.18144562
Cu       1.81500000       3.85019642      16.49500000        4       0.00000000       0.00000000       0.00000000       0.00504832       0.00200166      -0.11189502       0.00864926       0.02373167      -0.19248098
Cu       5.44500000       3.85019642      16.49500000        4       0.00000000       0.00000000       0.00000000      -0.00503772       0.00200438      -0.11178487      -0.00583656       0.01810969      -0.19169171
Cu       1.81500000       6.41699404      16.49500000        4       0.00000000       0.00000000       0.00000000       0.00429298      -0.00129282      -0.12954447      -0.00610465      -0.00878363      -0.18843390
Cu       5.44500000       6.41699404      16.49500000        4       0.00000000       0.00000000       0.00000000      -0.00428790      -0.00128103      -0.12964371      -0.00015447      -0.01443465      -0.17227763
Cu       0.00000000       0.00000000      17.79400000        3       0.00000000       0.00000000       0.00000000       0.00007122      -0.02952130      -0.28123294      -0.01241293      -0.00324731      -0.13809882
Cu       3.63000000       0.00000000      17.79400000        3       0.00000000       0.00000000       0.00000000       0.00014836       0.01744399      -0.37451516       0.01332025      -0.02670049      -0.43737059
Cu       0.00000000       2.56679762      17.79400000        3       0.00000000       0.00000000       0.00000000       0.00011479      -0.00645390      -0.22304873      -0.00023166       0.00332208      -0.13813434
Cu       3.63000000       2.56679762      17.79400000        3       0.00000000       0.00000000       0.00000000       0.00021651      -0.01716088      -0.36156520       0.02738523      -0.02581655      -0.43448741
Cu       0.00000000       5.13359523      17.79400000        3       0.00000000       0.00000000       0.00000000       0.00007328      -0.00595957      -0.38055265      -0.00491010      -0.01936309      -0.45095613
Cu       3.63000000       5.13359523      17.79400000        3       0.00000000       0.00000000       0.00000000       0.00016078      -0.02756118      -0.38006320       0.01060407       0.00089695      -0.46016094
Cu       1.81310945       1.27036311      19.02966824        2       0.02016964       0.00783898       0.10546211       0.00004464       0.01060957       0.09923922       0.07555848       0.02130900      -0.02357391
Cu       5.45520707       1.26531727      19.04491483        2      -0.01282726      -0.00087700       0.11296776      -0.00006697       0.01059386       0.09914589      -0.09898545      -0.00383168      -0.04201808
Cu       1.81939973       3.83475775      19.03567350        2       0.00495580       0.00059668       0.12761200      -0.00274407       0.00796860       0.10373897      -0.06735876      -0.01000887       0.09804485
Cu       5.43746028       3.83540262      19.03382396        2      -0.00162694       0.00368095       0.12273998       0.00262506       0.00803866       0.10361893       0.06011724       0.00416889       0.09112090
Cu       1.82035840       6.40776118      19.03390957        2       0.01755905      -0.02142490       0.10878877      -0.00140203       0.00420356       0.09839746       0.02397520      -0.05699821       0.01121973
Cu       5.44712278       6.41352815      19.04440802        2      -0.00365687      -0.01162456       0.12615630       0.00142104       0.00423963       0.09835207      -0.01384324      -0.04613585       0.04726388
Cu       0.01753866      -0.06226928      20.25793726        1       0.01988898       0.00209001       0.12739305       0.00004000       0.00860619       0.14274682       0.02095110      -0.29244308      -0.32654946
Cu       3.63226416      -0.00740890      20.22567724        1      -0.00995909      -0.01141209       0.14517977      -0.00002015       0.00252742       0.11837160      -0.01060636      -0.01185702      -0.04809840
Cu       0.00164770       2.53644254      20.28480526        1       0.00257639       0.01665081       0.15015620      -0.00017140      -0.00533259       0.16685886       0.00153997       0.00131363       0.04949535
Cu       3.62700423       2.55149825      20.22499499        1       0.00658398       0.00397535       0.15265206      -0.00008180       0.01320092       0.11930561       0.00223855      -0.01998219      -0.05004901
Cu      -0.00099660       5.09101532      20.19452431        1       0.00673521       0.00017989       0.15520941      -0.00005270       0.00079805       0.12888788       0.01459520      -0.01636499       0.06320196
Cu       3.62964152       5.12319171      20.22399078        1       0.00609402      -0.00820796       0.15545648      -0.00010797       0.00682300       0.11913722       0.00853509      -0.00821521      -0.02607365
O        0.29792432       7.79356863      22.14784296        0      -0.08004822       0.06953601       0.01857459      -0.00041156      -0.01592458       0.01424090      -0.45578738       0.04119013       0.08406018
C       -0.11958369       1.93806624      22.10990659        0       0.02207558      -0.00847712       0.13001544      -0.00007043       0.05269624       0.06192348      -0.17832982      -0.06956767       0.22564107
H       -0.52047521       7.45837376      22.57404040        0      -0.03009769       0.03200726       0.07391374       0.00058760      -0.00686929      -0.00747315       0.30601066       0.51654882       0.07166579
O       -0.28318360       2.32586238      23.20227226        0      -0.00832190      -0.01891399      -0.01652134      -0.00041770      -0.04038631       0.03143877       0.27245139      -0.02334022       0.16170464
46
Lattice="7.26 0.0 0.0 0.0 7.700392847121503 0.0 0.0 0.0 30.391999999999996" Properties=species:S:1:pos:R:3:tags:I:1:MACE_forces:R:3:forces:R:3:DFT_forces:R:3 method=neb MACE_energy=-186.36908757963351 energy=-186.97781233356525 stress="0.006651952307557245 -3.2073154882963493e-07 1.4710622538436238e-06 -3.2073154882963493e-07 0.007771409437050713 -2.2644539661852852e-05 1.4710622538436238e-06 -2.2644539661852852e-05 0.002609307520851428" free_energy=-186.97781233356525 DFT_energy=-190.86054613 pbc="T T T"
Cu       0.00000000       0.00000000      12.59800000        7       0.00000000       0.00000000       0.00000000      -0.00000029       0.00006157       0.42267225       0.00186722      -0.01592424       0.62287932
Cu       3.63000000       0.00000000      12.59800000        7       0.00000000       0.00000000       0.00000000       0.00000011      -0.00011203       0.42221863       0.00236920       0.00891645       0.62369446
Cu       0.00000000       2.56679762      12.59800000        7       0.00000000       0.00000000       0.00000000      -0.00000051      -0.00005019       0.42237447       0.00001280       0.01849194       0.63026320
Cu       3.63000000       2.56679762      12.59800000        7       0.00000000       0.00000000       0.00000000       0.00000020      -0.00004698       0.42177359      -0.00264985      -0.01137320       0.62168228
Cu       0.00000000       5.13359523      12.59800000        7       0.00000000       0.00000000       0.00000000      -0.00000027      -0.00001481       0.42185505       0.00052623       0.00075965       0.60464901
Cu       3.63000000       5.13359523      12.59800000        7       0.00000000       0.00000000       0.00000000       0.00000004       0.00015532       0.42177615      -0.00032615       0.00546748       0.62034989
Cu       1.81500000       1.28339881      13.89700000        6       0.00000000       0.00000000       0.00000000      -0.00022683       0.00009041      -0.15920623       0.02100718      -0.00216595      -0.18364657
Cu       5.44500000       1.28339881      13.89700000        6       0.00000000       0.00000000       0.00000000       0.00022595       0.00008877      -0.15920394      -0.02116653      -0.00702609      -0.18316807
Cu       1.81500000       3.85019642      13.89700000        6       0.00000000       0.00000000       0.00000000      -0.00038750      -0.00030452      -0.16005378       0.00652092       0.00195786      -0.18761154
Cu       5.44500000       3.85019642      13.89700000        6       0.00000000       0.00000000       0.00000000       0.00038610      -0.00030302      -0.16005276      -0.00681646       0.00648809      -0.18369614
Cu       1.81500000       6.41699404      13.89700000        6       0.00000000       0.00000000       0.00000000      -0.00003901       0.00026416      -0.16014005       0.01105014      -0.00039632      -0.18967915
Cu       5.44500000       6.41699404      13.89700000        6       0.00000000       0.00000000       0.00000000       0.00003923       0.00026450      -0.16014223      -0.00838326       0.00827605      -0.19011905
Cu       0.00000000       0.00000000      15.19600000        5       0.00000000       0.00000000       0.00000000      -0.00000068       0.00071538      -0.06243817      -0.00263594       0.02007726       0.04524959
Cu       3.63000000       0.00000000      15.19600000        5       0.00000000       0.00000000       0.00000000       0.00000471       0.00180197      -0.05752107       0.00172736       0.00073399       0.03668611
Cu       0.00000000       2.56679762      15.19600000        5       0.00000000       0.00000000       0.00000000      -0.00000066       0.00093842      -0.06215943       0.00273374      -0.00145161       0.03982787
Cu       3.63000000       2.56679762      15.19600000        5       0.00000000       0.00000000       0.00000000       0.00000388      -0.00071459      -0.05546671       0.00144797       0.00681831       0.02119408
Cu       0.00000000       5.13359523      15.19600000        5       0.00000000       0.00000000       0.00000000       0.00000066      -0.00152757      -0.05922213      -0.00050093      -0.01489618       0.07917245
Cu       3.63000000       5.13359523      15.19600000        5       0.00000000       0.00000000       0.00000000       0.00000320      -0.00087843      -0.05661467      -0.00033105      -0.00520241      -0.01098488
Cu       1.81500000       1.28339881      16.49500000        4       0.00000000       0.00000000       0.00000000       0.00102264       0.00278032      -0.11731386       0.00409597      -0.00694040      -0.21467033
Cu       5.44500000       1.28339881      16.49500000        4       0.00000000       0.00000000       0.00000000      -0.00100309       0.00277903      -0.11721969      -0.00366960       0.00015066      -0.17693740
Cu       1.81500000       3.85019642      16.49500000        4       0.00000000       0.00000000       0.00000000       0.00504832       0.00200166      -0.11189502       0.00973708       0.02667561      -0.19339632
Cu       5.44500000       3.85019642      16.49500000        4       0.00000000       0.00000000       0.00000000      -0.00503772       0.00200438      -0.11178487      -0.00629095       0.02062778      -0.19631311
Cu       1.81500000       6.41699404      16.49500000        4       0.00000000       0.00000000       0.00000000       0.00429298      -0.00129282      -0.12954447      -0.00607240      -0.00814322      -0.17844889
Cu       5.44500000       6.41699404      16.49500000        4       0.00000000       0.00000000       0.00000000      -0.00428790      -0.00128103      -0.12964371      -0.00046913      -0.01319523      -0.16364974
Cu       0.00000000       0.00000000      17.79400000        3       0.00000000       0.00000000       0.00000000       0.00007122      -0.02952130      -0.28123294      -0.01220365      -0.01128039      -0.08137257
Cu       3.63000000       0.00000000      17.79400000        3       0.00000000       0.00000000       0.00000000       0.00014836       0.01744399      -0.37451516       0.01304533      -0.03923591      -0.42922290
Cu       0.00000000       2.56679762      17.79400000        3       0.00000000       0.00000000       0.00000000       0.00011479      -0.00645390      -0.22304873       0.00031727       0.00076739      -0.16015750
Cu       3.63000000       2.56679762      17.79400000        3       0.00000000       0.00000000       0.00000000       0.00021651      -0.01716088      -0.36156520       0.02605104      -0.03844222      -0.43070606
Cu       0.00000000       5.13359523      17.79400000        3       0.00000000       0.00000000       0.00000000       0.00007328      -0.00595957      -0.38055265      -0.00376528      -0.02722074      -0.44063850
Cu       3.63000000       5.13359523      17.79400000        3       0.00000000       0.00000000       0.00000000       0.00016078      -0.02756118      -0.38006320       0.00967998       0.01478177      -0.45515111
Cu       1.81139012       1.26705493      19.02971369        2       0.02046740       0.00983760       0.10761263       0.00004464       0.01060957       0.09923922       0.07454062       0.02235423      -0.01239092
Cu       5.45689970       1.26136193      19.04633226        2      -0.01128001       0.00296683       0.11296076      -0.00006697       0.01059386       0.09914589      -0.09685240      -0.00149932      -0.03582784
Cu       1.82098292       3.83254710      19.03549775        2       0.00781228       0.00798889       0.12436448      -0.00274407       0.00796860       0.10373897      -0.06147729       0.00256337       0.09129826
Cu       5.43512976       3.83362640      19.03169381        2      -0.00185685       0.00920536       0.12285884       0.00262506       0.00803866       0.10361893       0.05460322       0.01483576       0.08477344
Cu       1.81601741       6.40639668      19.03793747        2       0.01738278      -0.01452517       0.11052939      -0.00140203       0.00420356       0.09839746       0.02182904      -0.05164251       0.01709430
Cu       5.45196517       6.41262401      19.04881607        2      -0.00504232      -0.00515630       0.12567152       0.00142104       0.00423963       0.09835207      -0.01096916      -0.03930017       0.04172650
Cu       0.01784693      -0.06399304      20.28304482        1       0.02142223       0.01263552       0.12071189       0.00004000       0.00860619       0.14274682       0.01699628      -0.27460339      -0.33666884
Cu       3.63294681      -0.01100813      20.22496585        1      -0.00987415      -0.01121704       0.14453176      -0.00002015       0.00252742       0.11837160      -0.01506387      -0.01122995      -0.04540029
Cu       0.00006926       2.54255785      20.27431051        1       0.00938706       0.02888262       0.15131796      -0.00017140      -0.00533259       0.16685886       0.00385310       0.00086574       0.08673720
Cu       3.62754629       2.54735480      20.22579542        1       0.00598239       0.00402323       0.14878672      -0.00008180       0.01320092       0.11930561      -0.00084255      -0.01659823      -0.05852150
Cu      -0.00202224       5.08725338      20.19727338        1       0.00648472       0.01587964       0.15123743      -0.00005270       0.00079805       0.12888788       0.01792120       0.00631933       0.04610078
Cu       3.63047915       5.12119233      20.22360253        1       0.00435349      -0.00712909       0.15460745      -0.00010797       0.00682300       0.11913722       0.00461925      -0.00810458      -0.02707918
O        0.31929734       7.89751022      22.16719169        0      -0.08746274       0.05200299       0.00920604      -0.00041156      -0.01592458       0.01424090      -0.48798699       0.10237440       0.08745187
C       -0.13886336       1.99818090      22.11324249        0       0.02101535      -0.02637582       0.07033416      -0.00007043       0.05269624       0.06192348      -0.20744713      -0.02453533       0.31959910
H       -0.47159931       7.56984585      22.64723168        0      -0.03311588      -0.01237610       0.03754520       0.00058760      -0.00686929      -0.00747315       0.37014726       0.41921381      -0.08264628
O       -0.34505802       2.39750231      23.19500003        0      -0.00508267       0.01038027       0.03062944      -0.00041770      -0.04038631       0.03143877       0.27922121      -0.07910933       0.12767495
46
Lattice="7.26 0.0 0.0 0.0 7.700392847121503 0.0 0.0 0.0 30.391999999999996" Properties=species:S:1:pos:R:3:tags:I:1:MACE_forces:R:3:forces:R:3:DFT_forces:R:3 method=neb MACE_energy=-186.45528448926353 energy=-186.97781233356525 stress="0.006651952307557245 -3.2073154882963493e-07 1.4710622538436238e-06 -3.2073154882963493e-07 0.007771409437050713 -2.2644539661852852e-05 1.4710622538436238e-06 -2.2644539661852852e-05 0.002609307520851428" free_energy=-186.97781233356525 DFT_energy=-190.92496304 pbc="T T T"
Cu       0.00000000       0.00000000      12.59800000        7       0.00000000       0.00000000       0.00000000      -0.00000029       0.00006157       0.42267225       0.00158448      -0.02114033       0.63539901
Cu       3.63000000       0.00000000      12.59800000        7       0.00000000       0.00000000       0.00000000       0.00000011      -0.00011203       0.42221863       0.00024115       0.00738606       0.63380279
Cu       0.00000000       2.56679762      12.59800000        7       0.00000000       0.00000000       0.00000000      -0.00000051      -0.00005019       0.42237447       0.00146873       0.01999963       0.63956091
Cu       3.63000000       2.56679762      12.59800000        7       0.00000000       0.00000000       0.00000000       0.00000020      -0.00004698       0.42177359      -0.00118120      -0.01340377       0.63228662
Cu       0.00000000       5.13359523      12.59800000        7       0.00000000       0.00000000       0.00000000      -0.00000027      -0.00001481       0.42185505      -0.00144776       0.00524807       0.61994335
Cu       3.63000000       5.13359523      12.59800000        7       0.00000000       0.00000000       0.00000000       0.00000004       0.00015532       0.42177615       0.00028165       0.00931396       0.63632127
Cu       1.81500000       1.28339881      13.89700000        6       0.00000000       0.00000000       0.00000000      -0.00022683       0.00009041      -0.15920623       0.02464831      -0.00352399      -0.18357252
Cu       5.44500000       1.28339881      13.89700000        6       0.00000000       0.00000000       0.00000000       0.00022595       0.00008877      -0.15920394      -0.02305633      -0.00290861      -0.18070548
Cu       1.81500000       3.85019642      13.89700000        6       0.00000000       0.00000000       0.00000000      -0.00038750      -0.00030452      -0.16005378       0.00631362       0.00287164      -0.18869458
Cu       5.44500000       3.85019642      13.89700000        6       0.00000000       0.00000000       0.00000000       0.00038610      -0.00030302      -0.16005276      -0.00492267       0.00379043      -0.18772407
Cu       1.81500000       6.41699404      13.89700000        6       0.00000000       0.00000000       0.00000000      -0.00003901       0.00026416      -0.16014005       0.01174877       0.00123395      -0.19598587
Cu       5.44500000       6.41699404      13.89700000        6       0.00000000       0.00000000       0.00000000       0.00003923       0.00026450      -0.16014223      -0.01119748       0.00784733      -0.19795029
Cu       0.00000000       0.00000000      15.19600000        5       0.00000000       0.00000000       0.00000000      -0.00000068       0.00071538      -0.06243817      -0.00018898       0.01137838       0.03291645
Cu       3.63000000       0.00000000      15.19600000        5       0.00000000       0.00000000       0.00000000       0.00000471       0.00180197      -0.05752107       0.00036983      -0.00077048       0.03901932
Cu       0.00000000       2.56679762      15.19600000        5       0.00000000       0.00000000       0.00000000      -0.00000066       0.00093842      -0.06215943       0.00083983       0.01202785       0.00814837
Cu       3.63000000       2.56679762      15.19600000        5       0.00000000       0.00000000       0.00000000       0.00000388      -0.00071459      -0.05546671       0.00351669       0.00616378       0.02220086
Cu       0.00000000       5.13359523      15.19600000        5       0.00000000       0.00000000       0.00000000       0.00000066      -0.00152757      -0.05922213       0.00047412      -0.01737088       0.08608468
Cu       3.63000000       5.13359523      15.19600000        5       0.00000000       0.00000000       0.00000000       0.00000320      -0.00087843      -0.05661467      -0.00196467      -0.00371432      -0.01409116
Cu       1.81500000       1.28339881      16.49500000        4       0.00000000       0.00000000       0.00000000       0.00102264       0.00278032      -0.11731386      -0.00523613      -0.00565647      -0.19634258
Cu       5.44500000       1.28339881      16.49500000        4       0.00000000       0.00000000       0.00000000      -0.00100309       0.00277903      -0.11721969       0.00198394      -0.00208527      -0.16699113
Cu       1.81500000       3.85019642      16.49500000        4       0.00000000       0.00000000       0.00000000       0.00504832       0.00200166      -0.11189502       0.01245335       0.02805191      -0.17163944
Cu       5.44500000       3.85019642      16.49500000        4       0.00000000       0.00000000       0.00000000      -0.00503772       0.00200438      -0.11178487      -0.01455512       0.02116109      -0.18070318
Cu       1.81500000       6.41699404      16.49500000        4       0.00000000       0.00000000       0.00000000       0.00429298      -0.00129282      -0.12954447      -0.00133492      -0.00912812      -0.18409172
Cu       5.44500000       6.41699404      16.49500000        4       0.00000000       0.00000000       0.00000000      -0.00428790      -0.00128103      -0.12964371       0.00186822      -0.01218106      -0.16096953
Cu       0.00000000       0.00000000      17.79400000        3       0.00000000       0.00000000       0.00000000       0.00007122      -0.02952130      -0.28123294       0.00040299      -0.03780419      -0.19903116
Cu       3.63000000       0.00000000      17.79400000        3       0.00000000       0.00000000       0.00000000       0.00014836       0.01744399      -0.37451516       0.01656320      -0.03849061      -0.43194793
Cu       0.00000000       2.56679762      17.79400000        3       0.00000000       0.00000000       0.00000000       0.00011479      -0.00645390      -0.22304873      -0.00926764       0.04098127      -0.22815111
Cu       3.63000000       2.56679762      17.79400000        3       0.00000000       0.00000000       0.00000000       0.00021651      -0.01716088      -0.36156520       0.01662703      -0.01278964      -0.43093122
Cu       0.00000000       5.13359523      17.79400000        3       0.00000000       0.00000000       0.00000000       0.00007328      -0.00595957      -0.38055265      -0.00125031      -0.03732980      -0.42489220
Cu       3.63000000       5.13359523      17.79400000        3       0.00000000       0.00000000       0.00000000       0.00016078      -0.02756118      -0.38006320       0.01681166      -0.00477238      -0.47114669
Cu       1.81416263       1.27421254      19.02955822        2       0.01599466      -0.01389634       0.11231530       0.00004464       0.01060957       0.09923922       0.08279255      -0.02392375       0.01913161
Cu       5.45393192       1.26729567      19.04171031        2      -0.00649477      -0.00469651       0.11622369      -0.00006697       0.01059386       0.09914589      -0.09299934      -0.01117011       0.01901248
Cu       1.81800528       3.83110703      19.04107837        2       0.02498159       0.01524845       0.11055614      -0.00274407       0.00796860       0.10373897      -0.01909398       0.03767683       0.05912457
Cu       5.43720948       3.83231002      19.03691923        2      -0.00711049       0.00951077       0.11508272       0.00262506       0.00803866       0.10361893       0.04477238       0.02042474       0.06547390
Cu       1.82533405       6.40102665      19.03693213        2       0.00478459      -0.00266061       0.11307727      -0.00140203       0.00420356       0.09839746      -0.01877948      -0.03091524       0.03154728
Cu       5.44487751       6.40852939      19.04838230        2      -0.00826884      -0.00430568       0.11863516       0.00142104       0.00423963       0.09835207       0.00322864      -0.03037719       0.04916025
Cu       0.02368476      -0.07546469      20.23780661        1      -0.01208229      -0.01087800       0.16762925       0.00004000       0.00860619       0.14274682      -0.08692191      -0.27695780      -0.51416578
Cu       3.63280117      -0.00878229      20.22729803        1      -0.00875639      -0.01123846       0.14692476      -0.00002015       0.00252742       0.11837160      -0.01267086      -0.01919189      -0.07840225
Cu       0.00073429       2.55710924      20.27696478        1       0.04192584      -0.01334024       0.13249406      -0.00017140      -0.00533259       0.16685886       0.06351668      -0.17752621       0.19957056
Cu       3.62858770       2.54748118      20.22766485        1       0.00820682       0.00428442       0.15096731      -0.00008180       0.01320092       0.11930561       0.00514320      -0.01295471      -0.05290035
Cu      -0.00341561       5.08375454      20.20188014        1       0.00706774       0.01002971       0.13587350      -0.00005270       0.00079805       0.12888788       0.01790496       0.03878439      -0.03699321
Cu       3.63017187       5.11883141      20.22569844        1       0.00757163      -0.00575720       0.16229928      -0.00010797       0.00682300       0.11913722       0.00996537      -0.00590482      -0.02283307
O        0.23044897       7.98639815      22.14760853        0      -0.07818828       0.09144143       0.05292925      -0.00041156      -0.01592458       0.01424090      -0.52088764       0.35259991       0.40849682
C       -0.07443218       1.81745913      22.08200696        0      -0.05893952      -0.05189865       0.04975537      -0.00007043       0.05269624       0.06192348      -0.35791985       0.21988307       0.67086629
H       -0.46809630       7.64282956      22.75003673        0       0.01601347       0.00658701       0.07697945       0.00058760      -0.00686929      -0.00747315       0.50046449       0.07675583      -0.55456633
O       -0.33585621       2.31693624      23.12947887        0       0.01046393       0.05118479       0.04667040      -0.00041770      -0.04038631       0.03143877       0.33889044      -0.11158846       0.14735546
46
Lattice="7.26 0.0 0.0 0.0 7.700392847121503 0.0 0.0 0.0 30.391999999999996" Properties=species:S:1:pos:R:3:tags:I:1:MACE_forces:R:3:forces:R:3:DFT_forces:R:3 method=neb MACE_energy=-186.46047994344613 energy=-186.97781233356525 stress="0.006651952307557245 -3.2073154882963493e-07 1.4710622538436238e-06 -3.2073154882963493e-07 0.007771409437050713 -2.2644539661852852e-05 1.4710622538436238e-06 -2.2644539661852852e-05 0.002609307520851428" free_energy=-186.97781233356525 DFT_energy=-190.93681381 pbc="T T T"
Cu       0.00000000       0.00000000      12.59800000        7       0.00000000       0.00000000       0.00000000      -0.00000029       0.00006157       0.42267225       0.00169120      -0.02114098       0.63548251
Cu       3.63000000       0.00000000      12.59800000        7       0.00000000       0.00000000       0.00000000       0.00000011      -0.00011203       0.42221863       0.00042577       0.00759412       0.63393795
Cu       0.00000000       2.56679762      12.59800000        7       0.00000000       0.00000000       0.00000000      -0.00000051      -0.00005019       0.42237447       0.00119887       0.01962330       0.63969160
Cu       3.63000000       2.56679762      12.59800000        7       0.00000000       0.00000000       0.00000000       0.00000020      -0.00004698       0.42177359      -0.00126668      -0.01327282       0.63247614
Cu       0.00000000       5.13359523      12.59800000        7       0.00000000       0.00000000       0.00000000      -0.00000027      -0.00001481       0.42185505      -0.00142747       0.00574004       0.62029030
Cu       3.63000000       5.13359523      12.59800000        7       0.00000000       0.00000000       0.00000000       0.00000004       0.00015532       0.42177615       0.00000948       0.00900013       0.63674663
Cu       1.81500000       1.28339881      13.89700000        6       0.00000000       0.00000000       0.00000000      -0.00022683       0.00009041      -0.15920623       0.02429674      -0.00304361      -0.18362981
Cu       5.44500000       1.28339881      13.89700000        6       0.00000000       0.00000000       0.00000000       0.00022595       0.00008877      -0.15920394      -0.02290788      -0.00321931      -0.18105640
Cu       1.81500000       3.85019642      13.89700000        6       0.00000000       0.00000000       0.00000000      -0.00038750      -0.00030452      -0.16005378       0.00625991       0.00310524      -0.18882708
Cu       5.44500000       3.85019642      13.89700000        6       0.00000000       0.00000000       0.00000000       0.00038610      -0.00030302      -0.16005276      -0.00511225       0.00402529      -0.18744117
Cu       1.81500000       6.41699404      13.89700000        6       0.00000000       0.00000000       0.00000000      -0.00003901       0.00026416      -0.16014005       0.01156349       0.00071923      -0.19643096
Cu       5.44500000       6.41699404      13.89700000        6       0.00000000       0.00000000       0.00000000       0.00003923       0.00026450      -0.16014223      -0.01074305       0.00796053      -0.19797389
Cu       0.00000000       0.00000000      15.19600000        5       0.00000000       0.00000000       0.00000000      -0.00000068       0.00071538      -0.06243817      -0.00056800       0.01134358       0.03302941
Cu       3.63000000       0.00000000      15.19600000        5       0.00000000       0.00000000       0.00000000       0.00000471       0.00180197      -0.05752107       0.00037087      -0.00043856       0.03853732
Cu       0.00000000       2.56679762      15.19600000        5       0.00000000       0.00000000       0.00000000      -0.00000066       0.00093842      -0.06215943       0.00106736       0.01203275       0.00736798
Cu       3.63000000       2.56679762      15.19600000        5       0.00000000       0.00000000       0.00000000       0.00000388      -0.00071459      -0.05546671       0.00337598       0.00591053       0.02324951
Cu       0.00000000       5.13359523      15.19600000        5       0.00000000       0.00000000       0.00000000       0.00000066      -0.00152757      -0.05922213       0.00039658      -0.01728064       0.08536587
Cu       3.63000000       5.13359523      15.19600000        5       0.00000000       0.00000000       0.00000000       0.00000320      -0.00087843      -0.05661467      -0.00226798      -0.00364331      -0.01360466
Cu       1.81500000       1.28339881      16.49500000        4       0.00000000       0.00000000       0.00000000       0.00102264       0.00278032      -0.11731386      -0.00541263      -0.00644621      -0.19330189
Cu       5.44500000       1.28339881      16.49500000        4       0.00000000       0.00000000       0.00000000      -0.00100309       0.00277903      -0.11721969       0.00184238      -0.00279283      -0.16478728
Cu       1.81500000       3.85019642      16.49500000        4       0.00000000       0.00000000       0.00000000       0.00504832       0.00200166      -0.11189502       0.01312488       0.02845857      -0.17375690
Cu       5.44500000       3.85019642      16.49500000        4       0.00000000       0.00000000       0.00000000      -0.00503772       0.00200438      -0.11178487      -0.01460492       0.02165970      -0.18288485
Cu       1.81500000       6.41699404      16.49500000        4       0.00000000       0.00000000       0.00000000       0.00429298      -0.00129282      -0.12954447      -0.00203602      -0.00885129      -0.17772493
Cu       5.44500000       6.41699404      16.49500000        4       0.00000000       0.00000000       0.00000000      -0.00428790      -0.00128103      -0.12964371       0.00148444      -0.01172571      -0.16044372
Cu       0.00000000       0.00000000      17.79400000        3       0.00000000       0.00000000       0.00000000       0.00007122      -0.02952130      -0.28123294      -0.00393831      -0.03759035      -0.17551690
Cu       3.63000000       0.00000000      17.79400000        3       0.00000000       0.00000000       0.00000000       0.00014836       0.01744399      -0.37451516       0.01227495      -0.04017519      -0.42867461
Cu       0.00000000       2.56679762      17.79400000        3       0.00000000       0.00000000       0.00000000       0.00011479      -0.00645390      -0.22304873      -0.00780300       0.04131955      -0.22945799
Cu       3.63000000       2.56679762      17.79400000        3       0.00000000       0.00000000       0.00000000       0.00021651      -0.01716088      -0.36156520       0.01421876      -0.01918036      -0.43030692
Cu       0.00000000       5.13359523      17.79400000        3       0.00000000       0.00000000       0.00000000       0.00007328      -0.00595957      -0.38055265      -0.00057038      -0.03970082      -0.42773281
Cu       3.63000000       5.13359523      17.79400000        3       0.00000000       0.00000000       0.00000000       0.00016078      -0.02756118      -0.38006320       0.01087308       0.00411438      -0.46763544
Cu       1.81199863       1.27197315      19.03065400        2       0.02117659      -0.00225967       0.11011331       0.00004464       0.01060957       0.09923922       0.08843766      -0.01153562       0.02164243
Cu       5.45461557       1.26666095      19.04239008        2      -0.00833257      -0.00209944       0.11447155      -0.00006697       0.01059386       0.09914589      -0.09484067      -0.00984003       0.01871092
Cu       1.81886774       3.83130859      19.03987691        2       0.01810813       0.01400370       0.11667412      -0.00274407       0.00796860       0.10373897      -0.02797360       0.03579287       0.06576901
Cu       5.43640619       3.83243010      19.03584685        2      -0.00608865       0.01038568       0.11892737       0.00262506       0.00803866       0.10361893       0.04385582       0.02276635       0.06777105
Cu       1.82175507       6.40357257      19.03948289        2       0.01383343      -0.01071902       0.11072034      -0.00140203       0.00420356       0.09839746      -0.00593917      -0.04027841       0.03012536
Cu       5.44580602       6.40907359      19.04852994        2      -0.00573680      -0.00403415       0.12313863       0.00142104       0.00423963       0.09835207       0.00803727      -0.02928357       0.05473137
Cu       0.01973475      -0.07386053      20.24862866        1       0.00440006      -0.00768972       0.14479005       0.00004000       0.00860619       0.14274682      -0.07548702      -0.26992582      -0.52010938
Cu       3.63365478      -0.00899876      20.22722656        1      -0.00938241      -0.01045135       0.14641708      -0.00002015       0.00252742       0.11837160      -0.01418321      -0.01870131      -0.07770792
Cu      -0.00097907       2.55800260      20.27606914        1       0.03631686       0.00479050       0.13503442      -0.00017140      -0.00533259       0.16685886       0.05915156      -0.16047289       0.19883627
Cu       3.62793753       2.54707308      20.22723647        1       0.00762745       0.00437989       0.15051850      -0.00008180       0.01320092       0.11930561       0.00503261      -0.01203765      -0.05405481
Cu      -0.00360472       5.08433042      20.20164542        1       0.00544793       0.01296239       0.14370057      -0.00005270       0.00079805       0.12888788       0.01692839       0.04266252      -0.03219558
Cu       3.62983684       5.11981228      20.22550157        1       0.00591485      -0.00685728       0.15959363      -0.00010797       0.00682300       0.11913722       0.00827653      -0.00529071      -0.02545590
O        0.24398220       8.01596327      22.15813776        0      -0.09083457       0.01485483       0.02648639      -0.00041156      -0.01592458       0.01424090      -0.54034409       0.30965366       0.36267794
C       -0.08345345       1.83341138      22.08631821        0      -0.03830050       0.01441642       0.04468373      -0.00007043       0.05269624       0.06192348      -0.36692902       0.19472433       0.63873087
H       -0.44754511       7.66322528      22.76288988        0       0.01391420      -0.00066891       0.10405461       0.00058760      -0.00686929      -0.00747315       0.53387293       0.11218996      -0.55439718
O       -0.35015726       2.33876692      23.13070340        0       0.00164618       0.03994754       0.02414208      -0.00041770      -0.04038631       0.03143877       0.33628784      -0.11452858       0.17993853
46
Lattice="7.26 0.0 0.0 0.0 7.700392847121503 0.0 0.0 0.0 30.391999999999996" Properties=species:S:1:pos:R:3:tags:I:1:MACE_forces:R:3:forces:R:3:DFT_forces:R:3 method=neb MACE_energy=-186.47965471721966 energy=-186.97781233356525 stress="0.006651952307557245 -3.2073154882963493e-07 1.4710622538436238e-06 -3.2073154882963493e-07 0.007771409437050713 -2.2644539661852852e-05 1.4710622538436238e-06 -2.2644539661852852e-05 0.002609307520851428" free_energy=-186.97781233356525 DFT_energy=-191.04242344 pbc="T T T"
Cu       0.00000000       0.00000000      12.59800000        7       0.00000000       0.00000000       0.00000000      -0.00000029       0.00006157       0.42267225       0.00237385      -0.02104497       0.63799937
Cu       3.63000000       0.00000000      12.59800000        7       0.00000000       0.00000000       0.00000000       0.00000011      -0.00011203       0.42221863      -0.00087649       0.00818886       0.63512124
Cu       0.00000000       2.56679762      12.59800000        7       0.00000000       0.00000000       0.00000000      -0.00000051      -0.00005019       0.42237447      -0.00026357       0.01815574       0.64311743
Cu       3.63000000       2.56679762      12.59800000        7       0.00000000       0.00000000       0.00000000       0.00000020      -0.00004698       0.42177359      -0.00095588      -0.01422421       0.63510934
Cu       0.00000000       5.13359523      12.59800000        7       0.00000000       0.00000000       0.00000000      -0.00000027      -0.00001481       0.42185505      -0.00050284       0.00751365       0.62426670
Cu       3.63000000       5.13359523      12.59800000        7       0.00000000       0.00000000       0.00000000       0.00000004       0.00015532       0.42177615      -0.00008580       0.00947767       0.64089444
Cu       1.81500000       1.28339881      13.89700000        6       0.00000000       0.00000000       0.00000000      -0.00022683       0.00009041      -0.15920623       0.02384947      -0.00281257      -0.18323410
Cu       5.44500000       1.28339881      13.89700000        6       0.00000000       0.00000000       0.00000000       0.00022595       0.00008877      -0.15920394      -0.02349508      -0.00288199      -0.18136111
Cu       1.81500000       3.85019642      13.89700000        6       0.00000000       0.00000000       0.00000000      -0.00038750      -0.00030452      -0.16005378       0.00606896       0.00441319      -0.18809487
Cu       5.44500000       3.85019642      13.89700000        6       0.00000000       0.00000000       0.00000000       0.00038610      -0.00030302      -0.16005276      -0.00557559       0.00494021      -0.18746762
Cu       1.81500000       6.41699404      13.89700000        6       0.00000000       0.00000000       0.00000000      -0.00003901       0.00026416      -0.16014005       0.01128374      -0.00035222      -0.19777466
Cu       5.44500000       6.41699404      13.89700000        6       0.00000000       0.00000000       0.00000000       0.00003923       0.00026450      -0.16014223      -0.01070077       0.00700569      -0.19794081
Cu       0.00000000       0.00000000      15.19600000        5       0.00000000       0.00000000       0.00000000      -0.00000068       0.00071538      -0.06243817      -0.00122605       0.00944547       0.03142554
Cu       3.63000000       0.00000000      15.19600000        5       0.00000000       0.00000000       0.00000000       0.00000471       0.00180197      -0.05752107      -0.00065716       0.00046894       0.03946599
Cu       0.00000000       2.56679762      15.19600000        5       0.00000000       0.00000000       0.00000000      -0.00000066       0.00093842      -0.06215943       0.00057061       0.01488430       0.00105520
Cu       3.63000000       2.56679762      15.19600000        5       0.00000000       0.00000000       0.00000000       0.00000388      -0.00071459      -0.05546671       0.00159001       0.00444822       0.02589573
Cu       0.00000000       5.13359523      15.19600000        5       0.00000000       0.00000000       0.00000000       0.00000066      -0.00152757      -0.05922213      -0.00041807      -0.01793769       0.08622082
Cu       3.63000000       5.13359523      15.19600000        5       0.00000000       0.00000000       0.00000000       0.00000320      -0.00087843      -0.05661467      -0.00223462      -0.00303726      -0.01136716
Cu       1.81500000       1.28339881      16.49500000        4       0.00000000       0.00000000       0.00000000       0.00102264       0.00278032      -0.11731386      -0.00675305      -0.00862763      -0.18120510
Cu       5.44500000       1.28339881      16.49500000        4       0.00000000       0.00000000       0.00000000      -0.00100309       0.00277903      -0.11721969       0.00534388      -0.00335127      -0.16287981
Cu       1.81500000       3.85019642      16.49500000        4       0.00000000       0.00000000       0.00000000       0.00504832       0.00200166      -0.11189502       0.01581073       0.03013649      -0.17288589
Cu       5.44500000       3.85019642      16.49500000        4       0.00000000       0.00000000       0.00000000      -0.00503772       0.00200438      -0.11178487      -0.01586514       0.02147272      -0.18073789
Cu       1.81500000       6.41699404      16.49500000        4       0.00000000       0.00000000       0.00000000       0.00429298      -0.00129282      -0.12954447      -0.00224545      -0.00875095      -0.16607595
Cu       5.44500000       6.41699404      16.49500000        4       0.00000000       0.00000000       0.00000000      -0.00428790      -0.00128103      -0.12964371       0.00242469      -0.01156277      -0.16556463
Cu       0.00000000       0.00000000      17.79400000        3       0.00000000       0.00000000       0.00000000       0.00007122      -0.02952130      -0.28123294      -0.00763319      -0.03553389      -0.17681476
Cu       3.63000000       0.00000000      17.79400000        3       0.00000000       0.00000000       0.00000000       0.00014836       0.01744399      -0.37451516       0.00177718      -0.03908189      -0.42771551
Cu       0.00000000       2.56679762      17.79400000        3       0.00000000       0.00000000       0.00000000       0.00011479      -0.00645390      -0.22304873       0.00318153       0.05171490      -0.25235565
Cu       3.63000000       2.56679762      17.79400000        3       0.00000000       0.00000000       0.00000000       0.00021651      -0.01716088      -0.36156520       0.00814316      -0.01785523      -0.42877683
Cu       0.00000000       5.13359523      17.79400000        3       0.00000000       0.00000000       0.00000000       0.00007328      -0.00595957      -0.38055265       0.00110071      -0.04228058      -0.42624514
Cu       3.63000000       5.13359523      17.79400000        3       0.00000000       0.00000000       0.00000000       0.00016078      -0.02756118      -0.38006320      -0.00369290       0.01426389      -0.46757903
Cu       1.81098347       1.27040798      19.03353384        2       0.00611196       0.00189982       0.11918354       0.00004464       0.01060957       0.09923922       0.06927879      -0.00653974       0.04553491
Cu       5.45171894       1.27001547      19.03963371        2      -0.00442549      -0.00417004       0.11916236      -0.00006697       0.01059386       0.09914589      -0.08785379      -0.01833290       0.03511391
Cu       1.82097634       3.83453699      19.03891381        2       0.00490889       0.00055431       0.12696438      -0.00274407       0.00796860       0.10373897      -0.04412414       0.02256127       0.07465712
Cu       5.43734206       3.83554262      19.03518095        2      -0.01012255       0.00213539       0.12440711       0.00262506       0.00803866       0.10361893       0.02893670       0.02406677       0.06489263
Cu       1.81779942       6.40864150      19.04353778        2       0.01406299      -0.01458633       0.12055015      -0.00140203       0.00420356       0.09839746      -0.00416626      -0.04592411       0.04827364
Cu       5.44181699       6.40941259      19.04582342        2      -0.00427739      -0.00984172       0.12518347       0.00142104       0.00423963       0.09835207       0.01656476      -0.03651872       0.05847290
Cu      -0.00235656      -0.07773846      20.25337018        1       0.01845168      -0.00825967       0.13083702       0.00004000       0.00860619       0.14274682      -0.03814016      -0.23043995      -0.40849605
Cu       3.63212937      -0.00933288      20.22886475        1       0.00066857      -0.00230094       0.14571383      -0.00002015       0.00252742       0.11837160      -0.00476964      -0.01107816      -0.08334359
Cu      -0.00040609       2.56152939      20.27234255        1       0.00088478       0.01119719       0.16108431      -0.00017140      -0.00533259       0.16685886       0.02699862      -0.14935146       0.15292694
Cu       3.62987268       2.54876131      20.22809209        1      -0.00278926       0.00173016       0.14641736      -0.00008180       0.01320092       0.11930561      -0.01059689      -0.01283380      -0.06173150
Cu      -0.00283249       5.08913449      20.20389832        1      -0.00004607      -0.00529179       0.15162777      -0.00005270       0.00079805       0.12888788       0.01086820       0.03653352      -0.04937849
Cu       3.63033038       5.12068362      20.22752373        1      -0.00123191      -0.00320377       0.15205983      -0.00010797       0.00682300       0.11913722      -0.00175356      -0.00218665      -0.03367856
O        0.19518008       8.10229098      22.17738885        0      -0.03214868       0.00482811       0.08483750      -0.00041156      -0.01592458       0.01424090      -0.43105928       0.33238238       0.43802922
C       -0.12377243       1.84870559      22.08305795        0       0.06016939       0.02958259       0.02394973      -0.00007043       0.05269624       0.06192348      -0.38910798       0.17633576       0.61855293
H       -0.29279303       7.77210002      22.96785064        0      -0.01095286       0.05703445       0.01356721       0.00058760      -0.00686929      -0.00747315       0.60081849       0.09093983      -0.58953270
O       -0.38510388       2.41025918      23.10871192        0      -0.04574414      -0.00668632       0.00671562      -0.00041770      -0.04038631       0.03143877       0.25776926      -0.14680885       0.04521142
46
Lattice="7.26 0.0 0.0 0.0 7.700392847121503 0.0 0.0 0.0 30.391999999999996" Properties=species:S:1:pos:R:3:tags:I:1:MACE_forces:R:3:forces:R:3:DFT_forces:R:3 method=neb MACE_energy=-186.48618291821276 energy=-186.97781233356525 stress="0.006651952307557245 -3.2073154882963493e-07 1.4710622538436238e-06 -3.2073154882963493e-07 0.007771409437050713 -2.2644539661852852e-05 1.4710622538436238e-06 -2.2644539661852852e-05 0.002609307520851428" free_energy=-186.97781233356525 DFT_energy=-191.08964309 pbc="T T T"
Cu       0.00000000       0.00000000      12.59800000        7       0.00000000       0.00000000       0.00000000      -0.00000029       0.00006157       0.42267225       0.00291311      -0.02124774       0.63920194
Cu       3.63000000       0.00000000      12.59800000        7       0.00000000       0.00000000       0.00000000       0.00000011      -0.00011203       0.42221863      -0.00115964       0.00816556       0.63588230
Cu       0.00000000       2.56679762      12.59800000        7       0.00000000       0.00000000       0.00000000      -0.00000051      -0.00005019       0.42237447      -0.00073334       0.01737823       0.64430948
Cu       3.63000000       2.56679762      12.59800000        7       0.00000000       0.00000000       0.00000000       0.00000020      -0.00004698       0.42177359      -0.00039277      -0.01467584       0.63664004
Cu       0.00000000       5.13359523      12.59800000        7       0.00000000       0.00000000       0.00000000      -0.00000027      -0.00001481       0.42185505       0.00031260       0.00827484       0.62600896
Cu       3.63000000       5.13359523      12.59800000        7       0.00000000       0.00000000       0.00000000       0.00000004       0.00015532       0.42177615       0.00028858       0.00951033       0.64295801
Cu       1.81500000       1.28339881      13.89700000        6       0.00000000       0.00000000       0.00000000      -0.00022683       0.00009041      -0.15920623       0.02366750      -0.00336216      -0.18287018
Cu       5.44500000       1.28339881      13.89700000        6       0.00000000       0.00000000       0.00000000       0.00022595       0.00008877      -0.15920394      -0.02339335      -0.00216334      -0.18172208
Cu       1.81500000       3.85019642      13.89700000        6       0.00000000       0.00000000       0.00000000      -0.00038750      -0.00030452      -0.16005378       0.00631639       0.00509594      -0.18770382
Cu       5.44500000       3.85019642      13.89700000        6       0.00000000       0.00000000       0.00000000       0.00038610      -0.00030302      -0.16005276      -0.00537821       0.00502701      -0.18801519
Cu       1.81500000       6.41699404      13.89700000        6       0.00000000       0.00000000       0.00000000      -0.00003901       0.00026416      -0.16014005       0.01099881      -0.00091556      -0.19845427
Cu       5.44500000       6.41699404      13.89700000        6       0.00000000       0.00000000       0.00000000       0.00003923       0.00026450      -0.16014223      -0.01073181       0.00614599      -0.19814155
Cu       0.00000000       0.00000000      15.19600000        5       0.00000000       0.00000000       0.00000000      -0.00000068       0.00071538      -0.06243817      -0.00081897       0.00852674       0.03017142
Cu       3.63000000       0.00000000      15.19600000        5       0.00000000       0.00000000       0.00000000       0.00000471       0.00180197      -0.05752107      -0.00115893       0.00073707       0.04013263
Cu       0.00000000       2.56679762      15.19600000        5       0.00000000       0.00000000       0.00000000      -0.00000066       0.00093842      -0.06215943       0.00021940       0.01609248      -0.00215955
Cu       3.63000000       2.56679762      15.19600000        5       0.00000000       0.00000000       0.00000000       0.00000388      -0.00071459      -0.05546671       0.00121334       0.00359732       0.02694221
Cu       0.00000000       5.13359523      15.19600000        5       0.00000000       0.00000000       0.00000000       0.00000066      -0.00152757      -0.05922213      -0.00042489      -0.01872521       0.08640826
Cu       3.63000000       5.13359523      15.19600000        5       0.00000000       0.00000000       0.00000000       0.00000320      -0.00087843      -0.05661467      -0.00146986      -0.00288188      -0.00950428
Cu       1.81500000       1.28339881      16.49500000        4       0.00000000       0.00000000       0.00000000       0.00102264       0.00278032      -0.11731386      -0.00667943      -0.00917355      -0.17698918
Cu       5.44500000       1.28339881      16.49500000        4       0.00000000       0.00000000       0.00000000      -0.00100309       0.00277903      -0.11721969       0.00719241      -0.00411270      -0.15966506
Cu       1.81500000       3.85019642      16.49500000        4       0.00000000       0.00000000       0.00000000       0.00504832       0.00200166      -0.11189502       0.01744233       0.03063207      -0.16848661
Cu       5.44500000       3.85019642      16.49500000        4       0.00000000       0.00000000       0.00000000      -0.00503772       0.00200438      -0.11178487      -0.01641127       0.02087600      -0.17704886
Cu       1.81500000       6.41699404      16.49500000        4       0.00000000       0.00000000       0.00000000       0.00429298      -0.00129282      -0.12954447      -0.00138227      -0.00895872      -0.16363501
Cu       5.44500000       6.41699404      16.49500000        4       0.00000000       0.00000000       0.00000000      -0.00428790      -0.00128103      -0.12964371       0.00411491      -0.01135585      -0.16150783
Cu       0.00000000       0.00000000      17.79400000        3       0.00000000       0.00000000       0.00000000       0.00007122      -0.02952130      -0.28123294      -0.00231434      -0.03485656      -0.21288910
Cu       3.63000000       0.00000000      17.79400000        3       0.00000000       0.00000000       0.00000000       0.00014836       0.01744399      -0.37451516       0.00496442      -0.03915185      -0.42695917
Cu       0.00000000       2.56679762      17.79400000        3       0.00000000       0.00000000       0.00000000       0.00011479      -0.00645390      -0.22304873       0.00554962       0.05704698      -0.27013493
Cu       3.63000000       2.56679762      17.79400000        3       0.00000000       0.00000000       0.00000000       0.00021651      -0.01716088      -0.36156520       0.00999159      -0.01366428      -0.42736168
Cu       0.00000000       5.13359523      17.79400000        3       0.00000000       0.00000000       0.00000000       0.00007328      -0.00595957      -0.38055265       0.00100144      -0.04506835      -0.41371860
Cu       3.63000000       5.13359523      17.79400000        3       0.00000000       0.00000000       0.00000000       0.00016078      -0.02756118      -0.38006320      -0.00181812       0.01525838      -0.46953796
Cu       1.81194805       1.27238714      19.03444715        2       0.00656679      -0.00367359       0.11756493       0.00004464       0.01060957       0.09923922       0.06785028      -0.01372516       0.04795012
Cu       5.45149185       1.27107437      19.03947383        2      -0.00641519      -0.00372587       0.11738141      -0.00006697       0.01059386       0.09914589      -0.08653761      -0.02026410       0.04130417
Cu       1.82052385       3.83544371      19.04036905        2       0.01035568       0.00217865       0.12174251      -0.00274407       0.00796860       0.10373897      -0.03715864       0.02520131       0.06729916
Cu       5.43810012       3.83685908      19.03616740        2      -0.01144069       0.00219127       0.12151022       0.00262506       0.00803866       0.10361893       0.02401220       0.02781714       0.05629010
Cu       1.81893492       6.40791621      19.04440457        2       0.01197312      -0.00991959       0.12115240      -0.00140203       0.00420356       0.09839746      -0.00898762      -0.04048645       0.04959718
Cu       5.44214043       6.40987322      19.04745532        2      -0.00971632      -0.01032259       0.11982169       0.00142104       0.00423963       0.09835207       0.01007017      -0.03790554       0.05241882
Cu       0.00172208      -0.07463594      20.24373685        1       0.00410830      -0.01271882       0.15264528       0.00004000       0.00860619       0.14274682      -0.03556835      -0.18944167      -0.23255921
Cu       3.63069864      -0.00931213      20.22905846        1       0.00132385      -0.00146489       0.14704825      -0.00002015       0.00252742       0.11837160      -0.00103914      -0.01155524      -0.08378567
Cu       0.00068417       2.56632391      20.26943734        1       0.00225510       0.00180688       0.15729393      -0.00017140      -0.00533259       0.16685886       0.02653746      -0.15940889       0.11680490
Cu       3.63159690       2.54850269      20.22838018        1      -0.00410924       0.00471342       0.14713367      -0.00008180       0.01320092       0.11930561      -0.01699272      -0.00777787      -0.06284317
Cu      -0.00245179       5.09260100      20.20819460        1       0.00112752      -0.00577818       0.14194765      -0.00005270       0.00079805       0.12888788       0.01381294       0.04463039      -0.06822622
Cu       3.63073025       5.12007621      20.22737936        1      -0.00079291      -0.00070363       0.15515067      -0.00010797       0.00682300       0.11913722      -0.00108678      -0.00114841      -0.02958345
O        0.15023300       8.14729977      22.19871150        0       0.00588331      -0.02543227       0.10349653      -0.00041156      -0.01592458       0.01424090      -0.28942164       0.28783340       0.39934796
C       -0.13913286       1.86356229      22.07915740        0       0.02419165       0.01693695       0.04781793      -0.00007043       0.05269624       0.06192348      -0.32118621       0.18929995       0.60272089
H       -0.20812041       7.85625281      23.07204718        0      -0.01751336       0.08180365      -0.02906470       0.00058760      -0.00686929      -0.00747315       0.45853342       0.08653741      -0.55702236
O       -0.41451862       2.46094130      23.08574564        0      -0.03227244       0.01311209       0.01748363      -0.00041770      -0.04038631       0.03143877       0.17524300      -0.16165761      -0.03186355
46
Lattice="7.26 0.0 0.0 0.0 7.700392847121503 0.0 0.0 0.0 30.391999999999996" Properties=species:S:1:pos:R:3:tags:I:1:MACE_forces:R:3:forces:R:3:DFT_forces:R:3 method=neb MACE_energy=-186.4927920769827 energy=-186.97781233356525 stress="0.006651952307557245 -3.2073154882963493e-07 1.4710622538436238e-06 -3.2073154882963493e-07 0.007771409437050713 -2.2644539661852852e-05 1.4710622538436238e-06 -2.2644539661852852e-05 0.002609307520851428" free_energy=-186.97781233356525 DFT_energy=-191.11028095 pbc="T T T"
Cu       0.00000000       0.00000000      12.59800000        7       0.00000000       0.00000000       0.00000000      -0.00000029       0.00006157       0.42267225       0.00351641      -0.02156149       0.63902000
Cu       3.63000000       0.00000000      12.59800000        7       0.00000000       0.00000000       0.00000000       0.00000011      -0.00011203       0.42221863      -0.00101410       0.00836300       0.63563396
Cu       0.00000000       2.56679762      12.59800000        7       0.00000000       0.00000000       0.00000000      -0.00000051      -0.00005019       0.42237447      -0.00109767       0.01699783       0.64455472
Cu       3.63000000       2.56679762      12.59800000        7       0.00000000       0.00000000       0.00000000       0.00000020      -0.00004698       0.42177359       0.00002245      -0.01494731       0.63691170
Cu       0.00000000       5.13359523      12.59800000        7       0.00000000       0.00000000       0.00000000      -0.00000027      -0.00001481       0.42185505       0.00115749       0.00846874       0.62597416
Cu       3.63000000       5.13359523      12.59800000        7       0.00000000       0.00000000       0.00000000       0.00000004       0.00015532       0.42177615       0.00052351       0.00898831       0.64376863
Cu       1.81500000       1.28339881      13.89700000        6       0.00000000       0.00000000       0.00000000      -0.00022683       0.00009041      -0.15920623       0.02317095      -0.00377655      -0.18300145
Cu       5.44500000       1.28339881      13.89700000        6       0.00000000       0.00000000       0.00000000       0.00022595       0.00008877      -0.15920394      -0.02307125      -0.00224737      -0.18259312
Cu       1.81500000       3.85019642      13.89700000        6       0.00000000       0.00000000       0.00000000      -0.00038750      -0.00030452      -0.16005378       0.00664097       0.00540251      -0.18774511
Cu       5.44500000       3.85019642      13.89700000        6       0.00000000       0.00000000       0.00000000       0.00038610      -0.00030302      -0.16005276      -0.00534299       0.00484201      -0.18837291
Cu       1.81500000       6.41699404      13.89700000        6       0.00000000       0.00000000       0.00000000      -0.00003901       0.00026416      -0.16014005       0.01055324      -0.00127533      -0.19886349
Cu       5.44500000       6.41699404      13.89700000        6       0.00000000       0.00000000       0.00000000       0.00003923       0.00026450      -0.16014223      -0.01018806       0.00592901      -0.19792326
Cu       0.00000000       0.00000000      15.19600000        5       0.00000000       0.00000000       0.00000000      -0.00000068       0.00071538      -0.06243817      -0.00060109       0.00815985       0.03092297
Cu       3.63000000       0.00000000      15.19600000        5       0.00000000       0.00000000       0.00000000       0.00000471       0.00180197      -0.05752107      -0.00140182       0.00057110       0.04059051
Cu       0.00000000       2.56679762      15.19600000        5       0.00000000       0.00000000       0.00000000      -0.00000066       0.00093842      -0.06215943       0.00021020       0.01668994      -0.00205909
Cu       3.63000000       2.56679762      15.19600000        5       0.00000000       0.00000000       0.00000000       0.00000388      -0.00071459      -0.05546671       0.00080350       0.00345289       0.02832504
Cu       0.00000000       5.13359523      15.19600000        5       0.00000000       0.00000000       0.00000000       0.00000066      -0.00152757      -0.05922213      -0.00043019      -0.01994525       0.08574099
Cu       3.63000000       5.13359523      15.19600000        5       0.00000000       0.00000000       0.00000000       0.00000320      -0.00087843      -0.05661467      -0.00068542      -0.00306439      -0.00798053
Cu       1.81500000       1.28339881      16.49500000        4       0.00000000       0.00000000       0.00000000       0.00102264       0.00278032      -0.11731386      -0.00583337      -0.01026458      -0.17258522
Cu       5.44500000       1.28339881      16.49500000        4       0.00000000       0.00000000       0.00000000      -0.00100309       0.00277903      -0.11721969       0.00823945      -0.00521282      -0.15544631
Cu       1.81500000       3.85019642      16.49500000        4       0.00000000       0.00000000       0.00000000       0.00504832       0.00200166      -0.11189502       0.01894743       0.03058101      -0.16533309
Cu       5.44500000       3.85019642      16.49500000        4       0.00000000       0.00000000       0.00000000      -0.00503772       0.00200438      -0.11178487      -0.01616908       0.02028037      -0.17634485
Cu       1.81500000       6.41699404      16.49500000        4       0.00000000       0.00000000       0.00000000       0.00429298      -0.00129282      -0.12954447      -0.00152557      -0.00866699      -0.15801916
Cu       5.44500000       6.41699404      16.49500000        4       0.00000000       0.00000000       0.00000000      -0.00428790      -0.00128103      -0.12964371       0.00566285      -0.01075673      -0.15397273
Cu       0.00000000       0.00000000      17.79400000        3       0.00000000       0.00000000       0.00000000       0.00007122      -0.02952130      -0.28123294       0.00104915      -0.03075428      -0.19875827
Cu       3.63000000       0.00000000      17.79400000        3       0.00000000       0.00000000       0.00000000       0.00014836       0.01744399      -0.37451516       0.00652735      -0.04231316      -0.42245397
Cu       0.00000000       2.56679762      17.79400000        3       0.00000000       0.00000000       0.00000000       0.00011479      -0.00645390      -0.22304873       0.00782620       0.05849749      -0.27372827
Cu       3.63000000       2.56679762      17.79400000        3       0.00000000       0.00000000       0.00000000       0.00021651      -0.01716088      -0.36156520       0.01149072      -0.01309330      -0.42323767
Cu       0.00000000       5.13359523      17.79400000        3       0.00000000       0.00000000       0.00000000       0.00007328      -0.00595957      -0.38055265       0.00083021      -0.04859083      -0.40144737
Cu       3.63000000       5.13359523      17.79400000        3       0.00000000       0.00000000       0.00000000       0.00016078      -0.02756118      -0.38006320      -0.00163039       0.02430605      -0.46418045
Cu       1.81198439       1.27300344      19.03620972        2       0.00768033      -0.00128339       0.11335914       0.00004464       0.01060957       0.09923922       0.06813898      -0.01083974       0.04339286
Cu       5.45172290       1.27009104      19.04046290        2      -0.00508641       0.00247918       0.11640342      -0.00006697       0.01059386       0.09914589      -0.08328098      -0.01568206       0.04196104
Cu       1.81994569       3.83686803      19.04167387        2       0.00823406       0.00020301       0.11952686      -0.00274407       0.00796860       0.10373897      -0.04021424       0.01972836       0.06606732
Cu       5.43826481       3.83911085      19.03615877        2      -0.00586091      -0.00165111       0.12269457       0.00262506       0.00803866       0.10361893       0.02696897       0.02638280       0.05328235
Cu       1.81679827       6.40889398      19.04629742        2       0.01261984      -0.00691932       0.12321370      -0.00140203       0.00420356       0.09839746      -0.00616600      -0.03637163       0.05267807
Cu       5.44538258       6.41204847      19.05065559        2      -0.01324969      -0.00905627       0.11907585       0.00142104       0.00423963       0.09835207       0.00380615      -0.03579226       0.05009668
Cu       0.00633984      -0.06404767      20.25188068        1      -0.00371950      -0.02911164       0.11675480       0.00004000       0.00860619       0.14274682      -0.03455950      -0.17767110      -0.16767537
Cu       3.62929468      -0.01039707      20.22908781        1       0.00239247      -0.00119497       0.14725277      -0.00002015       0.00252742       0.11837160       0.00249694      -0.01116715      -0.08150909
Cu      -0.00041067       2.56788356      20.26792439        1       0.00150978       0.00392125       0.15969281      -0.00017140      -0.00533259       0.16685886       0.02303418      -0.15274858       0.10665530
Cu       3.63333776       2.54769824      20.22838752        1      -0.00556753       0.00737945       0.14628082      -0.00008180       0.01320092       0.11930561      -0.02415416      -0.00355906      -0.06509255
Cu      -0.00260587       5.09919805      20.21295485        1       0.00249266      -0.01209997       0.12888881      -0.00005270       0.00079805       0.12888788       0.01679579       0.03657552      -0.08279098
Cu       3.63063807       5.11860384      20.22699010        1       0.00009989       0.00773969       0.15409056      -0.00010797       0.00682300       0.11913722       0.00040262       0.00651568      -0.02867201
O        0.12666128       8.18143882      22.23148124        0       0.01394066       0.09894419       0.07257475      -0.00041156      -0.01592458       0.01424090      -0.18521272       0.48392211       0.30950400
C       -0.15858617       1.89227333      22.08555677        0       0.01910559      -0.03194145       0.01713420      -0.00007043       0.05269624       0.06192348      -0.23477003       0.12716045       0.58255301
H       -0.12881560       7.92759275      23.14990889        0      -0.05251714       0.07059748       0.01774163       0.00058760      -0.00686929      -0.00747315       0.36072658      -0.03036234      -0.57938316
O       -0.44732034       2.51916952      23.07190460        0       0.00074093      -0.05400055       0.01854565      -0.00041770      -0.04038631       0.03143877       0.06780633      -0.21115075       0.00153618
46
Lattice="7.26 0.0 0.0 0.0 7.700392847121503 0.0 0.0 0.0 30.391999999999996" Properties=species:S:1:pos:R:3:tags:I:1:MACE_forces:R:3:forces:R:3:DFT_forces:R:3 method=neb MACE_energy=-186.50089668293987 energy=-186.97781233356525 stress="0.006651952307557245 -3.2073154882963493e-07 1.4710622538436238e-06 -3.2073154882963493e-07 0.007771409437050713 -2.2644539661852852e-05 1.4710622538436238e-06 -2.2644539661852852e-05 0.002609307520851428" free_energy=-186.97781233356525 DFT_energy=-191.11937231 pbc="T T T"
Cu       0.00000000       0.00000000      12.59800000        7       0.00000000       0.00000000       0.00000000      -0.00000029       0.00006157       0.42267225       0.00378368      -0.02165161       0.63908350
Cu       3.63000000       0.00000000      12.59800000        7       0.00000000       0.00000000       0.00000000       0.00000011      -0.00011203       0.42221863      -0.00084351       0.00862647       0.63563191
Cu       0.00000000       2.56679762      12.59800000        7       0.00000000       0.00000000       0.00000000      -0.00000051      -0.00005019       0.42237447      -0.00166878       0.01649891       0.64476357
Cu       3.63000000       2.56679762      12.59800000        7       0.00000000       0.00000000       0.00000000       0.00000020      -0.00004698       0.42177359       0.00004864      -0.01499817       0.63764312
Cu       0.00000000       5.13359523      12.59800000        7       0.00000000       0.00000000       0.00000000      -0.00000027      -0.00001481       0.42185505       0.00136589       0.00907247       0.62686565
Cu       3.63000000       5.13359523      12.59800000        7       0.00000000       0.00000000       0.00000000       0.00000004       0.00015532       0.42177615       0.00025102       0.00869041       0.64505336
Cu       1.81500000       1.28339881      13.89700000        6       0.00000000       0.00000000       0.00000000      -0.00022683       0.00009041      -0.15920623       0.02227759      -0.00396547      -0.18316739
Cu       5.44500000       1.28339881      13.89700000        6       0.00000000       0.00000000       0.00000000       0.00022595       0.00008877      -0.15920394      -0.02294978      -0.00212201      -0.18329685
Cu       1.81500000       3.85019642      13.89700000        6       0.00000000       0.00000000       0.00000000      -0.00038750      -0.00030452      -0.16005378       0.00680523       0.00590005      -0.18821316
Cu       5.44500000       3.85019642      13.89700000        6       0.00000000       0.00000000       0.00000000       0.00038610      -0.00030302      -0.16005276      -0.00553514       0.00484652      -0.18874753
Cu       1.81500000       6.41699404      13.89700000        6       0.00000000       0.00000000       0.00000000      -0.00003901       0.00026416      -0.16014005       0.00985362      -0.00172528      -0.19900860
Cu       5.44500000       6.41699404      13.89700000        6       0.00000000       0.00000000       0.00000000       0.00003923       0.00026450      -0.16014223      -0.00994359       0.00591581      -0.19751493
Cu       0.00000000       0.00000000      15.19600000        5       0.00000000       0.00000000       0.00000000      -0.00000068       0.00071538      -0.06243817      -0.00057251       0.00763368       0.03039289
Cu       3.63000000       0.00000000      15.19600000        5       0.00000000       0.00000000       0.00000000       0.00000471       0.00180197      -0.05752107      -0.00185916       0.00085077       0.04058311
Cu       0.00000000       2.56679762      15.19600000        5       0.00000000       0.00000000       0.00000000      -0.00000066       0.00093842      -0.06215943      -0.00001691       0.01777381      -0.00253870
Cu       3.63000000       2.56679762      15.19600000        5       0.00000000       0.00000000       0.00000000       0.00000388      -0.00071459      -0.05546671       0.00041272       0.00336541       0.03009461
Cu       0.00000000       5.13359523      15.19600000        5       0.00000000       0.00000000       0.00000000       0.00000066      -0.00152757      -0.05922213      -0.00057251      -0.02068156       0.08485969
Cu       3.63000000       5.13359523      15.19600000        5       0.00000000       0.00000000       0.00000000       0.00000320      -0.00087843      -0.05661467      -0.00058332      -0.00314255      -0.00638653
Cu       1.81500000       1.28339881      16.49500000        4       0.00000000       0.00000000       0.00000000       0.00102264       0.00278032      -0.11731386      -0.00587299      -0.01062679      -0.16673623
Cu       5.44500000       1.28339881      16.49500000        4       0.00000000       0.00000000       0.00000000      -0.00100309       0.00277903      -0.11721969       0.00874696      -0.00608028      -0.15138786
Cu       1.81500000       3.85019642      16.49500000        4       0.00000000       0.00000000       0.00000000       0.00504832       0.00200166      -0.11189502       0.02004030       0.03049351      -0.15758440
Cu       5.44500000       3.85019642      16.49500000        4       0.00000000       0.00000000       0.00000000      -0.00503772       0.00200438      -0.11178487      -0.01668971       0.01997077      -0.17379836
Cu       1.81500000       6.41699404      16.49500000        4       0.00000000       0.00000000       0.00000000       0.00429298      -0.00129282      -0.12954447      -0.00247506      -0.00818963      -0.15483561
Cu       5.44500000       6.41699404      16.49500000        4       0.00000000       0.00000000       0.00000000      -0.00428790      -0.00128103      -0.12964371       0.00663486      -0.01000892      -0.14945857
Cu       0.00000000       0.00000000      17.79400000        3       0.00000000       0.00000000       0.00000000       0.00007122      -0.02952130      -0.28123294       0.00210359      -0.03148366      -0.19981793
Cu       3.63000000       0.00000000      17.79400000        3       0.00000000       0.00000000       0.00000000       0.00014836       0.01744399      -0.37451516       0.00472507      -0.03795766      -0.42022463
Cu       0.00000000       2.56679762      17.79400000        3       0.00000000       0.00000000       0.00000000       0.00011479      -0.00645390      -0.22304873       0.00845663       0.05964229      -0.26800284
Cu       3.63000000       2.56679762      17.79400000        3       0.00000000       0.00000000       0.00000000       0.00021651      -0.01716088      -0.36156520       0.00943088      -0.01011981      -0.41641698
Cu       0.00000000       5.13359523      17.79400000        3       0.00000000       0.00000000       0.00000000       0.00007328      -0.00595957      -0.38055265       0.00131139      -0.04840148      -0.39196176
Cu       3.63000000       5.13359523      17.79400000        3       0.00000000       0.00000000       0.00000000       0.00016078      -0.02756118      -0.38006320      -0.00415373       0.02020759      -0.46071687
Cu       1.81033454       1.27439126      19.03814090        2       0.01114778      -0.00609594       0.11242325       0.00004464       0.01060957       0.09923922       0.07344818      -0.01498779       0.04412372
Cu       5.45233448       1.27009526      19.04109638        2      -0.00157234      -0.00292886       0.12032685      -0.00006697       0.01059386       0.09914589      -0.07913951      -0.02309717       0.04965983
Cu       1.81724506       3.83639692      19.04493299        2       0.01715015       0.00089898       0.11104379      -0.00274407       0.00796860       0.10373897      -0.02752807       0.01882913       0.05547809
Cu       5.43976286       3.83992217      19.03708967        2      -0.01162924      -0.00247153       0.11937153       0.00262506       0.00803866       0.10361893       0.01570901       0.02810464       0.04488085
Cu       1.81816253       6.40868218      19.04697745        2      -0.00231439      -0.00388066       0.12771892      -0.00140203       0.00420356       0.09839746      -0.02293016      -0.03121336       0.05891478
Cu       5.44457568       6.41243291      19.05213496        2       0.00236636      -0.00475000       0.12401847       0.00142104       0.00423963       0.09835207       0.02065559      -0.03018458       0.05447250
Cu       0.00984531      -0.06101639      20.25496096        1      -0.00302075      -0.00709627       0.14469888       0.00004000       0.00860619       0.14274682      -0.03537570      -0.12115682      -0.06364102
Cu       3.62845789      -0.01177943      20.22928241        1       0.00201106       0.00284518       0.14635732      -0.00002015       0.00252742       0.11837160       0.00283604      -0.00747505      -0.08008281
Cu      -0.00467926       2.56957350      20.27210445        1       0.00684993       0.00333533       0.12744404      -0.00017140      -0.00533259       0.16685886       0.02856731      -0.15716839       0.07071361
Cu       3.63466606       2.54611760      20.22850844        1      -0.00573941       0.01080667       0.14464432      -0.00008180       0.01320092       0.11930561      -0.02894825       0.00236886      -0.06723720
Cu      -0.00259043       5.10195896      20.21640541        1       0.00107368      -0.00219890       0.12436565      -0.00005270       0.00079805       0.12888788       0.01686597       0.04569673      -0.09019964
Cu       3.63048203       5.11641052      20.22693437        1      -0.00023481       0.00992425       0.15321810      -0.00010797       0.00682300       0.11913722       0.00032027       0.00836511      -0.02686888
O        0.12773283       8.22550564      22.27527158        0      -0.00970319       0.03028465       0.03348488      -0.00041156      -0.01592458       0.01424090      -0.13299347       0.43772265       0.23181277
C       -0.17406336       1.91455068      22.09421524        0       0.01439847      -0.01639033       0.02738051      -0.00007043       0.05269624       0.06192348      -0.19339334       0.16212207       0.54686483
H       -0.06597307       8.02185405      23.22202806        0      -0.03043167       0.01882588       0.00055834       0.00058760      -0.00686929      -0.00747315       0.29479291      -0.03540763      -0.56755141
O       -0.48606404       2.56288983      23.06224146        0      -0.00212703       0.01013594       0.01164213      -0.00041770      -0.04038631       0.03143877       0.03460183      -0.27085199      -0.01649573
46
Lattice="7.26 0.0 0.0 0.0 7.700392847121503 0.0 0.0 0.0 30.391999999999996" Properties=species:S:1:pos:R:3:tags:I:1:MACE_forces:R:3:forces:R:3:DFT_forces:R:3 method=neb MACE_energy=-186.49121806109946 energy=-186.97781233356525 stress="0.006651952307557245 -3.2073154882963493e-07 1.4710622538436238e-06 -3.2073154882963493e-07 0.007771409437050713 -2.2644539661852852e-05 1.4710622538436238e-06 -2.2644539661852852e-05 0.002609307520851428" free_energy=-186.97781233356525 DFT_energy=-191.09624481 pbc="T T T"
Cu       0.00000000       0.00000000      12.59800000        7       0.00000000       0.00000000       0.00000000      -0.00000029       0.00006157       0.42267225       0.00375648      -0.02223635       0.63979844
Cu       3.63000000       0.00000000      12.59800000        7       0.00000000       0.00000000       0.00000000       0.00000011      -0.00011203       0.42221863      -0.00029638       0.00871765       0.63535322
Cu       0.00000000       2.56679762      12.59800000        7       0.00000000       0.00000000       0.00000000      -0.00000051      -0.00005019       0.42237447      -0.00134342       0.01711068       0.64532741
Cu       3.63000000       2.56679762      12.59800000        7       0.00000000       0.00000000       0.00000000       0.00000020      -0.00004698       0.42177359       0.00033050      -0.01633524       0.63877806
Cu       0.00000000       5.13359523      12.59800000        7       0.00000000       0.00000000       0.00000000      -0.00000027      -0.00001481       0.42185505       0.00134142       0.00880087       0.62745086
Cu       3.63000000       5.13359523      12.59800000        7       0.00000000       0.00000000       0.00000000       0.00000004       0.00015532       0.42177615       0.00030233       0.01001405       0.64614286
Cu       1.81500000       1.28339881      13.89700000        6       0.00000000       0.00000000       0.00000000      -0.00022683       0.00009041      -0.15920623       0.02363393      -0.00378218      -0.18175384
Cu       5.44500000       1.28339881      13.89700000        6       0.00000000       0.00000000       0.00000000       0.00022595       0.00008877      -0.15920394      -0.02321397      -0.00084883      -0.18221249
Cu       1.81500000       3.85019642      13.89700000        6       0.00000000       0.00000000       0.00000000      -0.00038750      -0.00030452      -0.16005378       0.00733908       0.00546539      -0.18852360
Cu       5.44500000       3.85019642      13.89700000        6       0.00000000       0.00000000       0.00000000       0.00038610      -0.00030302      -0.16005276      -0.00534206       0.00507384      -0.18942845
Cu       1.81500000       6.41699404      13.89700000        6       0.00000000       0.00000000       0.00000000      -0.00003901       0.00026416      -0.16014005       0.01059094      -0.00226053      -0.19902263
Cu       5.44500000       6.41699404      13.89700000        6       0.00000000       0.00000000       0.00000000       0.00003923       0.00026450      -0.16014223      -0.01055154       0.00503479      -0.19795084
Cu       0.00000000       0.00000000      15.19600000        5       0.00000000       0.00000000       0.00000000      -0.00000068       0.00071538      -0.06243817       0.00001695       0.00513448       0.02715075
Cu       3.63000000       0.00000000      15.19600000        5       0.00000000       0.00000000       0.00000000       0.00000471       0.00180197      -0.05752107      -0.00134177       0.00014123       0.04119053
Cu       0.00000000       2.56679762      15.19600000        5       0.00000000       0.00000000       0.00000000      -0.00000066       0.00093842      -0.06215943      -0.00016103       0.01952584      -0.00477868
Cu       3.63000000       2.56679762      15.19600000        5       0.00000000       0.00000000       0.00000000       0.00000388      -0.00071459      -0.05546671       0.00126889       0.00286581       0.02805144
Cu       0.00000000       5.13359523      15.19600000        5       0.00000000       0.00000000       0.00000000       0.00000066      -0.00152757      -0.05922213      -0.00006674      -0.01948990       0.08590088
Cu       3.63000000       5.13359523      15.19600000        5       0.00000000       0.00000000       0.00000000       0.00000320      -0.00087843      -0.05661467      -0.00046500      -0.00207093      -0.00910489
Cu       1.81500000       1.28339881      16.49500000        4       0.00000000       0.00000000       0.00000000       0.00102264       0.00278032      -0.11731386      -0.00782188      -0.00808186      -0.17211715
Cu       5.44500000       1.28339881      16.49500000        4       0.00000000       0.00000000       0.00000000      -0.00100309       0.00277903      -0.11721969       0.01005055      -0.00403423      -0.15167103
Cu       1.81500000       3.85019642      16.49500000        4       0.00000000       0.00000000       0.00000000       0.00504832       0.00200166      -0.11189502       0.02002388       0.03054228      -0.16505076
Cu       5.44500000       3.85019642      16.49500000        4       0.00000000       0.00000000       0.00000000      -0.00503772       0.00200438      -0.11178487      -0.01716724       0.01967632      -0.17329820
Cu       1.81500000       6.41699404      16.49500000        4       0.00000000       0.00000000       0.00000000       0.00429298      -0.00129282      -0.12954447      -0.00061280      -0.00906565      -0.15748170
Cu       5.44500000       6.41699404      16.49500000        4       0.00000000       0.00000000       0.00000000      -0.00428790      -0.00128103      -0.12964371       0.00573133      -0.01166310      -0.15322661
Cu       0.00000000       0.00000000      17.79400000        3       0.00000000       0.00000000       0.00000000       0.00007122      -0.02952130      -0.28123294       0.00026169      -0.03594659      -0.22911601
Cu       3.63000000       0.00000000      17.79400000        3       0.00000000       0.00000000       0.00000000       0.00014836       0.01744399      -0.37451516       0.01045900      -0.04678084      -0.42833754
Cu       0.00000000       2.56679762      17.79400000        3       0.00000000       0.00000000       0.00000000       0.00011479      -0.00645390      -0.22304873       0.00856009       0.06153103      -0.30440397
Cu       3.63000000       2.56679762      17.79400000        3       0.00000000       0.00000000       0.00000000       0.00021651      -0.01716088      -0.36156520       0.01592246      -0.01171903      -0.42643061
Cu       0.00000000       5.13359523      17.79400000        3       0.00000000       0.00000000       0.00000000       0.00007328      -0.00595957      -0.38055265       0.00083495      -0.04662120      -0.41320131
Cu       3.63000000       5.13359523      17.79400000        3       0.00000000       0.00000000       0.00000000       0.00016078      -0.02756118      -0.38006320       0.00152283       0.01578535      -0.46701834
Cu       1.81567324       1.27054409      19.03476737        2       0.00612142      -0.00604878       0.11619747       0.00004464       0.01060957       0.09923922       0.06860632      -0.01553619       0.04160908
Cu       5.44965978       1.26898894      19.04102651        2      -0.00302231      -0.00431656       0.11777923      -0.00006697       0.01059386       0.09914589      -0.08435345      -0.02236864       0.03618311
Cu       1.82034994       3.83492019      19.04172187        2       0.01162293       0.00386685       0.11777524      -0.00274407       0.00796860       0.10373897      -0.03738647       0.02081392       0.06275836
Cu       5.43918995       3.83612235      19.03793077        2      -0.00903847       0.00232770       0.11994508       0.00262506       0.00803866       0.10361893       0.02331155       0.02795166       0.04524075
Cu       1.81881008       6.40744133      19.04642043        2       0.00558456      -0.00949125       0.12360904      -0.00140203       0.00420356       0.09839746      -0.01336507      -0.03847098       0.05167403
Cu       5.44361543       6.41012346      19.05019780        2      -0.00433869      -0.00976066       0.12260150       0.00142104       0.00423963       0.09835207       0.01161959      -0.03588855       0.05223863
Cu       0.00663365      -0.06792761      20.24468961        1       0.00100170      -0.00877326       0.16189778       0.00004000       0.00860619       0.14274682      -0.03447164      -0.15285008      -0.07251198
Cu       3.62991271      -0.00929232      20.23003901        1       0.00065787      -0.00783969       0.14897212      -0.00002015       0.00252742       0.11837160       0.00232473      -0.01868177      -0.07969607
Cu       0.00476011       2.54984869      20.25907489        1       0.00593246      -0.00016746       0.15281343      -0.00017140      -0.00533259       0.16685886       0.02020099      -0.15462103       0.12141585
Cu       3.63304939       2.54898327      20.22908211        1      -0.00430837       0.00489150       0.14822209      -0.00008180       0.01320092       0.11930561      -0.02513873      -0.00580345      -0.06405198
Cu      -0.00199988       5.09168115      20.20927334        1       0.00186213      -0.00587418       0.14447253      -0.00005270       0.00079805       0.12888788       0.01632072       0.04964268      -0.06859981
Cu       3.63088862       5.11960774      20.22703311        1      -0.00008737       0.00091767       0.15541860      -0.00010797       0.00682300       0.11913722       0.00127991      -0.00235464      -0.02532359
O        0.14125830       8.17175033      22.27096884        0      -0.00247632       0.05221571       0.02399363      -0.00041156      -0.01592458       0.01424090      -0.16059278       0.46313156       0.24227458
C       -0.15599368       1.85812393      22.06913641        0       0.00030505       0.01261057       0.06431071      -0.00007043       0.05269624       0.06192348      -0.24062414       0.19195515       0.60081659
H       -0.09347298       7.97587903      23.21057250        0      -0.02226832       0.01121804      -0.00718556       0.00058760      -0.00686929      -0.00747315       0.33670748      -0.01823300      -0.53468745
O       -0.46855368       2.52061756      23.02735295        0      -0.01498736       0.01863314       0.03706411      -0.00041770      -0.04038631       0.03143877       0.06199753      -0.26316978      -0.03035590
46
Lattice="7.26 0.0 0.0 0.0 7.700392847121503 0.0 0.0 0.0 30.391999999999996" Properties=species:S:1:pos:R:3:tags:I:1:MACE_forces:R:3:forces:R:3:DFT_forces:R:3 method=neb MACE_energy=-186.4838373357517 energy=-186.97781233356525 stress="0.006651952307557245 -3.2073154882963493e-07 1.4710622538436238e-06 -3.2073154882963493e-07 0.007771409437050713 -2.2644539661852852e-05 1.4710622538436238e-06 -2.2644539661852852e-05 0.002609307520851428" free_energy=-186.97781233356525 DFT_energy=-191.08168879 pbc="T T T"
Cu       0.00000000       0.00000000      12.59800000        7       0.00000000       0.00000000       0.00000000      -0.00000029       0.00006157       0.42267225       0.00326016      -0.02200107       0.64062844
Cu       3.63000000       0.00000000      12.59800000        7       0.00000000       0.00000000       0.00000000       0.00000011      -0.00011203       0.42221863      -0.00007133       0.00953447       0.63568562
Cu       0.00000000       2.56679762      12.59800000        7       0.00000000       0.00000000       0.00000000      -0.00000051      -0.00005019       0.42237447      -0.00137117       0.01778163       0.64607229
Cu       3.63000000       2.56679762      12.59800000        7       0.00000000       0.00000000       0.00000000       0.00000020      -0.00004698       0.42177359       0.00009832      -0.01686178       0.63978136
Cu       0.00000000       5.13359523      12.59800000        7       0.00000000       0.00000000       0.00000000      -0.00000027      -0.00001481       0.42185505       0.00076213       0.00871699       0.62838384
Cu       3.63000000       5.13359523      12.59800000        7       0.00000000       0.00000000       0.00000000       0.00000004       0.00015532       0.42177615      -0.00005838       0.01098083       0.64703644
Cu       1.81500000       1.28339881      13.89700000        6       0.00000000       0.00000000       0.00000000      -0.00022683       0.00009041      -0.15920623       0.02421902      -0.00337675      -0.18038566
Cu       5.44500000       1.28339881      13.89700000        6       0.00000000       0.00000000       0.00000000       0.00022595       0.00008877      -0.15920394      -0.02372805       0.00019223      -0.18082643
Cu       1.81500000       3.85019642      13.89700000        6       0.00000000       0.00000000       0.00000000      -0.00038750      -0.00030452      -0.16005378       0.00742941       0.00540231      -0.18797512
Cu       5.44500000       3.85019642      13.89700000        6       0.00000000       0.00000000       0.00000000       0.00038610      -0.00030302      -0.16005276      -0.00553689       0.00558705      -0.18903102
Cu       1.81500000       6.41699404      13.89700000        6       0.00000000       0.00000000       0.00000000      -0.00003901       0.00026416      -0.16014005       0.01063603      -0.00195832      -0.19771932
Cu       5.44500000       6.41699404      13.89700000        6       0.00000000       0.00000000       0.00000000       0.00003923       0.00026450      -0.16014223      -0.01118273       0.00501991      -0.19724366
Cu       0.00000000       0.00000000      15.19600000        5       0.00000000       0.00000000       0.00000000      -0.00000068       0.00071538      -0.06243817       0.00018021       0.00400564       0.02612826
Cu       3.63000000       0.00000000      15.19600000        5       0.00000000       0.00000000       0.00000000       0.00000471       0.00180197      -0.05752107      -0.00116990       0.00013111       0.04188148
Cu       0.00000000       2.56679762      15.19600000        5       0.00000000       0.00000000       0.00000000      -0.00000066       0.00093842      -0.06215943      -0.00055782       0.02084943      -0.00441889
Cu       3.63000000       2.56679762      15.19600000        5       0.00000000       0.00000000       0.00000000       0.00000388      -0.00071459      -0.05546671       0.00160545       0.00340464       0.02777752
Cu       0.00000000       5.13359523      15.19600000        5       0.00000000       0.00000000       0.00000000       0.00000066      -0.00152757      -0.05922213      -0.00002498      -0.01795340       0.08715842
Cu       3.63000000       5.13359523      15.19600000        5       0.00000000       0.00000000       0.00000000       0.00000320      -0.00087843      -0.05661467      -0.00091625      -0.00138383      -0.01011972
Cu       1.81500000       1.28339881      16.49500000        4       0.00000000       0.00000000       0.00000000       0.00102264       0.00278032      -0.11731386      -0.00959351      -0.00563328      -0.17696861
Cu       5.44500000       1.28339881      16.49500000        4       0.00000000       0.00000000       0.00000000      -0.00100309       0.00277903      -0.11721969       0.01031843      -0.00210330      -0.15480497
Cu       1.81500000       3.85019642      16.49500000        4       0.00000000       0.00000000       0.00000000       0.00504832       0.00200166      -0.11189502       0.01897572       0.03116511      -0.16601937
Cu       5.44500000       3.85019642      16.49500000        4       0.00000000       0.00000000       0.00000000      -0.00503772       0.00200438      -0.11178487      -0.01740658       0.02027930      -0.16975455
Cu       1.81500000       6.41699404      16.49500000        4       0.00000000       0.00000000       0.00000000       0.00429298      -0.00129282      -0.12954447       0.00019149      -0.00892054      -0.16044487
Cu       5.44500000       6.41699404      16.49500000        4       0.00000000       0.00000000       0.00000000      -0.00428790      -0.00128103      -0.12964371       0.00459993      -0.01187016      -0.15578527
Cu       0.00000000       0.00000000      17.79400000        3       0.00000000       0.00000000       0.00000000       0.00007122      -0.02952130      -0.28123294      -0.00239990      -0.04191865      -0.24237844
Cu       3.63000000       0.00000000      17.79400000        3       0.00000000       0.00000000       0.00000000       0.00014836       0.01744399      -0.37451516       0.01322482      -0.05760787      -0.43299211
Cu       0.00000000       2.56679762      17.79400000        3       0.00000000       0.00000000       0.00000000       0.00011479      -0.00645390      -0.22304873       0.00857118       0.05659661      -0.30205546
Cu       3.63000000       2.56679762      17.79400000        3       0.00000000       0.00000000       0.00000000       0.00021651      -0.01716088      -0.36156520       0.01841631      -0.01078741      -0.42945978
Cu       0.00000000       5.13359523      17.79400000        3       0.00000000       0.00000000       0.00000000       0.00007328      -0.00595957      -0.38055265       0.00013566      -0.04620026      -0.41653749
Cu       3.63000000       5.13359523      17.79400000        3       0.00000000       0.00000000       0.00000000       0.00016078      -0.02756118      -0.38006320       0.00564996       0.00257720      -0.47148080
Cu       1.82023184       1.26556215      19.03149883        2      -0.00683150      -0.00524930       0.12631468       0.00004464       0.01060957       0.09923922       0.05261689      -0.01210645       0.04956796
Cu       5.44645851       1.26609329      19.03926557        2       0.01038432      -0.00645751       0.12825370      -0.00006697       0.01059386       0.09914589      -0.06898578      -0.02096491       0.04328281
Cu       1.82119207       3.83139705      19.04100359        2       0.00867214       0.00140677       0.11844000      -0.00274407       0.00796860       0.10373897      -0.04059825       0.01898885       0.06312505
Cu       5.44028016       3.83077057      19.03950133        2      -0.00850061       0.00180140       0.11900783       0.00262506       0.00803866       0.10361893       0.02421819       0.02512192       0.04601331
Cu       1.82004076       6.40307198      19.04503227        2       0.00371442      -0.00917560       0.12472147      -0.00140203       0.00420356       0.09839746      -0.01488047      -0.03912480       0.05155643
Cu       5.44190922       6.40498707      19.04838102        2       0.00006537      -0.00794330       0.12511816       0.00142104       0.00423963       0.09835207       0.01759210      -0.03367814       0.05495410
Cu       0.00442177      -0.08074789      20.23864581        1       0.00498279       0.00196345       0.17595477       0.00004000       0.00860619       0.14274682      -0.04024947      -0.16131156      -0.08687577
Cu       3.63064850      -0.01115942      20.23164565        1       0.00109230      -0.01094519       0.14483689      -0.00002015       0.00252742       0.11837160       0.00297416      -0.02241395      -0.08503589
Cu       0.01227201       2.53022917      20.25840212        1       0.00050045       0.00703310       0.15150225      -0.00017140      -0.00533259       0.16685886       0.00939624      -0.13702652       0.12871425
Cu       3.63200663       2.54953396      20.23031871        1      -0.00387124      -0.00605912       0.14638080      -0.00008180       0.01320092       0.11930561      -0.02247158      -0.01762776      -0.06407982
Cu      -0.00167817       5.07723146      20.20762995        1       0.00211176       0.00144229       0.14423239      -0.00005270       0.00079805       0.12888788       0.01481293       0.06002056      -0.07018876
Cu       3.63118219       5.11855507      20.22691018        1       0.00033895      -0.00546072       0.15927264      -0.00010797       0.00682300       0.11913722       0.00165949      -0.00975899      -0.02166168
O        0.16204343       8.12847080      22.26596995        0       0.00560580       0.03492185       0.01058462      -0.00041156      -0.01592458       0.01424090      -0.17857237       0.43219044       0.24842683
C       -0.13899938       1.81321404      22.06132606        0      -0.01521413       0.02941206       0.06366190      -0.00007043       0.05269624       0.06192348      -0.28035367       0.22455259       0.63277110
H       -0.11174964       7.92819953      23.19426528        0      -0.01411567      -0.00106391      -0.00813996       0.00058760      -0.00686929      -0.00747315       0.37869186      -0.00061208      -0.55169540
O       -0.45893809       2.47213499      23.01911911        0      -0.02560678       0.05523583       0.05809454      -0.00041770      -0.04038631       0.03143877       0.08989301      -0.25989705      -0.03300664
46
Lattice="7.26 0.0 0.0 0.0 7.700392847121503 0.0 0.0 0.0 30.391999999999996" Properties=species:S:1:pos:R:3:tags:I:1:MACE_forces:R:3:forces:R:3:DFT_forces:R:3 method=neb MACE_energy=-186.47817072667672 energy=-186.97781233356525 stress="0.006651952307557245 -3.2073154882963493e-07 1.4710622538436238e-06 -3.2073154882963493e-07 0.007771409437050713 -2.2644539661852852e-05 1.4710622538436238e-06 -2.2644539661852852e-05 0.002609307520851428" free_energy=-186.97781233356525 DFT_energy=-191.06749855 pbc="T T T"
Cu       0.00000000       0.00000000      12.59800000        7       0.00000000       0.00000000       0.00000000      -0.00000029       0.00006157       0.42267225       0.00334614      -0.02303496       0.64059047
Cu       3.63000000       0.00000000      12.59800000        7       0.00000000       0.00000000       0.00000000       0.00000011      -0.00011203       0.42221863       0.00078219       0.00842287       0.63544860
Cu       0.00000000       2.56679762      12.59800000        7       0.00000000       0.00000000       0.00000000      -0.00000051      -0.00005019       0.42237447      -0.00053108       0.01733938       0.64589167
Cu       3.63000000       2.56679762      12.59800000        7       0.00000000       0.00000000       0.00000000       0.00000020      -0.00004698       0.42177359       0.00025203      -0.01787388       0.63955394
Cu       0.00000000       5.13359523      12.59800000        7       0.00000000       0.00000000       0.00000000      -0.00000027      -0.00001481       0.42185505       0.00083187       0.00717656       0.62797599
Cu       3.63000000       5.13359523      12.59800000        7       0.00000000       0.00000000       0.00000000       0.00000004       0.00015532       0.42177615       0.00000841       0.01039750       0.64657413
Cu       1.81500000       1.28339881      13.89700000        6       0.00000000       0.00000000       0.00000000      -0.00022683       0.00009041      -0.15920623       0.02508717      -0.00395718      -0.18048283
Cu       5.44500000       1.28339881      13.89700000        6       0.00000000       0.00000000       0.00000000       0.00022595       0.00008877      -0.15920394      -0.02338946      -0.00101420      -0.18089139
Cu       1.81500000       3.85019642      13.89700000        6       0.00000000       0.00000000       0.00000000      -0.00038750      -0.00030452      -0.16005378       0.00774376       0.00422182      -0.18806165
Cu       5.44500000       3.85019642      13.89700000        6       0.00000000       0.00000000       0.00000000       0.00038610      -0.00030302      -0.16005276      -0.00511686       0.00488635      -0.18863516
Cu       1.81500000       6.41699404      13.89700000        6       0.00000000       0.00000000       0.00000000      -0.00003901       0.00026416      -0.16014005       0.01135771      -0.00290802      -0.19739324
Cu       5.44500000       6.41699404      13.89700000        6       0.00000000       0.00000000       0.00000000       0.00003923       0.00026450      -0.16014223      -0.01100538       0.00411167      -0.19750752
Cu       0.00000000       0.00000000      15.19600000        5       0.00000000       0.00000000       0.00000000      -0.00000068       0.00071538      -0.06243817       0.00055236       0.00265416       0.02597530
Cu       3.63000000       0.00000000      15.19600000        5       0.00000000       0.00000000       0.00000000       0.00000471       0.00180197      -0.05752107      -0.00005740      -0.00074419       0.04271695
Cu       0.00000000       2.56679762      15.19600000        5       0.00000000       0.00000000       0.00000000      -0.00000066       0.00093842      -0.06215943       0.00003678       0.01996459      -0.00374412
Cu       3.63000000       2.56679762      15.19600000        5       0.00000000       0.00000000       0.00000000       0.00000388      -0.00071459      -0.05546671       0.00270692       0.00269712       0.02752371
Cu       0.00000000       5.13359523      15.19600000        5       0.00000000       0.00000000       0.00000000       0.00000066      -0.00152757      -0.05922213       0.00053510      -0.01788288       0.08771296
Cu       3.63000000       5.13359523      15.19600000        5       0.00000000       0.00000000       0.00000000       0.00000320      -0.00087843      -0.05661467      -0.00064154      -0.00210094      -0.01165377
Cu       1.81500000       1.28339881      16.49500000        4       0.00000000       0.00000000       0.00000000       0.00102264       0.00278032      -0.11731386      -0.00937321      -0.00451003      -0.17811949
Cu       5.44500000       1.28339881      16.49500000        4       0.00000000       0.00000000       0.00000000      -0.00100309       0.00277903      -0.11721969       0.00984367      -0.00135974      -0.14538293
Cu       1.81500000       3.85019642      16.49500000        4       0.00000000       0.00000000       0.00000000       0.00504832       0.00200166      -0.11189502       0.01852557       0.03102671      -0.17102058
Cu       5.44500000       3.85019642      16.49500000        4       0.00000000       0.00000000       0.00000000      -0.00503772       0.00200438      -0.11178487      -0.01628955       0.02058851      -0.16901879
Cu       1.81500000       6.41699404      16.49500000        4       0.00000000       0.00000000       0.00000000       0.00429298      -0.00129282      -0.12954447       0.00112610      -0.00905546      -0.16405485
Cu       5.44500000       6.41699404      16.49500000        4       0.00000000       0.00000000       0.00000000      -0.00428790      -0.00128103      -0.12964371       0.00378110      -0.01207239      -0.15530250
Cu       0.00000000       0.00000000      17.79400000        3       0.00000000       0.00000000       0.00000000       0.00007122      -0.02952130      -0.28123294      -0.00288187      -0.06252707      -0.22274299
Cu       3.63000000       0.00000000      17.79400000        3       0.00000000       0.00000000       0.00000000       0.00014836       0.01744399      -0.37451516       0.02530640      -0.06578385      -0.43194479
Cu       0.00000000       2.56679762      17.79400000        3       0.00000000       0.00000000       0.00000000       0.00011479      -0.00645390      -0.22304873       0.00912753       0.04196860      -0.29703101
Cu       3.63000000       2.56679762      17.79400000        3       0.00000000       0.00000000       0.00000000       0.00021651      -0.01716088      -0.36156520       0.02820595      -0.03635288      -0.42802198
Cu       0.00000000       5.13359523      17.79400000        3       0.00000000       0.00000000       0.00000000       0.00007328      -0.00595957      -0.38055265       0.00049321      -0.05694954      -0.42057935
Cu       3.63000000       5.13359523      17.79400000        3       0.00000000       0.00000000       0.00000000       0.00016078      -0.02756118      -0.38006320       0.01684515      -0.01271614      -0.47026421
Cu       1.81932848       1.25449483      19.03107357        2       0.00263299       0.00335972       0.11813490       0.00004464       0.01060957       0.09923922       0.06624773       0.00072373       0.03922918
Cu       5.45210846       1.25635295      19.04460955        2      -0.00619946      -0.00048296       0.11433198      -0.00006697       0.01059386       0.09914589      -0.09702479      -0.01213574       0.01859634
Cu       1.82376885       3.82220966      19.03871487        2       0.00488572       0.00455672       0.12392693      -0.00274407       0.00796860       0.10373897      -0.04743211       0.02579967       0.06944842
Cu       5.43985453       3.81970586      19.04011464        2      -0.00659242       0.00787352       0.11948845       0.00262506       0.00803866       0.10361893       0.02952653       0.03279195       0.04881036
Cu       1.82144057       6.39287738      19.04349685        2       0.00688126      -0.00631145       0.12179550      -0.00140203       0.00420356       0.09839746      -0.01414216      -0.03675958       0.04678830
Cu       5.44363462       6.39537164      19.04862861        2      -0.00539289      -0.00563143       0.12245604       0.00142104       0.00423963       0.09835207       0.01279414      -0.03058256       0.05030424
Cu       0.00734201      -0.10304324      20.24367300        1       0.00335070       0.01229549       0.15943714       0.00004000       0.00860619       0.14274682      -0.05906693      -0.16986110      -0.19104667
Cu       3.63311154      -0.02293483      20.23004359        1      -0.00151632      -0.01380703       0.14854110      -0.00002015       0.00252742       0.11837160      -0.00106404      -0.02400500      -0.08333136
Cu       0.01969248       2.51481211      20.25882904        1      -0.00650810       0.01658415       0.15434688      -0.00017140      -0.00533259       0.16685886       0.00635315      -0.12542846       0.13945975
Cu       3.63023653       2.53508480      20.22987569        1      -0.00100649       0.00002960       0.14735874      -0.00008180       0.01320092       0.11930561      -0.01492268      -0.00314654      -0.06408257
Cu      -0.00028006       5.05755505      20.20582703        1       0.00143244       0.00887206       0.14521711      -0.00005270       0.00079805       0.12888788       0.01502991       0.05958581      -0.06965367
Cu       3.63259205       5.10639646      20.22808454        1      -0.00046654      -0.00535372       0.15319703      -0.00010797       0.00682300       0.11913722      -0.00021617      -0.00214974      -0.02903286
O        0.21056530       8.08527497      22.23667199        0      -0.00661315       0.04668077       0.03072371      -0.00041156      -0.01592458       0.01424090      -0.27361393       0.37744815       0.31533864
C       -0.12842501       1.77562830      22.05381794        0      -0.00341650       0.02061166       0.04883623      -0.00007043       0.05269624       0.06192348      -0.34893667       0.19665631       0.66664553
H       -0.14686334       7.83264729      23.12229304        0      -0.01723651       0.03331205      -0.00957566       0.00058760      -0.00686929      -0.00747315       0.47655838       0.07055059      -0.55875737
O       -0.46819592       2.40594163      23.02139643        0      -0.03240577       0.02450051       0.07306476      -0.00041770      -0.04038631       0.03143877       0.15270089      -0.20409999      -0.01682681
46
Lattice="7.26 0.0 0.0 0.0 7.700392847121503 0.0 0.0 0.0 30.391999999999996" Properties=species:S:1:pos:R:3:tags:I:1:MACE_forces:R:3:forces:R:3:DFT_forces:R:3 method=neb MACE_energy=-186.46835586200956 energy=-186.97781233356525 stress="0.006651952307557245 -3.2073154882963493e-07 1.4710622538436238e-06 -3.2073154882963493e-07 0.007771409437050713 -2.2644539661852852e-05 1.4710622538436238e-06 -2.2644539661852852e-05 0.002609307520851428" free_energy=-186.97781233356525 DFT_energy=-191.04442493 pbc="T T T"
Cu       0.00000000       0.00000000      12.59800000        7       0.00000000       0.00000000       0.00000000      -0.00000029       0.00006157       0.42267225       0.00358834      -0.02380055       0.64042908
Cu       3.63000000       0.00000000      12.59800000        7       0.00000000       0.00000000       0.00000000       0.00000011      -0.00011203       0.42221863       0.00145687       0.00653004       0.63538578
Cu       0.00000000       2.56679762      12.59800000        7       0.00000000       0.00000000       0.00000000      -0.00000051      -0.00005019       0.42237447       0.00027128       0.01637401       0.64524804
Cu       3.63000000       2.56679762      12.59800000        7       0.00000000       0.00000000       0.00000000       0.00000020      -0.00004698       0.42177359       0.00011079      -0.01849247       0.63788609
Cu       0.00000000       5.13359523      12.59800000        7       0.00000000       0.00000000       0.00000000      -0.00000027      -0.00001481       0.42185505       0.00111156       0.00552926       0.62726404
Cu       3.63000000       5.13359523      12.59800000        7       0.00000000       0.00000000       0.00000000       0.00000004       0.00015532       0.42177615       0.00021066       0.00916811       0.64439643
Cu       1.81500000       1.28339881      13.89700000        6       0.00000000       0.00000000       0.00000000      -0.00022683       0.00009041      -0.15920623       0.02544083      -0.00462952      -0.18081544
Cu       5.44500000       1.28339881      13.89700000        6       0.00000000       0.00000000       0.00000000       0.00022595       0.00008877      -0.15920394      -0.02325452      -0.00315712      -0.18095404
Cu       1.81500000       3.85019642      13.89700000        6       0.00000000       0.00000000       0.00000000      -0.00038750      -0.00030452      -0.16005378       0.00740946       0.00281400      -0.18819566
Cu       5.44500000       3.85019642      13.89700000        6       0.00000000       0.00000000       0.00000000       0.00038610      -0.00030302      -0.16005276      -0.00485131       0.00333352      -0.18758393
Cu       1.81500000       6.41699404      13.89700000        6       0.00000000       0.00000000       0.00000000      -0.00003901       0.00026416      -0.16014005       0.01217864      -0.00387243      -0.19716023
Cu       5.44500000       6.41699404      13.89700000        6       0.00000000       0.00000000       0.00000000       0.00003923       0.00026450      -0.16014223      -0.01085514       0.00383160      -0.19771382
Cu       0.00000000       0.00000000      15.19600000        5       0.00000000       0.00000000       0.00000000      -0.00000068       0.00071538      -0.06243817       0.00036804       0.00304225       0.02665169
Cu       3.63000000       0.00000000      15.19600000        5       0.00000000       0.00000000       0.00000000       0.00000471       0.00180197      -0.05752107       0.00069750      -0.00157829       0.04258939
Cu       0.00000000       2.56679762      15.19600000        5       0.00000000       0.00000000       0.00000000      -0.00000066       0.00093842      -0.06215943       0.00102859       0.01691851      -0.00322355
Cu       3.63000000       2.56679762      15.19600000        5       0.00000000       0.00000000       0.00000000       0.00000388      -0.00071459      -0.05546671       0.00345176       0.00182990       0.02653768
Cu       0.00000000       5.13359523      15.19600000        5       0.00000000       0.00000000       0.00000000       0.00000066      -0.00152757      -0.05922213       0.00086941      -0.01873120       0.08782799
Cu       3.63000000       5.13359523      15.19600000        5       0.00000000       0.00000000       0.00000000       0.00000320      -0.00087843      -0.05661467      -0.00001089      -0.00327366      -0.01281604
Cu       1.81500000       1.28339881      16.49500000        4       0.00000000       0.00000000       0.00000000       0.00102264       0.00278032      -0.11731386      -0.00804889      -0.00468592      -0.18749106
Cu       5.44500000       1.28339881      16.49500000        4       0.00000000       0.00000000       0.00000000      -0.00100309       0.00277903      -0.11721969       0.00944809      -0.00152887      -0.14392038
Cu       1.81500000       3.85019642      16.49500000        4       0.00000000       0.00000000       0.00000000       0.00504832       0.00200166      -0.11189502       0.01837403       0.03021007      -0.17184151
Cu       5.44500000       3.85019642      16.49500000        4       0.00000000       0.00000000       0.00000000      -0.00503772       0.00200438      -0.11178487      -0.01448757       0.02080703      -0.17377000
Cu       1.81500000       6.41699404      16.49500000        4       0.00000000       0.00000000       0.00000000       0.00429298      -0.00129282      -0.12954447       0.00130602      -0.00961301      -0.17659968
Cu       5.44500000       6.41699404      16.49500000        4       0.00000000       0.00000000       0.00000000      -0.00428790      -0.00128103      -0.12964371       0.00297025      -0.01264379      -0.15894085
Cu       0.00000000       0.00000000      17.79400000        3       0.00000000       0.00000000       0.00000000       0.00007122      -0.02952130      -0.28123294       0.00069519      -0.07658977      -0.22981651
Cu       3.63000000       0.00000000      17.79400000        3       0.00000000       0.00000000       0.00000000       0.00014836       0.01744399      -0.37451516       0.03611195      -0.06680281      -0.43340782
Cu       0.00000000       2.56679762      17.79400000        3       0.00000000       0.00000000       0.00000000       0.00011479      -0.00645390      -0.22304873       0.00864373       0.02825759      -0.29387292
Cu       3.63000000       2.56679762      17.79400000        3       0.00000000       0.00000000       0.00000000       0.00021651      -0.01716088      -0.36156520       0.03745041      -0.04861671      -0.42835976
Cu       0.00000000       5.13359523      17.79400000        3       0.00000000       0.00000000       0.00000000       0.00007328      -0.00595957      -0.38055265       0.00520827      -0.06664190      -0.42714452
Cu       3.63000000       5.13359523      17.79400000        3       0.00000000       0.00000000       0.00000000       0.00016078      -0.02756118      -0.38006320       0.02888198      -0.02730555      -0.47767531
Cu       1.81880731       1.25089312      19.02834964        2       0.01097861       0.00151074       0.11916565       0.00004464       0.01060957       0.09923922       0.07564191       0.00005375       0.03964812
Cu       5.45528737       1.24927680      19.04682721        2      -0.01058513       0.00262740       0.10998907      -0.00006697       0.01059386       0.09914589      -0.10791662      -0.00943816       0.00773283
Cu       1.82554393       3.81471596      19.03861604        2       0.00466120       0.00860747       0.12447681      -0.00274407       0.00796860       0.10373897      -0.05000073       0.03416455       0.07281702
Cu       5.43918144       3.81416282      19.03825088        2      -0.00605739       0.00775232       0.12097592       0.00262506       0.00803866       0.10361893       0.03237996       0.03601892       0.05371229
Cu       1.82738106       6.38396044      19.03812079        2       0.00006663      -0.00109836       0.12476062      -0.00140203       0.00420356       0.09839746      -0.02707329      -0.02850853       0.05133597
Cu       5.44541118       6.38906221      19.04799582        2      -0.00993575      -0.00275911       0.12306373       0.00142104       0.00423963       0.09835207       0.00876062      -0.02729639       0.05186699
Cu       0.01808311      -0.11306342      20.23762074        1      -0.00779293       0.00932822       0.16654691       0.00004000       0.00860619       0.14274682      -0.08881311      -0.20100149      -0.31607693
Cu       3.63509913      -0.04069464      20.22906452        1      -0.00467710       0.00299073       0.14667640      -0.00002015       0.00252742       0.11837160      -0.00780689       0.00749181      -0.08354514
Cu       0.01594251       2.51993591      20.25982502        1       0.00423794       0.01083529       0.15449369      -0.00017140      -0.00533259       0.16685886       0.02020669      -0.14184221       0.15466773
Cu       3.63115800       2.51621688      20.22996385        1       0.00174824       0.01617545       0.14862564      -0.00008180       0.01320092       0.11930561      -0.01283797       0.02545719      -0.06519394
Cu       0.00333284       5.05283544      20.20327346        1      -0.00486288       0.00588498       0.14521502      -0.00005270       0.00079805       0.12888788       0.00883634       0.05017986      -0.06479672
Cu       3.63550755       5.08852540      20.22838702        1      -0.00447297       0.00935166       0.15380778      -0.00010797       0.00682300       0.11913722      -0.00629938       0.02674347      -0.02981418
O        0.25332586       8.05716636      22.18598940        0      -0.01133432       0.03696465       0.05432221      -0.00041156      -0.01592458       0.01424090      -0.34647133       0.31098188       0.40190107
C       -0.14682826       1.75374663      22.04230515        0      -0.00873616       0.01961868       0.07059024      -0.00007043       0.05269624       0.06192348      -0.40961318       0.16329772       0.65573422
H       -0.18259124       7.73832996      23.01169935        0      -0.02641850       0.03699017       0.01975377       0.00058760      -0.00686929      -0.00747315       0.56020577       0.15827005      -0.53152135
O       -0.52730055       2.32322025      23.02920301        0      -0.03067409       0.02216123       0.04332686      -0.00041770      -0.04038631       0.03143877       0.20502585      -0.16125471       0.03861882
46
Lattice="7.26 0.0 0.0 0.0 7.700392847121503 0.0 0.0 0.0 30.391999999999996" Properties=species:S:1:pos:R:3:tags:I:1:MACE_forces:R:3:forces:R:3:DFT_forces:R:3 method=neb MACE_energy=-186.46390000447875 energy=-186.97781233356525 stress="0.006651952307557245 -3.2073154882963493e-07 1.4710622538436238e-06 -3.2073154882963493e-07 0.007771409437050713 -2.2644539661852852e-05 1.4710622538436238e-06 -2.2644539661852852e-05 0.002609307520851428" free_energy=-186.97781233356525 DFT_energy=-191.02995093 pbc="T T T"
Cu       0.00000000       0.00000000      12.59800000        7       0.00000000       0.00000000       0.00000000      -0.00000029       0.00006157       0.42267225       0.00366082      -0.02293023       0.64180169
Cu       3.63000000       0.00000000      12.59800000        7       0.00000000       0.00000000       0.00000000       0.00000011      -0.00011203       0.42221863       0.00253827       0.00758295       0.63537534
Cu       0.00000000       2.56679762      12.59800000        7       0.00000000       0.00000000       0.00000000      -0.00000051      -0.00005019       0.42237447       0.00017019       0.01719875       0.64518988
Cu       3.63000000       2.56679762      12.59800000        7       0.00000000       0.00000000       0.00000000       0.00000020      -0.00004698       0.42177359      -0.00024346      -0.01843512       0.63899546
Cu       0.00000000       5.13359523      12.59800000        7       0.00000000       0.00000000       0.00000000      -0.00000027      -0.00001481       0.42185505       0.00217708       0.00607044       0.62789921
Cu       3.63000000       5.13359523      12.59800000        7       0.00000000       0.00000000       0.00000000       0.00000004       0.00015532       0.42177615      -0.00006237       0.01051669       0.64610005
Cu       1.81500000       1.28339881      13.89700000        6       0.00000000       0.00000000       0.00000000      -0.00022683       0.00009041      -0.15920623       0.02563310      -0.00300519      -0.17992263
Cu       5.44500000       1.28339881      13.89700000        6       0.00000000       0.00000000       0.00000000       0.00022595       0.00008877      -0.15920394      -0.02349308      -0.00193693      -0.18117171
Cu       1.81500000       3.85019642      13.89700000        6       0.00000000       0.00000000       0.00000000      -0.00038750      -0.00030452      -0.16005378       0.00767430       0.00332993      -0.18888289
Cu       5.44500000       3.85019642      13.89700000        6       0.00000000       0.00000000       0.00000000       0.00038610      -0.00030302      -0.16005276      -0.00542096       0.00414477      -0.18691231
Cu       1.81500000       6.41699404      13.89700000        6       0.00000000       0.00000000       0.00000000      -0.00003901       0.00026416      -0.16014005       0.01238439      -0.00409400      -0.19682882
Cu       5.44500000       6.41699404      13.89700000        6       0.00000000       0.00000000       0.00000000       0.00003923       0.00026450      -0.16014223      -0.01154237       0.00448857      -0.19718545
Cu       0.00000000       0.00000000      15.19600000        5       0.00000000       0.00000000       0.00000000      -0.00000068       0.00071538      -0.06243817       0.00011283       0.00226451       0.02524002
Cu       3.63000000       0.00000000      15.19600000        5       0.00000000       0.00000000       0.00000000       0.00000471       0.00180197      -0.05752107       0.00060532      -0.00148178       0.04343603
Cu       0.00000000       2.56679762      15.19600000        5       0.00000000       0.00000000       0.00000000      -0.00000066       0.00093842      -0.06215943       0.00091332       0.01838992      -0.00470542
Cu       3.63000000       2.56679762      15.19600000        5       0.00000000       0.00000000       0.00000000       0.00000388      -0.00071459      -0.05546671       0.00309903       0.00229506       0.02682163
Cu       0.00000000       5.13359523      15.19600000        5       0.00000000       0.00000000       0.00000000       0.00000066      -0.00152757      -0.05922213       0.00104587      -0.01712665       0.08750460
Cu       3.63000000       5.13359523      15.19600000        5       0.00000000       0.00000000       0.00000000       0.00000320      -0.00087843      -0.05661467       0.00141280      -0.00170600      -0.01326372
Cu       1.81500000       1.28339881      16.49500000        4       0.00000000       0.00000000       0.00000000       0.00102264       0.00278032      -0.11731386      -0.00880702      -0.00291484      -0.19150423
Cu       5.44500000       1.28339881      16.49500000        4       0.00000000       0.00000000       0.00000000      -0.00100309       0.00277903      -0.11721969       0.01154808      -0.00049575      -0.13798506
Cu       1.81500000       3.85019642      16.49500000        4       0.00000000       0.00000000       0.00000000       0.00504832       0.00200166      -0.11189502       0.02008237       0.02984725      -0.16994881
Cu       5.44500000       3.85019642      16.49500000        4       0.00000000       0.00000000       0.00000000      -0.00503772       0.00200438      -0.11178487      -0.01326718       0.02064581      -0.16964345
Cu       1.81500000       6.41699404      16.49500000        4       0.00000000       0.00000000       0.00000000       0.00429298      -0.00129282      -0.12954447       0.00250958      -0.00970514      -0.17904687
Cu       5.44500000       6.41699404      16.49500000        4       0.00000000       0.00000000       0.00000000      -0.00428790      -0.00128103      -0.12964371       0.00283142      -0.01286547      -0.15846479
Cu       0.00000000       0.00000000      17.79400000        3       0.00000000       0.00000000       0.00000000       0.00007122      -0.02952130      -0.28123294       0.00227846      -0.06767406      -0.24049992
Cu       3.63000000       0.00000000      17.79400000        3       0.00000000       0.00000000       0.00000000       0.00014836       0.01744399      -0.37451516       0.04956726      -0.06363424      -0.43631499
Cu       0.00000000       2.56679762      17.79400000        3       0.00000000       0.00000000       0.00000000       0.00011479      -0.00645390      -0.22304873       0.01870843       0.03650222      -0.30765967
Cu       3.63000000       2.56679762      17.79400000        3       0.00000000       0.00000000       0.00000000       0.00021651      -0.01716088      -0.36156520       0.05196603      -0.03891609      -0.42099592
Cu       0.00000000       5.13359523      17.79400000        3       0.00000000       0.00000000       0.00000000       0.00007328      -0.00595957      -0.38055265       0.00510845      -0.05823717      -0.43377846
Cu       3.63000000       5.13359523      17.79400000        3       0.00000000       0.00000000       0.00000000       0.00016078      -0.02756118      -0.38006320       0.03579529      -0.02560636      -0.47912133
Cu       1.82493627       1.25385241      19.02604473        2       0.00361640       0.00143269       0.12056239       0.00004464       0.01060957       0.09923922       0.06633086      -0.00013970       0.03498170
Cu       5.45596838       1.25416120      19.04908581        2      -0.00623621      -0.00053393       0.11686086      -0.00006697       0.01059386       0.09914589      -0.11315115      -0.01945706      -0.00624696
Cu       1.82712374       3.81896479      19.03895577        2       0.00409075       0.00484732       0.12500349      -0.00274407       0.00796860       0.10373897      -0.05545721       0.02655731       0.07379241
Cu       5.44108699       3.81679331      19.03980763        2      -0.00753177       0.00723484       0.12004682       0.00262506       0.00803866       0.10361893       0.02487322       0.03810304       0.04603648
Cu       1.82853580       6.38731878      19.03678247        2       0.00176150      -0.00380941       0.12557854      -0.00140203       0.00420356       0.09839746      -0.02376103      -0.03019321       0.05213209
Cu       5.44561505       6.39322372      19.04795489        2      -0.00514331      -0.00422550       0.12389102       0.00142104       0.00423963       0.09835207       0.01193062      -0.02820771       0.05573149
Cu       0.02184701      -0.10815069      20.23457479        1      -0.00195314       0.01546336       0.17376999       0.00004000       0.00860619       0.14274682      -0.09126109      -0.21079585      -0.32142618
Cu       3.63653068      -0.03074275      20.22999625        1      -0.00323040      -0.00617195       0.14544378      -0.00002015       0.00252742       0.11837160      -0.00828738      -0.01143723      -0.08498784
Cu       0.02876451       2.51478563      20.25652101        1      -0.00858930       0.01415703       0.15971201      -0.00017140      -0.00533259       0.16685886       0.00642615      -0.12864901       0.17214623
Cu       3.63352443       2.52752134      20.23292474        1      -0.00181707       0.00525724       0.14582387      -0.00008180       0.01320092       0.11930561      -0.02814958       0.01108910      -0.07419967
Cu       0.00363695       5.05458949      20.20198246        1      -0.00225873       0.00511874       0.14529315      -0.00005270       0.00079805       0.12888788       0.01563004       0.04792340      -0.06363214
Cu       3.63663805       5.09901197      20.22857764        1      -0.00298554       0.00100647       0.15314952      -0.00010797       0.00682300       0.11913722      -0.00432415       0.00845279      -0.02814410
O        0.28805562       8.03993266      22.19225197        0      -0.02395664       0.04325617       0.04636682      -0.00041156      -0.01592458       0.01424090      -0.36156156       0.29301128       0.39159671
C       -0.19704521       1.70550887      22.01578633        0      -0.02561459       0.01789309       0.06143520      -0.00007043       0.05269624       0.06192348      -0.47407450       0.12939724       0.65258448
H       -0.16896618       7.70211588      22.99905826        0      -0.02190422       0.03388533       0.02194563       0.00058760      -0.00686929      -0.00747315       0.62956261       0.20118615      -0.49628057
O       -0.67654722       2.25292183      22.97184476        0      -0.04070683       0.02896995       0.05212558      -0.00041770      -0.04038631       0.03143877       0.20628787      -0.13935238       0.05138839
46
Lattice="7.26 0.0 0.0 0.0 7.700392847121503 0.0 0.0 0.0 30.391999999999996" Properties=species:S:1:pos:R:3:tags:I:1:MACE_forces:R:3:forces:R:3:DFT_forces:R:3 method=neb MACE_energy=-186.47032512617457 energy=-186.97781233356525 stress="0.006651952307557245 -3.2073154882963493e-07 1.4710622538436238e-06 -3.2073154882963493e-07 0.007771409437050713 -2.2644539661852852e-05 1.4710622538436238e-06 -2.2644539661852852e-05 0.002609307520851428" free_energy=-186.97781233356525 DFT_energy=-191.02656329 pbc="T T T"
Cu       0.00000000       0.00000000      12.59800000        7       0.00000000       0.00000000       0.00000000      -0.00000029       0.00006157       0.42267225       0.00364738      -0.02256069       0.64454346
Cu       3.63000000       0.00000000      12.59800000        7       0.00000000       0.00000000       0.00000000       0.00000011      -0.00011203       0.42221863       0.00381767       0.00946041       0.63511889
Cu       0.00000000       2.56679762      12.59800000        7       0.00000000       0.00000000       0.00000000      -0.00000051      -0.00005019       0.42237447      -0.00046749       0.01710195       0.64649895
Cu       3.63000000       2.56679762      12.59800000        7       0.00000000       0.00000000       0.00000000       0.00000020      -0.00004698       0.42177359      -0.00108020      -0.02027460       0.64069561
Cu       0.00000000       5.13359523      12.59800000        7       0.00000000       0.00000000       0.00000000      -0.00000027      -0.00001481       0.42185505       0.00365113       0.00653919       0.62999730
Cu       3.63000000       5.13359523      12.59800000        7       0.00000000       0.00000000       0.00000000       0.00000004       0.00015532       0.42177615      -0.00024065       0.01151346       0.64854022
Cu       1.81500000       1.28339881      13.89700000        6       0.00000000       0.00000000       0.00000000      -0.00022683       0.00009041      -0.15920623       0.02551269      -0.00256533      -0.17714917
Cu       5.44500000       1.28339881      13.89700000        6       0.00000000       0.00000000       0.00000000       0.00022595       0.00008877      -0.15920394      -0.02374783       0.00038487      -0.18078365
Cu       1.81500000       3.85019642      13.89700000        6       0.00000000       0.00000000       0.00000000      -0.00038750      -0.00030452      -0.16005378       0.00892757       0.00357697      -0.18932329
Cu       5.44500000       3.85019642      13.89700000        6       0.00000000       0.00000000       0.00000000       0.00038610      -0.00030302      -0.16005276      -0.00749340       0.00428060      -0.18531219
Cu       1.81500000       6.41699404      13.89700000        6       0.00000000       0.00000000       0.00000000      -0.00003901       0.00026416      -0.16014005       0.01273436      -0.00474073      -0.19570757
Cu       5.44500000       6.41699404      13.89700000        6       0.00000000       0.00000000       0.00000000       0.00003923       0.00026450      -0.16014223      -0.01321671       0.00386948      -0.19574296
Cu       0.00000000       0.00000000      15.19600000        5       0.00000000       0.00000000       0.00000000      -0.00000068       0.00071538      -0.06243817       0.00051521      -0.00052077       0.02122348
Cu       3.63000000       0.00000000      15.19600000        5       0.00000000       0.00000000       0.00000000       0.00000471       0.00180197      -0.05752107      -0.00161099      -0.00206719       0.04437732
Cu       0.00000000       2.56679762      15.19600000        5       0.00000000       0.00000000       0.00000000      -0.00000066       0.00093842      -0.06215943      -0.00073553       0.02015055      -0.00816815
Cu       3.63000000       2.56679762      15.19600000        5       0.00000000       0.00000000       0.00000000       0.00000388      -0.00071459      -0.05546671       0.00332080       0.00258180       0.02831960
Cu       0.00000000       5.13359523      15.19600000        5       0.00000000       0.00000000       0.00000000       0.00000066      -0.00152757      -0.05922213       0.00123438      -0.01571347       0.08683489
Cu       3.63000000       5.13359523      15.19600000        5       0.00000000       0.00000000       0.00000000       0.00000320      -0.00087843      -0.05661467       0.00321354      -0.00029060      -0.01403626
Cu       1.81500000       1.28339881      16.49500000        4       0.00000000       0.00000000       0.00000000       0.00102264       0.00278032      -0.11731386      -0.01100346      -0.00270882      -0.18898061
Cu       5.44500000       1.28339881      16.49500000        4       0.00000000       0.00000000       0.00000000      -0.00100309       0.00277903      -0.11721969       0.01564981       0.00038318      -0.12285238
Cu       1.81500000       3.85019642      16.49500000        4       0.00000000       0.00000000       0.00000000       0.00504832       0.00200166      -0.11189502       0.02256315       0.02890304      -0.16231650
Cu       5.44500000       3.85019642      16.49500000        4       0.00000000       0.00000000       0.00000000      -0.00503772       0.00200438      -0.11178487      -0.01345333       0.01836166      -0.16333570
Cu       1.81500000       6.41699404      16.49500000        4       0.00000000       0.00000000       0.00000000       0.00429298      -0.00129282      -0.12954447       0.00520904      -0.00882849      -0.17313638
Cu       5.44500000       6.41699404      16.49500000        4       0.00000000       0.00000000       0.00000000      -0.00428790      -0.00128103      -0.12964371       0.00279190      -0.01281530      -0.15237824
Cu       0.00000000       0.00000000      17.79400000        3       0.00000000       0.00000000       0.00000000       0.00007122      -0.02952130      -0.28123294       0.00258429      -0.06113169      -0.25138980
Cu       3.63000000       0.00000000      17.79400000        3       0.00000000       0.00000000       0.00000000       0.00014836       0.01744399      -0.37451516       0.06138638      -0.06135537      -0.43135726
Cu       0.00000000       2.56679762      17.79400000        3       0.00000000       0.00000000       0.00000000       0.00011479      -0.00645390      -0.22304873       0.02728662       0.04529875      -0.32431923
Cu       3.63000000       2.56679762      17.79400000        3       0.00000000       0.00000000       0.00000000       0.00021651      -0.01716088      -0.36156520       0.06580253      -0.03166036      -0.40699606
Cu       0.00000000       5.13359523      17.79400000        3       0.00000000       0.00000000       0.00000000       0.00007328      -0.00595957      -0.38055265       0.00387787      -0.05258113      -0.43947746
Cu       3.63000000       5.13359523      17.79400000        3       0.00000000       0.00000000       0.00000000       0.00016078      -0.02756118      -0.38006320       0.03552361      -0.02078425      -0.47398437
Cu       1.82912605       1.25580266      19.02547349        2       0.00353523       0.00190028       0.11989065       0.00004464       0.01060957       0.09923922       0.06976447       0.00103543       0.02620406
Cu       5.45749024       1.25851463      19.05444980        2      -0.00516831      -0.00243390       0.11991840      -0.00006697       0.01059386       0.09914589      -0.12778006      -0.03137301      -0.03800565
Cu       1.82654236       3.82227664      19.04075336        2       0.00517731       0.00316882       0.12519780      -0.00274407       0.00796860       0.10373897      -0.05917351       0.01520711       0.07729566
Cu       5.44319965       3.81874779      19.04216722        2      -0.00767014       0.00758887       0.11901196       0.00262506       0.00803866       0.10361893       0.01486491       0.04346678       0.03342890
Cu       1.82645143       6.39151108      19.03884650        2       0.00553943      -0.00598834       0.12335712      -0.00140203       0.00420356       0.09839746      -0.01423549      -0.03440833       0.04979000
Cu       5.44760923       6.39724913      19.04943645        2      -0.00371685      -0.00508193       0.12413043       0.00142104       0.00423963       0.09835207       0.00842929      -0.02614717       0.06020280
Cu       0.02364211      -0.09636870      20.23763964        1       0.00035530       0.03274358       0.18967998       0.00004000       0.00860619       0.14274682      -0.08930981      -0.19717790      -0.22696734
Cu       3.63791776      -0.02372341      20.23071053        1      -0.00328574      -0.01182526       0.14558151      -0.00002015       0.00252742       0.11837160      -0.01187703      -0.02561978      -0.08382542
Cu       0.03962839       2.50790761      20.25552153        1      -0.01563172       0.01636363       0.16097733      -0.00017140      -0.00533259       0.16685886       0.00462699      -0.10990961       0.16579549
Cu       3.63463973       2.53534293      20.23509300        1      -0.00268824       0.00029142       0.14623035      -0.00008180       0.01320092       0.11930561      -0.04384860       0.00641325      -0.07710077
Cu       0.00292434       5.05914370      20.20300691        1       0.00197796       0.00575974       0.14443095      -0.00005270       0.00079805       0.12888788       0.02535519       0.04576699      -0.06875861
Cu       3.63656773       5.10694439      20.22749870        1      -0.00065338      -0.00410889       0.15342105      -0.00010797       0.00682300       0.11913722      -0.00077317      -0.00534653      -0.02228061
O        0.33976528       8.05813926      22.23947542        0      -0.03227370       0.05142715       0.03147061      -0.00041156      -0.01592458       0.01424090      -0.32720412       0.30596625       0.32629259
C       -0.26830410       1.64430046      21.98177410        0      -0.03539231       0.00355086       0.02876007      -0.00007043       0.05269624       0.06192348      -0.49290014       0.04875706       0.60565058
H       -0.07160976       7.73723584      23.07808564        0      -0.01876126       0.03348923       0.00154731       0.00058760      -0.00686929      -0.00747315       0.65937613       0.25782389      -0.44397703
O       -0.88133289       2.17799220      22.87087645        0      -0.05877833       0.01878603       0.05095438      -0.00041770      -0.04038631       0.03143877       0.14848464      -0.14626156       0.02685288
46
Lattice="7.26 0.0 0.0 0.0 7.700392847121503 0.0 0.0 0.0 30.391999999999996" Properties=species:S:1:pos:R:3:tags:I:1:MACE_forces:R:3:forces:R:3:DFT_forces:R:3 method=neb MACE_energy=-186.482699318118 energy=-186.97781233356525 stress="0.006651952307557245 -3.2073154882963493e-07 1.4710622538436238e-06 -3.2073154882963493e-07 0.007771409437050713 -2.2644539661852852e-05 1.4710622538436238e-06 -2.2644539661852852e-05 0.002609307520851428" free_energy=-186.97781233356525 DFT_energy=-191.00165724 pbc="T T T"
Cu       0.00000000       0.00000000      12.59800000        7       0.00000000       0.00000000       0.00000000      -0.00000029       0.00006157       0.42267225       0.00239784      -0.02115654       0.64730717
Cu       3.63000000       0.00000000      12.59800000        7       0.00000000       0.00000000       0.00000000       0.00000011      -0.00011203       0.42221863       0.00500387       0.01379862       0.63479396
Cu       0.00000000       2.56679762      12.59800000        7       0.00000000       0.00000000       0.00000000      -0.00000051      -0.00005019       0.42237447      -0.00022610       0.01663723       0.64729011
Cu       3.63000000       2.56679762      12.59800000        7       0.00000000       0.00000000       0.00000000       0.00000020      -0.00004698       0.42177359      -0.00255605      -0.02335716       0.64190070
Cu       0.00000000       5.13359523      12.59800000        7       0.00000000       0.00000000       0.00000000      -0.00000027      -0.00001481       0.42185505       0.00462870       0.00671261       0.63182189
Cu       3.63000000       5.13359523      12.59800000        7       0.00000000       0.00000000       0.00000000       0.00000004       0.00015532       0.42177615       0.00066968       0.01182708       0.65103001
Cu       1.81500000       1.28339881      13.89700000        6       0.00000000       0.00000000       0.00000000      -0.00022683       0.00009041      -0.15920623       0.02605691      -0.00176962      -0.17227626
Cu       5.44500000       1.28339881      13.89700000        6       0.00000000       0.00000000       0.00000000       0.00022595       0.00008877      -0.15920394      -0.02376878       0.00383508      -0.17779897
Cu       1.81500000       3.85019642      13.89700000        6       0.00000000       0.00000000       0.00000000      -0.00038750      -0.00030452      -0.16005378       0.01161581       0.00287440      -0.18875693
Cu       5.44500000       3.85019642      13.89700000        6       0.00000000       0.00000000       0.00000000       0.00038610      -0.00030302      -0.16005276      -0.01166973       0.00478651      -0.18310414
Cu       1.81500000       6.41699404      13.89700000        6       0.00000000       0.00000000       0.00000000      -0.00003901       0.00026416      -0.16014005       0.01408856      -0.00522930      -0.19187026
Cu       5.44500000       6.41699404      13.89700000        6       0.00000000       0.00000000       0.00000000       0.00003923       0.00026450      -0.16014223      -0.01627101       0.00251397      -0.19255597
Cu       0.00000000       0.00000000      15.19600000        5       0.00000000       0.00000000       0.00000000      -0.00000068       0.00071538      -0.06243817       0.00094692      -0.00418376       0.01230055
Cu       3.63000000       0.00000000      15.19600000        5       0.00000000       0.00000000       0.00000000       0.00000471       0.00180197      -0.05752107      -0.00440476      -0.00260068       0.04343797
Cu       0.00000000       2.56679762      15.19600000        5       0.00000000       0.00000000       0.00000000      -0.00000066       0.00093842      -0.06215943      -0.00296869       0.02034688      -0.01373701
Cu       3.63000000       2.56679762      15.19600000        5       0.00000000       0.00000000       0.00000000       0.00000388      -0.00071459      -0.05546671       0.00386002       0.00337744       0.02925566
Cu       0.00000000       5.13359523      15.19600000        5       0.00000000       0.00000000       0.00000000       0.00000066      -0.00152757      -0.05922213       0.00197312      -0.01193942       0.08586894
Cu       3.63000000       5.13359523      15.19600000        5       0.00000000       0.00000000       0.00000000       0.00000320      -0.00087843      -0.05661467       0.00546309       0.00160797      -0.01797043
Cu       1.81500000       1.28339881      16.49500000        4       0.00000000       0.00000000       0.00000000       0.00102264       0.00278032      -0.11731386      -0.01584931      -0.00020898      -0.18441750
Cu       5.44500000       1.28339881      16.49500000        4       0.00000000       0.00000000       0.00000000      -0.00100309       0.00277903      -0.11721969       0.02196963       0.00057706      -0.11194727
Cu       1.81500000       3.85019642      16.49500000        4       0.00000000       0.00000000       0.00000000       0.00504832       0.00200166      -0.11189502       0.02497254       0.02570958      -0.15178362
Cu       5.44500000       3.85019642      16.49500000        4       0.00000000       0.00000000       0.00000000      -0.00503772       0.00200438      -0.11178487      -0.01422566       0.01563894      -0.15315279
Cu       1.81500000       6.41699404      16.49500000        4       0.00000000       0.00000000       0.00000000       0.00429298      -0.00129282      -0.12954447       0.01071173      -0.00682270      -0.16554052
Cu       5.44500000       6.41699404      16.49500000        4       0.00000000       0.00000000       0.00000000      -0.00428790      -0.00128103      -0.12964371       0.00023332      -0.01227018      -0.14840610
Cu       0.00000000       0.00000000      17.79400000        3       0.00000000       0.00000000       0.00000000       0.00007122      -0.02952130      -0.28123294       0.00322729      -0.05816886      -0.31293836
Cu       3.63000000       0.00000000      17.79400000        3       0.00000000       0.00000000       0.00000000       0.00014836       0.01744399      -0.37451516       0.07033936      -0.05916233      -0.42531786
Cu       0.00000000       2.56679762      17.79400000        3       0.00000000       0.00000000       0.00000000       0.00011479      -0.00645390      -0.22304873       0.03389039       0.05056053      -0.32540894
Cu       3.63000000       2.56679762      17.79400000        3       0.00000000       0.00000000       0.00000000       0.00021651      -0.01716088      -0.36156520       0.07730727      -0.01724343      -0.39158013
Cu       0.00000000       5.13359523      17.79400000        3       0.00000000       0.00000000       0.00000000       0.00007328      -0.00595957      -0.38055265       0.00389050      -0.04183322      -0.44919778
Cu       3.63000000       5.13359523      17.79400000        3       0.00000000       0.00000000       0.00000000       0.00016078      -0.02756118      -0.38006320       0.03130981      -0.02428761      -0.46651822
Cu       1.83400154       1.25729403      19.02486248        2       0.00300504       0.00150462       0.12032077       0.00004464       0.01060957       0.09923922       0.07828508       0.00437608       0.01678179
Cu       5.45672480       1.26453127      19.05762139        2      -0.00144683      -0.00619605       0.12435463      -0.00006697       0.01059386       0.09914589      -0.14227243      -0.04628423      -0.08128717
Cu       1.82420517       3.82532917      19.04293482        2       0.00557210       0.00043899       0.12646634      -0.00274407       0.00796860       0.10373897      -0.06005943       0.00194158       0.08307676
Cu       5.44734789       3.81960080      19.04635530        2      -0.00769020       0.00663591       0.11816211       0.00262506       0.00803866       0.10361893       0.00474078       0.04575313       0.02662321
Cu       1.82480160       6.39632912      19.04189127        2       0.00701187      -0.00900288       0.12158145      -0.00140203       0.00420356       0.09839746      -0.00627873      -0.03893378       0.04651822
Cu       5.44765165       6.39902579      19.04871774        2      -0.00229538      -0.00632591       0.12553525       0.00142104       0.00423963       0.09835207       0.00707262      -0.02278172       0.07101233
Cu       0.01960611      -0.07862959      20.23029397        1      -0.00397652       0.06912623       0.24217279       0.00004000       0.00860619       0.14274682      -0.08348225      -0.14793217      -0.06850429
Cu       3.64078564      -0.01954231      20.23179308        1      -0.00414619      -0.01312709       0.14517726      -0.00002015       0.00252742       0.11837160      -0.02278862      -0.03582698      -0.08262203
Cu       0.05323416       2.49737356      20.26156426        1      -0.02356160       0.00690507       0.17159503      -0.00017140      -0.00533259       0.16685886      -0.01133970      -0.09115198       0.15219779
Cu       3.63256317       2.54105237      20.23610973        1      -0.00010410      -0.00056434       0.14713948      -0.00008180       0.01320092       0.11930561      -0.04314747       0.01041943      -0.06337808
Cu       0.00392625       5.06747518      20.20407093        1       0.00283548      -0.00018753       0.14501719      -0.00005270       0.00079805       0.12888788       0.02573858       0.03459137      -0.06985192
Cu       3.63632435       5.11129167      20.22616339        1      -0.00028663      -0.00543019       0.15360659      -0.00010797       0.00682300       0.11913722       0.00283792      -0.01092192      -0.01452109
O        0.42561600       8.08515664      22.32102433        0      -0.03543127       0.06640953       0.01591522      -0.00041156      -0.01592458       0.01424090      -0.27188543       0.31922071       0.23087286
C       -0.32918183       1.53724076      21.94101660        0      -0.03398125      -0.02999584      -0.04067319      -0.00007043       0.05269624       0.06192348      -0.43546472      -0.04762108       0.49425727
H        0.06883074       7.81075472      23.20054307        0      -0.00622350       0.04686463      -0.00866868       0.00058760      -0.00686929      -0.00747315       0.62340308       0.28648499      -0.36007295
O       -1.09062770       2.04327646      22.73331191        0      -0.08467286       0.00242339       0.04944054      -0.00041770      -0.04038631       0.03143877       0.07202445      -0.15190356       0.01816940
46
Lattice="7.26 0.0 0.0 0.0 7.700392847121503 0.0 0.0 0.0 30.391999999999996" Properties=species:S:1:pos:R:3:tags:I:1:MACE_forces:R:3:forces:R:3:DFT_forces:R:3 method=neb MACE_energy=-186.50064130235302 energy=-186.97781233356525 stress="0.006651952307557245 -3.2073154882963493e-07 1.4710622538436238e-06 -3.2073154882963493e-07 0.007771409437050713 -2.2644539661852852e-05 1.4710622538436238e-06 -2.2644539661852852e-05 0.002609307520851428" free_energy=-186.97781233356525 DFT_energy=-190.94388819 pbc="T T T"
Cu       0.00000000       0.00000000      12.59800000        7       0.00000000       0.00000000       0.00000000      -0.00000029       0.00006157       0.42267225      -0.00234075      -0.01693444       0.64891265
Cu       3.63000000       0.00000000      12.59800000        7       0.00000000       0.00000000       0.00000000       0.00000011      -0.00011203       0.42221863       0.00535689       0.02180093       0.63517629
Cu       0.00000000       2.56679762      12.59800000        7       0.00000000       0.00000000       0.00000000      -0.00000051      -0.00005019       0.42237447       0.00235705       0.01559123       0.64651734
Cu       3.63000000       2.56679762      12.59800000        7       0.00000000       0.00000000       0.00000000       0.00000020      -0.00004698       0.42177359      -0.00555076      -0.02572943       0.64041456
Cu       0.00000000       5.13359523      12.59800000        7       0.00000000       0.00000000       0.00000000      -0.00000027      -0.00001481       0.42185505       0.00243344       0.00424739       0.63281532
Cu       3.63000000       5.13359523      12.59800000        7       0.00000000       0.00000000       0.00000000       0.00000004       0.00015532       0.42177615       0.00224887       0.00735094       0.65357937
Cu       1.81500000       1.28339881      13.89700000        6       0.00000000       0.00000000       0.00000000      -0.00022683       0.00009041      -0.15920623       0.02711282       0.00093779      -0.16646670
Cu       5.44500000       1.28339881      13.89700000        6       0.00000000       0.00000000       0.00000000       0.00022595       0.00008877      -0.15920394      -0.02493169       0.00385378      -0.17150083
Cu       1.81500000       3.85019642      13.89700000        6       0.00000000       0.00000000       0.00000000      -0.00038750      -0.00030452      -0.16005378       0.01526135       0.00010875      -0.18772540
Cu       5.44500000       3.85019642      13.89700000        6       0.00000000       0.00000000       0.00000000       0.00038610      -0.00030302      -0.16005276      -0.01855707       0.00848491      -0.18131778
Cu       1.81500000       6.41699404      13.89700000        6       0.00000000       0.00000000       0.00000000      -0.00003901       0.00026416      -0.16014005       0.01728792      -0.00689496      -0.18451272
Cu       5.44500000       6.41699404      13.89700000        6       0.00000000       0.00000000       0.00000000       0.00003923       0.00026450      -0.16014223      -0.01949075       0.00096213      -0.19029711
Cu       0.00000000       0.00000000      15.19600000        5       0.00000000       0.00000000       0.00000000      -0.00000068       0.00071538      -0.06243817      -0.00139164      -0.00796166      -0.00288602
Cu       3.63000000       0.00000000      15.19600000        5       0.00000000       0.00000000       0.00000000       0.00000471       0.00180197      -0.05752107      -0.00445173      -0.00283964       0.03625037
Cu       0.00000000       2.56679762      15.19600000        5       0.00000000       0.00000000       0.00000000      -0.00000066       0.00093842      -0.06215943      -0.00206655       0.01590490      -0.01987311
Cu       3.63000000       2.56679762      15.19600000        5       0.00000000       0.00000000       0.00000000       0.00000388      -0.00071459      -0.05546671       0.00153219       0.00378963       0.02782809
Cu       0.00000000       5.13359523      15.19600000        5       0.00000000       0.00000000       0.00000000       0.00000066      -0.00152757      -0.05922213       0.00179069      -0.00415846       0.08200544
Cu       3.63000000       5.13359523      15.19600000        5       0.00000000       0.00000000       0.00000000       0.00000320      -0.00087843      -0.05661467       0.00475328       0.00335965      -0.02592228
Cu       1.81500000       1.28339881      16.49500000        4       0.00000000       0.00000000       0.00000000       0.00102264       0.00278032      -0.11731386      -0.02507569       0.01041762      -0.17116034
Cu       5.44500000       1.28339881      16.49500000        4       0.00000000       0.00000000       0.00000000      -0.00100309       0.00277903      -0.11721969       0.02919926      -0.00519121      -0.13011267
Cu       1.81500000       3.85019642      16.49500000        4       0.00000000       0.00000000       0.00000000       0.00504832       0.00200166      -0.11189502       0.02506354       0.01724770      -0.14212683
Cu       5.44500000       3.85019642      16.49500000        4       0.00000000       0.00000000       0.00000000      -0.00503772       0.00200438      -0.11178487      -0.01420955       0.01533880      -0.14442986
Cu       1.81500000       6.41699404      16.49500000        4       0.00000000       0.00000000       0.00000000       0.00429298      -0.00129282      -0.12954447       0.01690743      -0.00896423      -0.14644094
Cu       5.44500000       6.41699404      16.49500000        4       0.00000000       0.00000000       0.00000000      -0.00428790      -0.00128103      -0.12964371      -0.01174895      -0.01133239      -0.14949970
Cu       0.00000000       0.00000000      17.79400000        3       0.00000000       0.00000000       0.00000000       0.00007122      -0.02952130      -0.28123294       0.00026445      -0.06109423      -0.38780351
Cu       3.63000000       0.00000000      17.79400000        3       0.00000000       0.00000000       0.00000000       0.00014836       0.01744399      -0.37451516       0.04507002      -0.06260135      -0.42167754
Cu       0.00000000       2.56679762      17.79400000        3       0.00000000       0.00000000       0.00000000       0.00011479      -0.00645390      -0.22304873       0.03427605       0.05409401      -0.33771655
Cu       3.63000000       2.56679762      17.79400000        3       0.00000000       0.00000000       0.00000000       0.00021651      -0.01716088      -0.36156520       0.05798677       0.01649689      -0.38981826
Cu       0.00000000       5.13359523      17.79400000        3       0.00000000       0.00000000       0.00000000       0.00007328      -0.00595957      -0.38055265       0.00712575      -0.01935484      -0.46219593
Cu       3.63000000       5.13359523      17.79400000        3       0.00000000       0.00000000       0.00000000       0.00016078      -0.02756118      -0.38006320       0.00742765      -0.01980431      -0.45306341
Cu       1.83725207       1.26164331      19.02761256        2       0.00648762       0.00096344       0.12014154       0.00004464       0.01060957       0.09923922       0.09691616       0.01374872       0.00040799
Cu       5.44566901       1.27783857      19.04748356        2      -0.00269249      -0.00334241       0.12006168      -0.00006697       0.01059386       0.09914589      -0.14859480      -0.04570227      -0.11212894
Cu       1.82095863       3.83401925      19.04498940        2       0.00449803       0.00250672       0.12731649      -0.00274407       0.00796860       0.10373897      -0.05205838      -0.00548190       0.08955310
Cu       5.45198449       3.82526816      19.05053433        2      -0.00523427       0.00630791       0.12076369       0.00262506       0.00803866       0.10361893       0.00299683       0.03204162       0.03646780
Cu       1.81495358       6.41003265      19.05045007        2       0.00473522      -0.00722500       0.12415073      -0.00140203       0.00420356       0.09839746       0.00126049      -0.03465098       0.04269447
Cu       5.44553041       6.40205614      19.04467573        2      -0.00481864      -0.00776405       0.12330958       0.00142104       0.00423963       0.09835207       0.01515049      -0.00879889       0.08649416
Cu      -0.01612750      -0.02166183      20.22872490        1      -0.00248609       0.02681749       0.18835367       0.00004000       0.00860619       0.14274682      -0.05749550      -0.09968560       0.04190570
Cu       3.64346331      -0.01300035      20.23221562        1      -0.00115467      -0.01170218       0.14499103      -0.00002015       0.00252742       0.11837160      -0.02575961      -0.03679951      -0.07770030
Cu       0.06716159       2.49687653      20.26399878        1      -0.01197878       0.00126357       0.16627528      -0.00017140      -0.00533259       0.16685886      -0.02993438      -0.04042432       0.16528615
Cu       3.62930321       2.55128519      20.23633328        1       0.00016971       0.00226965       0.14890941      -0.00008180       0.01320092       0.11930561      -0.03245485       0.01265968      -0.04319845
Cu       0.00378268       5.08964445      20.20548864        1       0.00088145       0.00128227       0.14671486      -0.00005270       0.00079805       0.12888788       0.01099677       0.03212951      -0.07422519
Cu       3.63403043       5.11978274      20.22441365        1      -0.00233945      -0.00443303       0.15338471      -0.00010797       0.00682300       0.11913722       0.00411209      -0.01298379      -0.01191614
O        0.53216093       8.09047823      22.43623471        0       0.00701067       0.08386707       0.04637287      -0.00041156      -0.01592458       0.01424090      -0.24104864       0.19575862       0.16195166
C       -0.32218330       1.37261597      21.89065693        0      -0.05972659      -0.00485225       0.00965086      -0.00007043       0.05269624       0.06192348      -0.29259124      -0.15879351       0.29259196
H        0.15561230       7.86495847      23.32028144        0       0.03970319       0.06977474       0.02566405       0.00058760      -0.00686929      -0.00747315       0.49202638       0.25930494      -0.22934290
O       -1.16735140       1.91456167      22.58180917        0      -0.10643936      -0.06695629       0.00184399      -0.00041770      -0.04038631       0.03143877       0.08283791      -0.04944825       0.09420701
46
Lattice="7.26 0.0 0.0 0.0 7.700392847121503 0.0 0.0 0.0 30.391999999999996" Properties=species:S:1:pos:R:3:tags:I:1:MACE_forces:R:3:forces:R:3:DFT_forces:R:3 method=neb MACE_energy=-186.52888795058723 energy=-186.97781233356525 stress="0.006651952307557245 -3.2073154882963493e-07 1.4710622538436238e-06 -3.2073154882963493e-07 0.007771409437050713 -2.2644539661852852e-05 1.4710622538436238e-06 -2.2644539661852852e-05 0.002609307520851428" free_energy=-186.97781233356525 DFT_energy=-190.93934974 pbc="T T T"
Cu       0.00000000       0.00000000      12.59800000        7       0.00000000       0.00000000       0.00000000      -0.00000029       0.00006157       0.42267225      -0.00398634      -0.01324501       0.65038074
Cu       3.63000000       0.00000000      12.59800000        7       0.00000000       0.00000000       0.00000000       0.00000011      -0.00011203       0.42221863       0.00642850       0.02662417       0.63900066
Cu       0.00000000       2.56679762      12.59800000        7       0.00000000       0.00000000       0.00000000      -0.00000051      -0.00005019       0.42237447       0.00356979       0.01704835       0.64592235
Cu       3.63000000       2.56679762      12.59800000        7       0.00000000       0.00000000       0.00000000       0.00000020      -0.00004698       0.42177359      -0.00846339      -0.02054639       0.63875155
Cu       0.00000000       5.13359523      12.59800000        7       0.00000000       0.00000000       0.00000000      -0.00000027      -0.00001481       0.42185505      -0.00068035      -0.00255291       0.63461879
Cu       3.63000000       5.13359523      12.59800000        7       0.00000000       0.00000000       0.00000000       0.00000004       0.00015532       0.42177615       0.00377410      -0.00332403       0.65584605
Cu       1.81500000       1.28339881      13.89700000        6       0.00000000       0.00000000       0.00000000      -0.00022683       0.00009041      -0.15920623       0.02657277      -0.00004379      -0.16729072
Cu       5.44500000       1.28339881      13.89700000        6       0.00000000       0.00000000       0.00000000       0.00022595       0.00008877      -0.15920394      -0.02442767       0.00349608      -0.17025326
Cu       1.81500000       3.85019642      13.89700000        6       0.00000000       0.00000000       0.00000000      -0.00038750      -0.00030452      -0.16005378       0.01737986      -0.00370631      -0.18900009
Cu       5.44500000       3.85019642      13.89700000        6       0.00000000       0.00000000       0.00000000       0.00038610      -0.00030302      -0.16005276      -0.01912214       0.01041666      -0.18521505
Cu       1.81500000       6.41699404      13.89700000        6       0.00000000       0.00000000       0.00000000      -0.00003901       0.00026416      -0.16014005       0.01586919      -0.00536185      -0.17740446
Cu       5.44500000       6.41699404      13.89700000        6       0.00000000       0.00000000       0.00000000       0.00003923       0.00026450      -0.16014223      -0.01731764      -0.00130479      -0.18926931
Cu       0.00000000       0.00000000      15.19600000        5       0.00000000       0.00000000       0.00000000      -0.00000068       0.00071538      -0.06243817       0.00044512      -0.01416208      -0.01388513
Cu       3.63000000       0.00000000      15.19600000        5       0.00000000       0.00000000       0.00000000       0.00000471       0.00180197      -0.05752107      -0.00474076      -0.00178550       0.02904398
Cu       0.00000000       2.56679762      15.19600000        5       0.00000000       0.00000000       0.00000000      -0.00000066       0.00093842      -0.06215943      -0.00118290       0.00922355      -0.01492334
Cu       3.63000000       2.56679762      15.19600000        5       0.00000000       0.00000000       0.00000000       0.00000388      -0.00071459      -0.05546671       0.00177966       0.00181265       0.03455410
Cu       0.00000000       5.13359523      15.19600000        5       0.00000000       0.00000000       0.00000000       0.00000066      -0.00152757      -0.05922213       0.00100836       0.00728703       0.07822414
Cu       3.63000000       5.13359523      15.19600000        5       0.00000000       0.00000000       0.00000000       0.00000320      -0.00087843      -0.05661467       0.00164536       0.00364628      -0.02520128
Cu       1.81500000       1.28339881      16.49500000        4       0.00000000       0.00000000       0.00000000       0.00102264       0.00278032      -0.11731386      -0.02673249       0.01404036      -0.15054800
Cu       5.44500000       1.28339881      16.49500000        4       0.00000000       0.00000000       0.00000000      -0.00100309       0.00277903      -0.11721969       0.03139965      -0.00497112      -0.17165321
Cu       1.81500000       3.85019642      16.49500000        4       0.00000000       0.00000000       0.00000000       0.00504832       0.00200166      -0.11189502       0.01583505       0.01423567      -0.13331249
Cu       5.44500000       3.85019642      16.49500000        4       0.00000000       0.00000000       0.00000000      -0.00503772       0.00200438      -0.11178487      -0.00884030       0.01339795      -0.14387356
Cu       1.81500000       6.41699404      16.49500000        4       0.00000000       0.00000000       0.00000000       0.00429298      -0.00129282      -0.12954447       0.02379361      -0.01242845      -0.14111838
Cu       5.44500000       6.41699404      16.49500000        4       0.00000000       0.00000000       0.00000000      -0.00428790      -0.00128103      -0.12964371      -0.02185267      -0.01563904      -0.15794935
Cu       0.00000000       0.00000000      17.79400000        3       0.00000000       0.00000000       0.00000000       0.00007122      -0.02952130      -0.28123294       0.00229607      -0.07241013      -0.47376134
Cu       3.63000000       0.00000000      17.79400000        3       0.00000000       0.00000000       0.00000000       0.00014836       0.01744399      -0.37451516      -0.00422928      -0.05404216      -0.42257036
Cu       0.00000000       2.56679762      17.79400000        3       0.00000000       0.00000000       0.00000000       0.00011479      -0.00645390      -0.22304873       0.03097351       0.04202466      -0.31844372
Cu       3.63000000       2.56679762      17.79400000        3       0.00000000       0.00000000       0.00000000       0.00021651      -0.01716088      -0.36156520       0.01549630       0.05134934      -0.40425903
Cu       0.00000000       5.13359523      17.79400000        3       0.00000000       0.00000000       0.00000000       0.00007328      -0.00595957      -0.38055265       0.01391293       0.00722821      -0.46193895
Cu       3.63000000       5.13359523      17.79400000        3       0.00000000       0.00000000       0.00000000       0.00016078      -0.02756118      -0.38006320      -0.01382189      -0.03493368      -0.45135909
Cu       1.83384478       1.27019536      19.03585702        2       0.00908555      -0.00298074       0.11764848       0.00004464       0.01060957       0.09923922       0.09899987       0.02631563      -0.00820108
Cu       5.43337632       1.28762585      19.02865541        2      -0.00200549      -0.00379014       0.11959117      -0.00006697       0.01059386       0.09914589      -0.13467614      -0.02187481      -0.09985320
Cu       1.81686745       3.84071508      19.04953547        2       0.00239239      -0.00071548       0.12815898      -0.00274407       0.00796860       0.10373897      -0.03625690      -0.01022499       0.08947388
Cu       5.45361057       3.83285625      19.05123528        2      -0.00141290       0.00170962       0.12445729       0.00262506       0.00803866       0.10361893       0.01037740       0.01086136       0.06026360
Cu       1.81158934       6.41946822      19.05321390        2       0.00220007      -0.00890767       0.12537525      -0.00140203       0.00420356       0.09839746      -0.00829528      -0.03356670       0.03022765
Cu       5.44026614       6.40465743      19.03826583        2      -0.00332648      -0.00898460       0.12418737       0.00142104       0.00423963       0.09835207       0.04084578       0.00288758       0.10553663
Cu      -0.03988868       0.01244287      20.21993385        1      -0.00134620      -0.00063162       0.16708593       0.00004000       0.00860619       0.14274682      -0.02500821      -0.05817246       0.05780717
Cu       3.64186972      -0.00493004      20.23149453        1       0.00009126      -0.01341971       0.14468221      -0.00002015       0.00252742       0.11837160      -0.01573023      -0.03578215      -0.07289495
Cu       0.05764760       2.50974206      20.26645672        1      -0.00041610      -0.02134921       0.17784483      -0.00017140      -0.00533259       0.16685886      -0.01839834      -0.02918196       0.20243754
Cu       3.62929599       2.56125273      20.23545290        1       0.00116084       0.00239523       0.15032955      -0.00008180       0.01320092       0.11930561      -0.01398312       0.01308509      -0.03193733
Cu       0.00215441       5.10969483      20.20728641        1       0.00010310      -0.00876005       0.14716489      -0.00005270       0.00079805       0.12888788      -0.00913379       0.00787479      -0.07233207
Cu       3.63142963       5.12788001      20.22420067        1      -0.00205414      -0.00585220       0.15300436      -0.00010797       0.00682300       0.11913722       0.00549949      -0.01096363      -0.01487335
O        0.61660538       8.07864555      22.58087677        0       0.02344958       0.09769727       0.04659482      -0.00041156      -0.01592458       0.01424090      -0.20875631       0.08146305       0.18046437
C       -0.27729875       1.18247662      21.87857006        0      -0.06120384       0.03365432       0.05035081      -0.00007043       0.05269624       0.06192348      -0.04839667      -0.21166143       0.20793014
H        0.23082269       7.94966226      23.47941928        0       0.05383725       0.09769678       0.02783824       0.00058760      -0.00686929      -0.00747315       0.20123774       0.21856054      -0.21125414
O       -1.16820380       1.80576045      22.45200119        0      -0.06437669      -0.10943605       0.02046919      -0.00041770      -0.04038631       0.03143877       0.10489270       0.08900635       0.13409289
46
Lattice="7.26 0.0 0.0 0.0 7.700392847121503 0.0 0.0 0.0 30.391999999999996" Properties=species:S:1:pos:R:3:tags:I:1:MACE_forces:R:3:forces:R:3:DFT_forces:R:3 method=neb MACE_energy=-186.5174878667998 energy=-186.97781233356525 stress="0.006651952307557245 -3.2073154882963493e-07 1.4710622538436238e-06 -3.2073154882963493e-07 0.007771409437050713 -2.2644539661852852e-05 1.4710622538436238e-06 -2.2644539661852852e-05 0.002609307520851428" free_energy=-186.97781233356525 DFT_energy=-190.94155533 pbc="T T T"
Cu       0.00000000       0.00000000      12.59800000        7       0.00000000       0.00000000       0.00000000      -0.00000029       0.00006157       0.42267225      -0.00071505      -0.01002033       0.65144868
Cu       3.63000000       0.00000000      12.59800000        7       0.00000000       0.00000000       0.00000000       0.00000011      -0.00011203       0.42221863       0.00367336       0.02649447       0.64024021
Cu       0.00000000       2.56679762      12.59800000        7       0.00000000       0.00000000       0.00000000      -0.00000051      -0.00005019       0.42237447       0.00159160       0.01872612       0.64332876
Cu       3.63000000       2.56679762      12.59800000        7       0.00000000       0.00000000       0.00000000       0.00000020      -0.00004698       0.42177359      -0.00889588      -0.01183008       0.63307818
Cu       0.00000000       5.13359523      12.59800000        7       0.00000000       0.00000000       0.00000000      -0.00000027      -0.00001481       0.42185505      -0.00251880      -0.01155918       0.63391058
Cu       3.63000000       5.13359523      12.59800000        7       0.00000000       0.00000000       0.00000000       0.00000004       0.00015532       0.42177615       0.00391302      -0.01525785       0.65195950
Cu       1.81500000       1.28339881      13.89700000        6       0.00000000       0.00000000       0.00000000      -0.00022683       0.00009041      -0.15920623       0.02428504      -0.00052189      -0.17267229
Cu       5.44500000       1.28339881      13.89700000        6       0.00000000       0.00000000       0.00000000       0.00022595       0.00008877      -0.15920394      -0.02192915       0.00249650      -0.17328485
Cu       1.81500000       3.85019642      13.89700000        6       0.00000000       0.00000000       0.00000000      -0.00038750      -0.00030452      -0.16005378       0.01858177      -0.00934018      -0.18904538
Cu       5.44500000       3.85019642      13.89700000        6       0.00000000       0.00000000       0.00000000       0.00038610      -0.00030302      -0.16005276      -0.01708550       0.00952737      -0.19154932
Cu       1.81500000       6.41699404      13.89700000        6       0.00000000       0.00000000       0.00000000      -0.00003901       0.00026416      -0.16014005       0.01344221      -0.00357865      -0.17327939
Cu       5.44500000       6.41699404      13.89700000        6       0.00000000       0.00000000       0.00000000       0.00003923       0.00026450      -0.16014223      -0.01361968      -0.00387891      -0.18531923
Cu       0.00000000       0.00000000      15.19600000        5       0.00000000       0.00000000       0.00000000      -0.00000068       0.00071538      -0.06243817       0.00155951      -0.01702516      -0.01995714
Cu       3.63000000       0.00000000      15.19600000        5       0.00000000       0.00000000       0.00000000       0.00000471       0.00180197      -0.05752107      -0.00379117      -0.00209416       0.02098416
Cu       0.00000000       2.56679762      15.19600000        5       0.00000000       0.00000000       0.00000000      -0.00000066       0.00093842      -0.06215943       0.00143645      -0.00183322      -0.00154079
Cu       3.63000000       2.56679762      15.19600000        5       0.00000000       0.00000000       0.00000000       0.00000388      -0.00071459      -0.05546671      -0.00121457      -0.00065871       0.03801654
Cu       0.00000000       5.13359523      15.19600000        5       0.00000000       0.00000000       0.00000000       0.00000066      -0.00152757      -0.05922213       0.00015436       0.01741209       0.07285357
Cu       3.63000000       5.13359523      15.19600000        5       0.00000000       0.00000000       0.00000000       0.00000320      -0.00087843      -0.05661467      -0.00223824       0.00329850      -0.01965066
Cu       1.81500000       1.28339881      16.49500000        4       0.00000000       0.00000000       0.00000000       0.00102264       0.00278032      -0.11731386      -0.01804386       0.01815918      -0.13429516
Cu       5.44500000       1.28339881      16.49500000        4       0.00000000       0.00000000       0.00000000      -0.00100309       0.00277903      -0.11721969       0.02495356      -0.00330748      -0.20595698
Cu       1.81500000       3.85019642      16.49500000        4       0.00000000       0.00000000       0.00000000       0.00504832       0.00200166      -0.11189502       0.00405804       0.00917159      -0.13545169
Cu       5.44500000       3.85019642      16.49500000        4       0.00000000       0.00000000       0.00000000      -0.00503772       0.00200438      -0.11178487       0.00158622       0.00741951      -0.16413818
Cu       1.81500000       6.41699404      16.49500000        4       0.00000000       0.00000000       0.00000000       0.00429298      -0.00129282      -0.12954447       0.02705747      -0.01814141      -0.14737905
Cu       5.44500000       6.41699404      16.49500000        4       0.00000000       0.00000000       0.00000000      -0.00428790      -0.00128103      -0.12964371      -0.03083365      -0.02006390      -0.16459873
Cu       0.00000000       0.00000000      17.79400000        3       0.00000000       0.00000000       0.00000000       0.00007122      -0.02952130      -0.28123294       0.00370667      -0.07458949      -0.48557865
Cu       3.63000000       0.00000000      17.79400000        3       0.00000000       0.00000000       0.00000000       0.00014836       0.01744399      -0.37451516      -0.05532432      -0.02556165      -0.42256961
Cu       0.00000000       2.56679762      17.79400000        3       0.00000000       0.00000000       0.00000000       0.00011479      -0.00645390      -0.22304873       0.01907573       0.01963901      -0.30441860
Cu       3.63000000       2.56679762      17.79400000        3       0.00000000       0.00000000       0.00000000       0.00021651      -0.01716088      -0.36156520      -0.03084355       0.05993672      -0.43224103
Cu       0.00000000       5.13359523      17.79400000        3       0.00000000       0.00000000       0.00000000       0.00007328      -0.00595957      -0.38055265       0.01709904       0.03475672      -0.45318413
Cu       3.63000000       5.13359523      17.79400000        3       0.00000000       0.00000000       0.00000000       0.00016078      -0.02756118      -0.38006320      -0.03798121      -0.03916980      -0.45821374
Cu       1.81961040       1.28585851      19.04752871        2       0.00111075       0.00488002       0.12441820       0.00004464       0.01060957       0.09923922       0.08985920       0.04125445       0.00250935
Cu       5.42740373       1.29083489      19.01683278        2      -0.00402347      -0.00366513       0.11563305      -0.00006697       0.01059386       0.09914589      -0.11901095       0.00428553      -0.06971383
Cu       1.81494991       3.84671179      19.05392122        2       0.00057132       0.00268138       0.13051985      -0.00274407       0.00796860       0.10373897      -0.02597805       0.00170292       0.07491625
Cu       5.44376943       3.84671648      19.04280176        2      -0.00652500       0.00788082       0.12078038       0.00262506       0.00803866       0.10361893       0.01435470       0.01398455       0.08046634
Cu       1.81337533       6.42600636      19.05001454        2       0.00418453      -0.00642321       0.12202442      -0.00140203       0.00420356       0.09839746      -0.00900170      -0.03921088       0.01716503
Cu       5.43558349       6.41211488      19.03500379        2      -0.00518405      -0.00358133       0.12331041       0.00142104       0.00423963       0.09835207       0.04175408       0.00773865       0.09813141
Cu      -0.03813550       0.02237405      20.21475803        1       0.00482280       0.00370428       0.18232810       0.00004000       0.00860619       0.14274682       0.02351655       0.01158045       0.00324012
Cu       3.63421989       0.00413751      20.23012536        1      -0.00483592      -0.00692906       0.14448058      -0.00002015       0.00252742       0.11837160      -0.00194150      -0.01949752      -0.06968263
Cu       0.00494629       2.57737965      20.24796275        1      -0.03674728      -0.06413788       0.23813066      -0.00017140      -0.00533259       0.16685886       0.00367021      -0.06716417       0.21011389
Cu       3.63028748       2.56831844      20.23169006        1      -0.00040837       0.00670030       0.14709059      -0.00008180       0.01320092       0.11930561      -0.00629597       0.01688301      -0.03264555
Cu      -0.00116104       5.13487702      20.20674157        1      -0.00310870       0.00039473       0.14685102      -0.00005270       0.00079805       0.12888788      -0.02964694       0.01225287      -0.05287643
Cu       3.62865979       5.13596971      20.22594012        1      -0.00332439      -0.00180882       0.15429601      -0.00010797       0.00682300       0.11913722      -0.00134740      -0.00133255      -0.01518583
O        0.60722015       7.94697590      22.72118434        0       0.00276938      -0.01378750       0.10615339      -0.00041156      -0.01592458       0.01424090      -0.25368572      -0.12822536       0.44091045
C       -0.20464469       0.99232729      21.91154520        0       0.08097611      -0.05926212      -0.03721568      -0.00007043       0.05269624       0.06192348      -0.06409288      -0.03645691       0.40104812
H        0.22430858       7.98208117      23.62863988        0       0.04134147       0.10419627       0.07751525       0.00058760      -0.00686929      -0.00747315       0.22049648       0.02178157      -0.66588002
O       -0.98162038       1.84696572      22.34618522        0       0.00323239       0.03301929       0.03698956      -0.00041770      -0.04038631       0.03143877       0.19621047       0.20181762       0.22598774
46
Lattice="7.26 0.0 0.0 0.0 7.700392847121503 0.0 0.0 0.0 30.391999999999996" Properties=species:S:1:pos:R:3:tags:I:1:MACE_forces:R:3:forces:R:3:DFT_forces:R:3 method=neb MACE_energy=-186.5978390691888 energy=-186.97781233356525 stress="0.006651952307557245 -3.2073154882963493e-07 1.4710622538436238e-06 -3.2073154882963493e-07 0.007771409437050713 -2.2644539661852852e-05 1.4710622538436238e-06 -2.2644539661852852e-05 0.002609307520851428" free_energy=-186.97781233356525 DFT_energy=-191.01978084 pbc="T T T"
Cu       0.00000000       0.00000000      12.59800000        7       0.00000000       0.00000000       0.00000000      -0.00000029       0.00006157       0.42267225       0.00319553      -0.00780839       0.64994356
Cu       3.63000000       0.00000000      12.59800000        7       0.00000000       0.00000000       0.00000000       0.00000011      -0.00011203       0.42221863       0.00035432       0.01876176       0.64088133
Cu       0.00000000       2.56679762      12.59800000        7       0.00000000       0.00000000       0.00000000      -0.00000051      -0.00005019       0.42237447      -0.00218132       0.01782117       0.64075204
Cu       3.63000000       2.56679762      12.59800000        7       0.00000000       0.00000000       0.00000000       0.00000020      -0.00004698       0.42177359      -0.00843476      -0.00430412       0.63237309
Cu       0.00000000       5.13359523      12.59800000        7       0.00000000       0.00000000       0.00000000      -0.00000027      -0.00001481       0.42185505      -0.00278763      -0.01377828       0.63377005
Cu       3.63000000       5.13359523      12.59800000        7       0.00000000       0.00000000       0.00000000       0.00000004       0.00015532       0.42177615       0.00420217      -0.01531933       0.64963936
Cu       1.81500000       1.28339881      13.89700000        6       0.00000000       0.00000000       0.00000000      -0.00022683       0.00009041      -0.15920623       0.02224527       0.00240461      -0.18257380
Cu       5.44500000       1.28339881      13.89700000        6       0.00000000       0.00000000       0.00000000       0.00022595       0.00008877      -0.15920394      -0.01934493       0.00394276      -0.17875355
Cu       1.81500000       3.85019642      13.89700000        6       0.00000000       0.00000000       0.00000000      -0.00038750      -0.00030452      -0.16005378       0.01480841      -0.01209842      -0.19044059
Cu       5.44500000       3.85019642      13.89700000        6       0.00000000       0.00000000       0.00000000       0.00038610      -0.00030302      -0.16005276      -0.01398874       0.00741297      -0.19744603
Cu       1.81500000       6.41699404      13.89700000        6       0.00000000       0.00000000       0.00000000      -0.00003901       0.00026416      -0.16014005       0.00851459      -0.00235353      -0.17467673
Cu       5.44500000       6.41699404      13.89700000        6       0.00000000       0.00000000       0.00000000       0.00003923       0.00026450      -0.16014223      -0.00933996      -0.00563002      -0.18344066
Cu       0.00000000       0.00000000      15.19600000        5       0.00000000       0.00000000       0.00000000      -0.00000068       0.00071538      -0.06243817       0.00049992      -0.01577392      -0.01262570
Cu       3.63000000       0.00000000      15.19600000        5       0.00000000       0.00000000       0.00000000       0.00000471       0.00180197      -0.05752107      -0.00368178       0.00029714       0.02629158
Cu       0.00000000       2.56679762      15.19600000        5       0.00000000       0.00000000       0.00000000      -0.00000066       0.00093842      -0.06215943       0.00250294      -0.00855334       0.02121018
Cu       3.63000000       2.56679762      15.19600000        5       0.00000000       0.00000000       0.00000000       0.00000388      -0.00071459      -0.05546671      -0.00455233      -0.00277616       0.04028203
Cu       0.00000000       5.13359523      15.19600000        5       0.00000000       0.00000000       0.00000000       0.00000066      -0.00152757      -0.05922213       0.00023143       0.02114692       0.07195522
Cu       3.63000000       5.13359523      15.19600000        5       0.00000000       0.00000000       0.00000000       0.00000320      -0.00087843      -0.05661467      -0.00348468       0.00286806      -0.00657525
Cu       1.81500000       1.28339881      16.49500000        4       0.00000000       0.00000000       0.00000000       0.00102264       0.00278032      -0.11731386      -0.00841712       0.01728565      -0.12772252
Cu       5.44500000       1.28339881      16.49500000        4       0.00000000       0.00000000       0.00000000      -0.00100309       0.00277903      -0.11721969       0.01519059       0.00170927      -0.22302136
Cu       1.81500000       3.85019642      16.49500000        4       0.00000000       0.00000000       0.00000000       0.00504832       0.00200166      -0.11189502      -0.00280867       0.01035014      -0.13520989
Cu       5.44500000       3.85019642      16.49500000        4       0.00000000       0.00000000       0.00000000      -0.00503772       0.00200438      -0.11178487       0.00824535       0.00770900      -0.18051959
Cu       1.81500000       6.41699404      16.49500000        4       0.00000000       0.00000000       0.00000000       0.00429298      -0.00129282      -0.12954447       0.02127286      -0.02336556      -0.15700259
Cu       5.44500000       6.41699404      16.49500000        4       0.00000000       0.00000000       0.00000000      -0.00428790      -0.00128103      -0.12964371      -0.02904011      -0.02544910      -0.17184352
Cu       0.00000000       0.00000000      17.79400000        3       0.00000000       0.00000000       0.00000000       0.00007122      -0.02952130      -0.28123294       0.00150861      -0.05869994      -0.48385567
Cu       3.63000000       0.00000000      17.79400000        3       0.00000000       0.00000000       0.00000000       0.00014836       0.01744399      -0.37451516      -0.08087348       0.00199887      -0.43269634
Cu       0.00000000       2.56679762      17.79400000        3       0.00000000       0.00000000       0.00000000       0.00011479      -0.00645390      -0.22304873       0.01109371       0.00705386      -0.20743635
Cu       3.63000000       2.56679762      17.79400000        3       0.00000000       0.00000000       0.00000000       0.00021651      -0.01716088      -0.36156520      -0.06019667       0.05528418      -0.44414913
Cu       0.00000000       5.13359523      17.79400000        3       0.00000000       0.00000000       0.00000000       0.00007328      -0.00595957      -0.38055265       0.01548032       0.04777381      -0.44576595
Cu       3.63000000       5.13359523      17.79400000        3       0.00000000       0.00000000       0.00000000       0.00016078      -0.02756118      -0.38006320      -0.06190606      -0.04722055      -0.47170965
Cu       1.80643834       1.29672867      19.05527792        2      -0.00546746       0.00877401       0.12698957       0.00004464       0.01060957       0.09923922       0.09140658       0.04039874      -0.00451266
Cu       5.42858142       1.29075633      19.01331070        2      -0.00237804      -0.00475823       0.11521590      -0.00006697       0.01059386       0.09914589      -0.10395502       0.01192828      -0.04586058
Cu       1.80894720       3.84597916      19.05864710        2      -0.00519270      -0.00044353       0.13298921      -0.00274407       0.00796860       0.10373897      -0.02739645       0.00720919       0.06242249
Cu       5.43537104       3.85591530      19.03490228        2      -0.01076816       0.01062037       0.11657896       0.00262506       0.00803866       0.10361893       0.01583633       0.02877787       0.07625264
Cu       1.81797826       6.42675476      19.04430204        2       0.00796450      -0.00778634       0.11786071      -0.00140203       0.00420356       0.09839746      -0.00234773      -0.04787025       0.00936540
Cu       5.43089374       6.41690806      19.03306643        2      -0.00791722      -0.00188382       0.12178741       0.00142104       0.00423963       0.09835207       0.03461256       0.00093068       0.08688903
Cu      -0.02769121       0.00201389      20.20815337        1       0.01195182      -0.02621772       0.16906866       0.00004000       0.00860619       0.14274682       0.05108179       0.02576262      -0.02255635
Cu       3.62835703       0.01145354      20.22933613        1      -0.00577487      -0.00529516       0.14479284      -0.00002015       0.00252742       0.11837160       0.00649154      -0.01043828      -0.07746696
Cu      -0.04193297       2.62293722      20.26194607        1      -0.07247937      -0.05997234       0.29745212      -0.00017140      -0.00533259       0.16685886       0.03050298      -0.05068915       0.09843873
Cu       3.63188518       2.57251351      20.22877280        1       0.00066480       0.00554115       0.14643888      -0.00008180       0.01320092       0.11930561      -0.01636523       0.01628490      -0.04567734
Cu      -0.00360121       5.14903486      20.20574188        1      -0.00481246       0.00549752       0.14624561      -0.00005270       0.00079805       0.12888788      -0.03766268       0.01445074      -0.02986927
Cu       3.62575318       5.14063281      20.22720441        1      -0.00541281      -0.00252796       0.15541314      -0.00010797       0.00682300       0.11913722      -0.00543166      -0.00076570      -0.02170355
O        0.55551433       7.82706422      22.81503803        0      -0.05203052      -0.07638749       0.16761250      -0.00041156      -0.01592458       0.01424090      -0.38943013      -0.23803462       0.65309608
C       -0.12389600       0.87815258      21.92183701        0       0.02259677       0.01807393       0.03987410      -0.00007043       0.05269624       0.06192348       0.06515833      -0.12792688       0.45168986
H        0.17693546       8.00262059      23.70847192        0       0.03400034       0.11826837       0.07221790       0.00058760      -0.00686929      -0.00747315       0.18597750       0.09248637      -0.82210519
O       -0.74215062       1.91306365      22.24339814        0       0.25161912      -0.00322609      -0.12718344      -0.00041770      -0.04038631       0.03143877       0.28321349       0.25680595       0.23196412
46
Lattice="7.26 0.0 0.0 0.0 7.700392847121503 0.0 0.0 0.0 30.391999999999996" Properties=species:S:1:pos:R:3:tags:I:1:MACE_forces:R:3:forces:R:3:DFT_forces:R:3 method=neb MACE_energy=-186.71946472034563 energy=-186.97781233356525 stress="0.006651952307557245 -3.2073154882963493e-07 1.4710622538436238e-06 -3.2073154882963493e-07 0.007771409437050713 -2.2644539661852852e-05 1.4710622538436238e-06 -2.2644539661852852e-05 0.002609307520851428" free_energy=-186.97781233356525 DFT_energy=-191.14363274 pbc="T T T"
Cu       0.00000000       0.00000000      12.59800000        7       0.00000000       0.00000000       0.00000000      -0.00000029       0.00006157       0.42267225       0.00438734      -0.00523460       0.64503048
Cu       3.63000000       0.00000000      12.59800000        7       0.00000000       0.00000000       0.00000000       0.00000011      -0.00011203       0.42221863      -0.00011083       0.01323509       0.63739673
Cu       0.00000000       2.56679762      12.59800000        7       0.00000000       0.00000000       0.00000000      -0.00000051      -0.00005019       0.42237447      -0.00602712       0.01484068       0.63644683
Cu       3.63000000       2.56679762      12.59800000        7       0.00000000       0.00000000       0.00000000       0.00000020      -0.00004698       0.42177359      -0.00451865      -0.00038269       0.63277841
Cu       0.00000000       5.13359523      12.59800000        7       0.00000000       0.00000000       0.00000000      -0.00000027      -0.00001481       0.42185505      -0.00210302      -0.01310778       0.62842467
Cu       3.63000000       5.13359523      12.59800000        7       0.00000000       0.00000000       0.00000000       0.00000004       0.00015532       0.42177615       0.00193231      -0.01270177       0.64442837
Cu       1.81500000       1.28339881      13.89700000        6       0.00000000       0.00000000       0.00000000      -0.00022683       0.00009041      -0.15920623       0.02175017       0.00534334      -0.18538286
Cu       5.44500000       1.28339881      13.89700000        6       0.00000000       0.00000000       0.00000000       0.00022595       0.00008877      -0.15920394      -0.01872104       0.00350163      -0.18190830
Cu       1.81500000       3.85019642      13.89700000        6       0.00000000       0.00000000       0.00000000      -0.00038750      -0.00030452      -0.16005378       0.01369897      -0.01095515      -0.19187708
Cu       5.44500000       3.85019642      13.89700000        6       0.00000000       0.00000000       0.00000000       0.00038610      -0.00030302      -0.16005276      -0.01545022       0.00404656      -0.19797674
Cu       1.81500000       6.41699404      13.89700000        6       0.00000000       0.00000000       0.00000000      -0.00003901       0.00026416      -0.16014005       0.00889418      -0.00229429      -0.17739650
Cu       5.44500000       6.41699404      13.89700000        6       0.00000000       0.00000000       0.00000000       0.00003923       0.00026450      -0.16014223      -0.00874930      -0.00511302      -0.18105207
Cu       0.00000000       0.00000000      15.19600000        5       0.00000000       0.00000000       0.00000000      -0.00000068       0.00071538      -0.06243817      -0.00198650      -0.00688311      -0.00475120
Cu       3.63000000       0.00000000      15.19600000        5       0.00000000       0.00000000       0.00000000       0.00000471       0.00180197      -0.05752107      -0.00213392       0.00130473       0.02437216
Cu       0.00000000       2.56679762      15.19600000        5       0.00000000       0.00000000       0.00000000      -0.00000066       0.00093842      -0.06215943       0.00375858      -0.01688146       0.03594804
Cu       3.63000000       2.56679762      15.19600000        5       0.00000000       0.00000000       0.00000000       0.00000388      -0.00071459      -0.05546671      -0.00350685      -0.00394029       0.03469027
Cu       0.00000000       5.13359523      15.19600000        5       0.00000000       0.00000000       0.00000000       0.00000066      -0.00152757      -0.05922213       0.00119822       0.02095514       0.07544552
Cu       3.63000000       5.13359523      15.19600000        5       0.00000000       0.00000000       0.00000000       0.00000320      -0.00087843      -0.05661467      -0.00221381       0.00370677      -0.00190233
Cu       1.81500000       1.28339881      16.49500000        4       0.00000000       0.00000000       0.00000000       0.00102264       0.00278032      -0.11731386      -0.00536257       0.01399315      -0.13634527
Cu       5.44500000       1.28339881      16.49500000        4       0.00000000       0.00000000       0.00000000      -0.00100309       0.00277903      -0.11721969       0.00582265       0.00927665      -0.21908030
Cu       1.81500000       3.85019642      16.49500000        4       0.00000000       0.00000000       0.00000000       0.00504832       0.00200166      -0.11189502      -0.00522498       0.00827742      -0.14565043
Cu       5.44500000       3.85019642      16.49500000        4       0.00000000       0.00000000       0.00000000      -0.00503772       0.00200438      -0.11178487       0.00819963       0.00793001      -0.18441291
Cu       1.81500000       6.41699404      16.49500000        4       0.00000000       0.00000000       0.00000000       0.00429298      -0.00129282      -0.12954447       0.01629824      -0.02352097      -0.17216637
Cu       5.44500000       6.41699404      16.49500000        4       0.00000000       0.00000000       0.00000000      -0.00428790      -0.00128103      -0.12964371      -0.02586478      -0.02788476      -0.17633053
Cu       0.00000000       0.00000000      17.79400000        3       0.00000000       0.00000000       0.00000000       0.00007122      -0.02952130      -0.28123294      -0.00646206      -0.04306969      -0.43674190
Cu       3.63000000       0.00000000      17.79400000        3       0.00000000       0.00000000       0.00000000       0.00014836       0.01744399      -0.37451516      -0.06830344       0.02021769      -0.43712750
Cu       0.00000000       2.56679762      17.79400000        3       0.00000000       0.00000000       0.00000000       0.00011479      -0.00645390      -0.22304873       0.00471420       0.00379950      -0.15690814
Cu       3.63000000       2.56679762      17.79400000        3       0.00000000       0.00000000       0.00000000       0.00021651      -0.01716088      -0.36156520      -0.05612317       0.04375328      -0.43684259
Cu       0.00000000       5.13359523      17.79400000        3       0.00000000       0.00000000       0.00000000       0.00007328      -0.00595957      -0.38055265       0.00780091       0.05170703      -0.43324641
Cu       3.63000000       5.13359523      17.79400000        3       0.00000000       0.00000000       0.00000000       0.00016078      -0.02756118      -0.38006320      -0.05020727      -0.04668127      -0.47766665
Cu       1.80185551       1.30075242      19.05453569        2       0.00259140      -0.00060380       0.12017408       0.00004464       0.01060957       0.09923922       0.11401954       0.02534722      -0.02583090
Cu       5.43720400       1.28943133      19.01997450        2      -0.00288288      -0.00282845       0.12213638      -0.00006697       0.01059386       0.09914589      -0.09045154       0.00712851      -0.01851905
Cu       1.80880592       3.84641852      19.05732567        2       0.00476192       0.00102910       0.12567318      -0.00274407       0.00796860       0.10373897      -0.01913547       0.02000318       0.04782872
Cu       5.43090839       3.86022728      19.03260346        2      -0.00569921       0.00296483       0.12344382       0.00262506       0.00803866       0.10361893       0.02584393       0.03104086       0.06875106
Cu       1.82528051       6.42292394      19.03586559        2       0.00681010      -0.00897784       0.11983617      -0.00140203       0.00420356       0.09839746       0.00043572      -0.05631647       0.01885151
Cu       5.42920226       6.42237542      19.03408735        2      -0.00589579      -0.00643680       0.12272737       0.00142104       0.00423963       0.09835207       0.03556422      -0.00823302       0.07737330
Cu      -0.00261598      -0.02871084      20.21360908        1       0.00891522      -0.01637482       0.17087548       0.00004000       0.00860619       0.14274682       0.03263909       0.06172160      -0.00883877
Cu       3.62413122       0.01458764      20.22943932        1      -0.00182072      -0.00654966       0.14555441      -0.00002015       0.00252742       0.11837160       0.02023071       0.00200713      -0.08017391
Cu      -0.05203001       2.64896827      20.26351624        1      -0.00934781      -0.02970009       0.20614648      -0.00017140      -0.00533259       0.16685886       0.02564027      -0.02139567       0.03825966
Cu       3.63547170       2.57270762      20.22885341        1       0.00096108       0.00287085       0.14837911      -0.00008180       0.01320092       0.11930561      -0.02409901       0.01374093      -0.06485384
Cu      -0.00538650       5.15614445      20.20556592        1       0.00056020      -0.00489727       0.14539255      -0.00005270       0.00079805       0.12888788      -0.01925129      -0.00627446      -0.02120399
Cu       3.62450180       5.14211222      20.22947351        1       0.00005813      -0.00459698       0.15564124      -0.00010797       0.00682300       0.11913722       0.00244366      -0.00475681      -0.03122146
O        0.47009378       7.68866985      22.92220410        0      -0.09876859      -0.06001129       0.10699194      -0.00041156      -0.01592458       0.01424090      -0.53367836      -0.12892720       0.63844342
C        0.01034286       0.78727413      21.94488573        0       0.02450938      -0.02631712       0.07788875      -0.00007043       0.05269624       0.06192348      -0.01878431      -0.07770339       0.52204413
H        0.10230404       8.01557432      23.77858130        0       0.06109494       0.09230131       0.04647612       0.00058760      -0.00686929      -0.00747315       0.27222825      -0.05491619      -0.80295790
O       -0.39323840       1.94999492      22.18615816        0       0.15610780       0.03210246      -0.01168873      -0.00041770      -0.04038631       0.03143877       0.36096870       0.19029598       0.18185262
46
Lattice="7.26 0.0 0.0 0.0 7.700392847121503 0.0 0.0 0.0 30.391999999999996" Properties=species:S:1:pos:R:3:tags:I:1:MACE_forces:R:3:forces:R:3:DFT_forces:R:3 method=neb MACE_energy=-186.64134120736472 energy=-186.97781233356525 stress="0.006651952307557245 -3.2073154882963493e-07 1.4710622538436238e-06 -3.2073154882963493e-07 0.007771409437050713 -2.2644539661852852e-05 1.4710622538436238e-06 -2.2644539661852852e-05 0.002609307520851428" free_energy=-186.97781233356525 DFT_energy=-190.70091068 pbc="T T T"
Cu       0.00000000       0.00000000      12.59800000        7       0.00000000       0.00000000       0.00000000      -0.00000029       0.00006157       0.42267225       0.00340386      -0.00737167       0.64540148
Cu       3.63000000       0.00000000      12.59800000        7       0.00000000       0.00000000       0.00000000       0.00000011      -0.00011203       0.42221863      -0.00081202       0.01265641       0.63464846
Cu       0.00000000       2.56679762      12.59800000        7       0.00000000       0.00000000       0.00000000      -0.00000051      -0.00005019       0.42237447      -0.00377194       0.01378360       0.63804608
Cu       3.63000000       2.56679762      12.59800000        7       0.00000000       0.00000000       0.00000000       0.00000020      -0.00004698       0.42177359      -0.00566490       0.00029889       0.63417597
Cu       0.00000000       5.13359523      12.59800000        7       0.00000000       0.00000000       0.00000000      -0.00000027      -0.00001481       0.42185505       0.00014219      -0.01108811       0.62777825
Cu       3.63000000       5.13359523      12.59800000        7       0.00000000       0.00000000       0.00000000       0.00000004       0.00015532       0.42177615       0.00180033      -0.01267158       0.64013202
Cu       1.81500000       1.28339881      13.89700000        6       0.00000000       0.00000000       0.00000000      -0.00022683       0.00009041      -0.15920623       0.02250688       0.00543140      -0.18642988
Cu       5.44500000       1.28339881      13.89700000        6       0.00000000       0.00000000       0.00000000       0.00022595       0.00008877      -0.15920394      -0.02106316       0.00521046      -0.18023437
Cu       1.81500000       3.85019642      13.89700000        6       0.00000000       0.00000000       0.00000000      -0.00038750      -0.00030452      -0.16005378       0.01519628      -0.01060551      -0.19399121
Cu       5.44500000       3.85019642      13.89700000        6       0.00000000       0.00000000       0.00000000       0.00038610      -0.00030302      -0.16005276      -0.01627300       0.00193071      -0.19801052
Cu       1.81500000       6.41699404      13.89700000        6       0.00000000       0.00000000       0.00000000      -0.00003901       0.00026416      -0.16014005       0.00668375      -0.00149941      -0.17726666
Cu       5.44500000       6.41699404      13.89700000        6       0.00000000       0.00000000       0.00000000       0.00003923       0.00026450      -0.16014223      -0.00970183      -0.00693190      -0.17878434
Cu       0.00000000       0.00000000      15.19600000        5       0.00000000       0.00000000       0.00000000      -0.00000068       0.00071538      -0.06243817      -0.00089569      -0.00265097      -0.00488070
Cu       3.63000000       0.00000000      15.19600000        5       0.00000000       0.00000000       0.00000000       0.00000471       0.00180197      -0.05752107      -0.00446034      -0.00033587       0.02292442
Cu       0.00000000       2.56679762      15.19600000        5       0.00000000       0.00000000       0.00000000      -0.00000066       0.00093842      -0.06215943       0.00098422      -0.01772542       0.03361656
Cu       3.63000000       2.56679762      15.19600000        5       0.00000000       0.00000000       0.00000000       0.00000388      -0.00071459      -0.05546671      -0.00425876      -0.00550007       0.03455398
Cu       0.00000000       5.13359523      15.19600000        5       0.00000000       0.00000000       0.00000000       0.00000066      -0.00152757      -0.05922213       0.00138536       0.01634983       0.07729930
Cu       3.63000000       5.13359523      15.19600000        5       0.00000000       0.00000000       0.00000000       0.00000320      -0.00087843      -0.05661467      -0.00154976       0.00534291      -0.00308129
Cu       1.81500000       1.28339881      16.49500000        4       0.00000000       0.00000000       0.00000000       0.00102264       0.00278032      -0.11731386      -0.00265259       0.01213820      -0.14163516
Cu       5.44500000       1.28339881      16.49500000        4       0.00000000       0.00000000       0.00000000      -0.00100309       0.00277903      -0.11721969       0.00520912       0.00603804      -0.21270109
Cu       1.81500000       3.85019642      16.49500000        4       0.00000000       0.00000000       0.00000000       0.00504832       0.00200166      -0.11189502      -0.00279001       0.00680422      -0.16082103
Cu       5.44500000       3.85019642      16.49500000        4       0.00000000       0.00000000       0.00000000      -0.00503772       0.00200438      -0.11178487       0.00252425       0.00909050      -0.20226776
Cu       1.81500000       6.41699404      16.49500000        4       0.00000000       0.00000000       0.00000000       0.00429298      -0.00129282      -0.12954447       0.01403933      -0.02739145      -0.16549302
Cu       5.44500000       6.41699404      16.49500000        4       0.00000000       0.00000000       0.00000000      -0.00428790      -0.00128103      -0.12964371      -0.01853961      -0.02815274      -0.17058291
Cu       0.00000000       0.00000000      17.79400000        3       0.00000000       0.00000000       0.00000000       0.00007122      -0.02952130      -0.28123294      -0.00451329      -0.02000713      -0.28241279
Cu       3.63000000       0.00000000      17.79400000        3       0.00000000       0.00000000       0.00000000       0.00014836       0.01744399      -0.37451516      -0.06494167       0.03698216      -0.43565484
Cu       0.00000000       2.56679762      17.79400000        3       0.00000000       0.00000000       0.00000000       0.00011479      -0.00645390      -0.22304873       0.00269881       0.02962441      -0.24995568
Cu       3.63000000       2.56679762      17.79400000        3       0.00000000       0.00000000       0.00000000       0.00021651      -0.01716088      -0.36156520      -0.05895745       0.03520365      -0.43351580
Cu       0.00000000       5.13359523      17.79400000        3       0.00000000       0.00000000       0.00000000       0.00007328      -0.00595957      -0.38055265       0.00483375       0.05336154      -0.43054101
Cu       3.63000000       5.13359523      17.79400000        3       0.00000000       0.00000000       0.00000000       0.00016078      -0.02756118      -0.38006320      -0.06713485       0.00284580      -0.48978373
Cu       1.79628318       1.30638019      19.05373295        2       0.00447178      -0.00486635       0.11750300       0.00004464       0.01060957       0.09923922       0.09638094      -0.00814665       0.00944617
Cu       5.44087680       1.29835123      19.02198558        2      -0.00414542      -0.00117769       0.12168532      -0.00006697       0.01059386       0.09914589      -0.09223930      -0.00069765      -0.00510091
Cu       1.81568724       3.86053202      19.05048233        2       0.00869876       0.00461926       0.12068397      -0.00274407       0.00796860       0.10373897      -0.01803009       0.04288303       0.04628081
Cu       5.42250394       3.87475999      19.02686844        2      -0.00485390       0.00227328       0.12622247       0.00262506       0.00803866       0.10361893       0.03199573       0.03829662       0.06532842
Cu       1.82040936       6.43824810      19.03849762        2       0.00022642      -0.00467098       0.12506322      -0.00140203       0.00420356       0.09839746      -0.01521683      -0.03602044       0.04257481
Cu       5.42971037       6.43507508      19.03349832        2      -0.00277127      -0.00561100       0.12471674       0.00142104       0.00423963       0.09835207       0.03632419      -0.02090293       0.09544827
Cu      -0.02170434      -0.02016876      20.26399972        1      -0.00757353      -0.00333847       0.19273952       0.00004000       0.00860619       0.14274682       0.02627178       0.13961837       0.19801174
Cu       3.62524377       0.02891892      20.22955649        1      -0.00014105      -0.00667609       0.14489235      -0.00002015       0.00252742       0.11837160       0.01358523      -0.00589445      -0.07197882
Cu      -0.04825545       2.69127930      20.22849371        1       0.00798269      -0.01426323       0.16123455      -0.00017140      -0.00533259       0.16685886       0.04561816      -0.06217979      -0.04688870
Cu       3.63373351       2.58306044      20.22909613        1      -0.00181597       0.00353664       0.14947097      -0.00008180       0.01320092       0.11930561      -0.03092142       0.02309758      -0.07873891
Cu      -0.00609857       5.18335887      20.20529194        1       0.00029323      -0.00610754       0.14540406      -0.00005270       0.00079805       0.12888788      -0.02221716      -0.01930602      -0.05210147
Cu       3.62256139       5.15821821      20.23104083        1      -0.00052421      -0.00284305       0.15258706      -0.00010797       0.00682300       0.11913722       0.00390853      -0.00946602      -0.03907589
O        0.58714553       7.90398877      23.05916237        0       0.07805480       0.03758204       0.09449096      -0.00041156      -0.01592458       0.01424090      -0.30327089       0.09935408       0.86407319
C        0.03246992       0.85893258      21.99701452        0       0.09625951      -0.04407698       0.08419956      -0.00007043       0.05269624       0.06192348       0.35759609      -0.23750410       0.73288983
H       -0.12962933       7.38749973      23.48532017        0      -0.09869735      -0.14287274      -0.01394761       0.00058760      -0.00686929      -0.00747315      -0.22984301       0.11207583      -1.22605311
O       -0.29024490       2.06301188      22.11145909        0       0.08968778       0.08360200       0.03975988      -0.00041770      -0.04038631       0.03143877       0.30663078      -0.15636836      -0.02464816
46
Lattice="7.26 0.0 0.0 0.0 7.700392847121503 0.0 0.0 0.0 30.391999999999996" Properties=species:S:1:pos:R:3:tags:I:1:MACE_forces:R:3:forces:R:3:DFT_forces:R:3 method=neb MACE_energy=-186.72634052616664 energy=-186.97781233356525 stress="0.006651952307557245 -3.2073154882963493e-07 1.4710622538436238e-06 -3.2073154882963493e-07 0.007771409437050713 -2.2644539661852852e-05 1.4710622538436238e-06 -2.2644539661852852e-05 0.002609307520851428" free_energy=-186.97781233356525 DFT_energy=-190.89768592 pbc="T T T"
Cu       0.00000000       0.00000000      12.59800000        7       0.00000000       0.00000000       0.00000000      -0.00000029       0.00006157       0.42267225       0.00331990      -0.00717074       0.64319415
Cu       3.63000000       0.00000000      12.59800000        7       0.00000000       0.00000000       0.00000000       0.00000011      -0.00011203       0.42221863      -0.00058373       0.01238550       0.63156742
Cu       0.00000000       2.56679762      12.59800000        7       0.00000000       0.00000000       0.00000000      -0.00000051      -0.00005019       0.42237447      -0.00279701       0.01294570       0.63549942
Cu       3.63000000       2.56679762      12.59800000        7       0.00000000       0.00000000       0.00000000       0.00000020      -0.00004698       0.42177359      -0.00475750      -0.00024102       0.63236781
Cu       0.00000000       5.13359523      12.59800000        7       0.00000000       0.00000000       0.00000000      -0.00000027      -0.00001481       0.42185505       0.00195793      -0.00987871       0.62375146
Cu       3.63000000       5.13359523      12.59800000        7       0.00000000       0.00000000       0.00000000       0.00000004       0.00015532       0.42177615       0.00139482      -0.01183978       0.63634343
Cu       1.81500000       1.28339881      13.89700000        6       0.00000000       0.00000000       0.00000000      -0.00022683       0.00009041      -0.15920623       0.02305184       0.00417412      -0.18708438
Cu       5.44500000       1.28339881      13.89700000        6       0.00000000       0.00000000       0.00000000       0.00022595       0.00008877      -0.15920394      -0.02161022       0.00650764      -0.18117274
Cu       1.81500000       3.85019642      13.89700000        6       0.00000000       0.00000000       0.00000000      -0.00038750      -0.00030452      -0.16005378       0.01635921      -0.01002694      -0.19266693
Cu       5.44500000       3.85019642      13.89700000        6       0.00000000       0.00000000       0.00000000       0.00038610      -0.00030302      -0.16005276      -0.01531312      -0.00005604      -0.19628953
Cu       1.81500000       6.41699404      13.89700000        6       0.00000000       0.00000000       0.00000000      -0.00003901       0.00026416      -0.16014005       0.00727464      -0.00055260      -0.17783223
Cu       5.44500000       6.41699404      13.89700000        6       0.00000000       0.00000000       0.00000000       0.00003923       0.00026450      -0.16014223      -0.01072188      -0.00588969      -0.17793885
Cu       0.00000000       0.00000000      15.19600000        5       0.00000000       0.00000000       0.00000000      -0.00000068       0.00071538      -0.06243817       0.00075246       0.00143712       0.00125822
Cu       3.63000000       0.00000000      15.19600000        5       0.00000000       0.00000000       0.00000000       0.00000471       0.00180197      -0.05752107      -0.00442170      -0.00095849       0.02107993
Cu       0.00000000       2.56679762      15.19600000        5       0.00000000       0.00000000       0.00000000      -0.00000066       0.00093842      -0.06215943      -0.00020453      -0.02141901       0.03634651
Cu       3.63000000       2.56679762      15.19600000        5       0.00000000       0.00000000       0.00000000       0.00000388      -0.00071459      -0.05546671      -0.00432444      -0.00578543       0.03392380
Cu       0.00000000       5.13359523      15.19600000        5       0.00000000       0.00000000       0.00000000       0.00000066      -0.00152757      -0.05922213       0.00138892       0.01555801       0.07712626
Cu       3.63000000       5.13359523      15.19600000        5       0.00000000       0.00000000       0.00000000       0.00000320      -0.00087843      -0.05661467      -0.00075624       0.00589628      -0.00412507
Cu       1.81500000       1.28339881      16.49500000        4       0.00000000       0.00000000       0.00000000       0.00102264       0.00278032      -0.11731386       0.00024285       0.01125815      -0.15204793
Cu       5.44500000       1.28339881      16.49500000        4       0.00000000       0.00000000       0.00000000      -0.00100309       0.00277903      -0.11721969       0.00461347       0.00482289      -0.21493153
Cu       1.81500000       3.85019642      16.49500000        4       0.00000000       0.00000000       0.00000000       0.00504832       0.00200166      -0.11189502      -0.00283362       0.00762039      -0.16760718
Cu       5.44500000       3.85019642      16.49500000        4       0.00000000       0.00000000       0.00000000      -0.00503772       0.00200438      -0.11178487       0.00049442       0.00865920      -0.20581493
Cu       1.81500000       6.41699404      16.49500000        4       0.00000000       0.00000000       0.00000000       0.00429298      -0.00129282      -0.12954447       0.01413911      -0.02887080      -0.16221690
Cu       5.44500000       6.41699404      16.49500000        4       0.00000000       0.00000000       0.00000000      -0.00428790      -0.00128103      -0.12964371      -0.01425461      -0.02843489      -0.17221120
Cu       0.00000000       0.00000000      17.79400000        3       0.00000000       0.00000000       0.00000000       0.00007122      -0.02952130      -0.28123294      -0.00280898      -0.00388928      -0.22594850
Cu       3.63000000       0.00000000      17.79400000        3       0.00000000       0.00000000       0.00000000       0.00014836       0.01744399      -0.37451516      -0.05776591       0.04122846      -0.43459931
Cu       0.00000000       2.56679762      17.79400000        3       0.00000000       0.00000000       0.00000000       0.00011479      -0.00645390      -0.22304873       0.00375124       0.03309382      -0.27661070
Cu       3.63000000       2.56679762      17.79400000        3       0.00000000       0.00000000       0.00000000       0.00021651      -0.01716088      -0.36156520      -0.05458603       0.03756531      -0.43274021
Cu       0.00000000       5.13359523      17.79400000        3       0.00000000       0.00000000       0.00000000       0.00007328      -0.00595957      -0.38055265       0.00535384       0.05165009      -0.42572858
Cu       3.63000000       5.13359523      17.79400000        3       0.00000000       0.00000000       0.00000000       0.00016078      -0.02756118      -0.38006320      -0.06528536       0.02411872      -0.49130097
Cu       1.79690117       1.30865652      19.05184216        2       0.00367595      -0.00475905       0.11514075       0.00004464       0.01060957       0.09923922       0.08932437      -0.01502307       0.00667448
Cu       5.44173414       1.30374516      19.02276539        2       0.00001357      -0.00253003       0.12611879      -0.00006697       0.01059386       0.09914589      -0.08723139      -0.00258925      -0.00566368
Cu       1.81966884       3.86741262      19.04643597        2       0.00888529       0.00619623       0.11998285      -0.00274407       0.00796860       0.10373897      -0.01873147       0.04725196       0.04134347
Cu       5.42122293       3.87958216      19.02667821        2      -0.00655727       0.00405751       0.12499635       0.00262506       0.00803866       0.10361893       0.02910790       0.04182599       0.05789028
Cu       1.81875782       6.44487831      19.04031603        2      -0.00002620      -0.00397579       0.12401590      -0.00140203       0.00420356       0.09839746      -0.02180713      -0.03090611       0.05511694
Cu       5.43057977       6.43959770      19.03290217        2      -0.00180122      -0.00255620       0.12607956       0.00142104       0.00423963       0.09835207       0.03357858      -0.02574259       0.09454515
Cu      -0.02899531      -0.00846042      20.27980966        1      -0.00088184      -0.00886038       0.21447743       0.00004000       0.00860619       0.14274682      -0.00353004       0.12311471       0.19909322
Cu       3.62764507       0.03235411      20.22950054        1      -0.00119386      -0.00366705       0.14512037      -0.00002015       0.00252742       0.11837160       0.00484214      -0.00312327      -0.06748631
Cu      -0.04054140       2.70897367      20.21595313        1       0.00649043      -0.01131417       0.15304363      -0.00017140      -0.00533259       0.16685886       0.05014662      -0.06223581      -0.04762501
Cu       3.63245221       2.58632590      20.22991896        1      -0.00140343       0.00600983       0.14758224      -0.00008180       0.01320092       0.11930561      -0.02630332       0.02496275      -0.08350170
Cu      -0.00505114       5.19747377      20.20602504        1      -0.00111158      -0.00896728       0.14450476      -0.00005270       0.00079805       0.12888788      -0.01916086      -0.01228514      -0.06328654
Cu       3.62272488       5.16295471      20.23151448        1      -0.00118648       0.00110556       0.15295377      -0.00010797       0.00682300       0.11913722       0.00350994      -0.00783796      -0.04104700
O        0.48070485       7.96007521      23.12959203        0      -0.09982628       0.11951920       0.18043484      -0.00041156      -0.01592458       0.01424090      -0.50883575       0.34212795       0.85268923
C        0.00700408       0.88589487      22.01714446        0       0.01636920      -0.00219816       0.11873598      -0.00007043       0.05269624       0.06192348       0.50637865      -0.16702242       0.71969206
H       -0.10122078       7.19078000      23.30812333        0       0.06108375      -0.27821832      -0.12422035       0.00058760      -0.00686929      -0.00747315      -0.35409263      -0.22578241      -0.90760726
O       -0.23583008       2.11308558      22.08883424        0       0.17260885       0.05666106       0.01763159      -0.00041770      -0.04038631       0.03143877       0.50173462      -0.17064331      -0.30441806
46
Lattice="7.26 0.0 0.0 0.0 7.700392847121503 0.0 0.0 0.0 30.391999999999996" Properties=species:S:1:pos:R:3:tags:I:1:MACE_forces:R:3:forces:R:3:DFT_forces:R:3 method=neb MACE_energy=-186.81489714515294 energy=-186.97781233356525 stress="0.006651952307557245 -3.2073154882963493e-07 1.4710622538436238e-06 -3.2073154882963493e-07 0.007771409437050713 -2.2644539661852852e-05 1.4710622538436238e-06 -2.2644539661852852e-05 0.002609307520851428" free_energy=-186.97781233356525 DFT_energy=-191.07401268 pbc="T T T"
Cu       0.00000000       0.00000000      12.59800000        7       0.00000000       0.00000000       0.00000000      -0.00000029       0.00006157       0.42267225       0.00269152      -0.00620179       0.64136976
Cu       3.63000000       0.00000000      12.59800000        7       0.00000000       0.00000000       0.00000000       0.00000011      -0.00011203       0.42221863      -0.00056905       0.01202430       0.62985088
Cu       0.00000000       2.56679762      12.59800000        7       0.00000000       0.00000000       0.00000000      -0.00000051      -0.00005019       0.42237447      -0.00282631       0.01166803       0.63344847
Cu       3.63000000       2.56679762      12.59800000        7       0.00000000       0.00000000       0.00000000       0.00000020      -0.00004698       0.42177359      -0.00325126      -0.00054005       0.63090860
Cu       0.00000000       5.13359523      12.59800000        7       0.00000000       0.00000000       0.00000000      -0.00000027      -0.00001481       0.42185505       0.00164734      -0.00931892       0.62139479
Cu       3.63000000       5.13359523      12.59800000        7       0.00000000       0.00000000       0.00000000       0.00000004       0.00015532       0.42177615       0.00045635      -0.01182788       0.63414895
Cu       1.81500000       1.28339881      13.89700000        6       0.00000000       0.00000000       0.00000000      -0.00022683       0.00009041      -0.15920623       0.02317117       0.00351161      -0.18695966
Cu       5.44500000       1.28339881      13.89700000        6       0.00000000       0.00000000       0.00000000       0.00022595       0.00008877      -0.15920394      -0.02223126       0.00639266      -0.18215806
Cu       1.81500000       3.85019642      13.89700000        6       0.00000000       0.00000000       0.00000000      -0.00038750      -0.00030452      -0.16005378       0.01686926      -0.00912071      -0.19151168
Cu       5.44500000       3.85019642      13.89700000        6       0.00000000       0.00000000       0.00000000       0.00038610      -0.00030302      -0.16005276      -0.01559307      -0.00108365      -0.19468202
Cu       1.81500000       6.41699404      13.89700000        6       0.00000000       0.00000000       0.00000000      -0.00003901       0.00026416      -0.16014005       0.00813115      -0.00082709      -0.17801710
Cu       5.44500000       6.41699404      13.89700000        6       0.00000000       0.00000000       0.00000000       0.00003923       0.00026450      -0.16014223      -0.01162795      -0.00513235      -0.17715572
Cu       0.00000000       0.00000000      15.19600000        5       0.00000000       0.00000000       0.00000000      -0.00000068       0.00071538      -0.06243817       0.00091328       0.00425076       0.00614746
Cu       3.63000000       0.00000000      15.19600000        5       0.00000000       0.00000000       0.00000000       0.00000471       0.00180197      -0.05752107      -0.00387099      -0.00096212       0.01974869
Cu       0.00000000       2.56679762      15.19600000        5       0.00000000       0.00000000       0.00000000      -0.00000066       0.00093842      -0.06215943      -0.00061588      -0.02401253       0.03851395
Cu       3.63000000       2.56679762      15.19600000        5       0.00000000       0.00000000       0.00000000       0.00000388      -0.00071459      -0.05546671      -0.00384137      -0.00610068       0.03326025
Cu       0.00000000       5.13359523      15.19600000        5       0.00000000       0.00000000       0.00000000       0.00000066      -0.00152757      -0.05922213       0.00110940       0.01499834       0.07651678
Cu       3.63000000       5.13359523      15.19600000        5       0.00000000       0.00000000       0.00000000       0.00000320      -0.00087843      -0.05661467      -0.00097864       0.00589368      -0.00441683
Cu       1.81500000       1.28339881      16.49500000        4       0.00000000       0.00000000       0.00000000       0.00102264       0.00278032      -0.11731386       0.00037002       0.00981292      -0.15800989
Cu       5.44500000       1.28339881      16.49500000        4       0.00000000       0.00000000       0.00000000      -0.00100309       0.00277903      -0.11721969       0.00247441       0.00467855      -0.21585768
Cu       1.81500000       3.85019642      16.49500000        4       0.00000000       0.00000000       0.00000000       0.00504832       0.00200166      -0.11189502      -0.00357532       0.00791293      -0.17130707
Cu       5.44500000       3.85019642      16.49500000        4       0.00000000       0.00000000       0.00000000      -0.00503772       0.00200438      -0.11178487      -0.00108545       0.00853056      -0.20431086
Cu       1.81500000       6.41699404      16.49500000        4       0.00000000       0.00000000       0.00000000       0.00429298      -0.00129282      -0.12954447       0.01335529      -0.02865013      -0.16003864
Cu       5.44500000       6.41699404      16.49500000        4       0.00000000       0.00000000       0.00000000      -0.00428790      -0.00128103      -0.12964371      -0.01290496      -0.02897105      -0.17220113
Cu       0.00000000       0.00000000      17.79400000        3       0.00000000       0.00000000       0.00000000       0.00007122      -0.02952130      -0.28123294      -0.00398445       0.00455199      -0.18461905
Cu       3.63000000       0.00000000      17.79400000        3       0.00000000       0.00000000       0.00000000       0.00014836       0.01744399      -0.37451516      -0.05322096       0.04218197      -0.43378571
Cu       0.00000000       2.56679762      17.79400000        3       0.00000000       0.00000000       0.00000000       0.00011479      -0.00645390      -0.22304873       0.00045615       0.03336227      -0.28647957
Cu       3.63000000       2.56679762      17.79400000        3       0.00000000       0.00000000       0.00000000       0.00021651      -0.01716088      -0.36156520      -0.05256724       0.03727364      -0.43026981
Cu       0.00000000       5.13359523      17.79400000        3       0.00000000       0.00000000       0.00000000       0.00007328      -0.00595957      -0.38055265       0.00302375       0.04995228      -0.42411133
Cu       3.63000000       5.13359523      17.79400000        3       0.00000000       0.00000000       0.00000000       0.00016078      -0.02756118      -0.38006320      -0.06103275       0.03387746      -0.49053460
Cu       1.79708785       1.30891310      19.05019349        2       0.00284590      -0.00643904       0.11425324       0.00004464       0.01060957       0.09923922       0.08869206      -0.01900471       0.00185205
Cu       5.44359067       1.30548845      19.02387448        2       0.00291335      -0.00409233       0.13358682      -0.00006697       0.01059386       0.09914589      -0.08493392      -0.00532407      -0.00080948
Cu       1.82081120       3.87035411      19.04405234        2       0.01363252       0.00631588       0.11889658      -0.00274407       0.00796860       0.10373897      -0.01146189       0.04839725       0.03832464
Cu       5.42044655       3.88124232      19.02767543        2      -0.00494186       0.00249850       0.12303295       0.00262506       0.00803866       0.10361893       0.03004412       0.04046577       0.05220067
Cu       1.81736593       6.44725804      19.04090194        2       0.00053495      -0.00455626       0.12396766      -0.00140203       0.00420356       0.09839746      -0.02402552      -0.03054722       0.06474928
Cu       5.43160718       6.44194190      19.03314088        2       0.00050157      -0.00177248       0.12784255       0.00142104       0.00423963       0.09835207       0.03528859      -0.02698680       0.09358767
Cu      -0.02909834      -0.00693701      20.29354049        1       0.00132726      -0.01232304       0.20530439       0.00004000       0.00860619       0.14274682      -0.01330957       0.11335098       0.16652652
Cu       3.62869250       0.03318272      20.22908591        1      -0.00242755      -0.00147366       0.14549920      -0.00002015       0.00252742       0.11837160       0.00079192       0.00031090      -0.06370134
Cu      -0.03697924       2.71536566      20.21046419        1       0.01250204      -0.02102621       0.16266569      -0.00017140      -0.00533259       0.16685886       0.05389406      -0.07145682      -0.02927962
Cu       3.63146536       2.58721283      20.23009592        1      -0.00118188       0.00627481       0.14583105      -0.00008180       0.01320092       0.11930561      -0.01865732       0.02384163      -0.08484866
Cu      -0.00581423       5.20130732      20.20702846        1       0.00022389      -0.00662202       0.14403141      -0.00005270       0.00079805       0.12888788      -0.01299494      -0.00260100      -0.06718344
Cu       3.62212802       5.16485747      20.23129370        1       0.00015841       0.00219892       0.15412093      -0.00010797       0.00682300       0.11913722       0.00596875      -0.00734718      -0.04022972
O        0.38131407       7.97782886      23.18112632        0      -0.22231328       0.05035475       0.16014989      -0.00041156      -0.01592458       0.01424090      -0.56772502       0.16231213       0.67367043
C        0.00169654       0.88977259      22.03302813        0      -0.00642527       0.10304488       0.10186785      -0.00007043       0.05269624       0.06192348       0.41770327      -0.17212630       0.72008347
H       -0.04488097       7.09297353      23.21914723        0       0.16509112      -0.22279154      -0.13862991       0.00058760      -0.00686929      -0.00747315      -0.24834610      -0.30122524      -0.72697812
O       -0.17019718       2.13218710      22.08051853        0       0.18763434      -0.03463740       0.04651436      -0.00041770      -0.04038631       0.03143877       0.52817932       0.08981568      -0.31684653
46
Lattice="7.26 0.0 0.0 0.0 7.700392847121503 0.0 0.0 0.0 30.391999999999996" Properties=species:S:1:pos:R:3:tags:I:1:MACE_forces:R:3:forces:R:3:DFT_forces:R:3 method=neb MACE_energy=-186.87774888247844 energy=-186.97781233356525 stress="0.006651952307557245 -3.2073154882963493e-07 1.4710622538436238e-06 -3.2073154882963493e-07 0.007771409437050713 -2.2644539661852852e-05 1.4710622538436238e-06 -2.2644539661852852e-05 0.002609307520851428" free_energy=-186.97781233356525 DFT_energy=-191.17982883 pbc="T T T"
Cu       0.00000000       0.00000000      12.59800000        7       0.00000000       0.00000000       0.00000000      -0.00000029       0.00006157       0.42267225       0.00158373      -0.00525233       0.64142447
Cu       3.63000000       0.00000000      12.59800000        7       0.00000000       0.00000000       0.00000000       0.00000011      -0.00011203       0.42221863      -0.00071270       0.01320570       0.63144749
Cu       0.00000000       2.56679762      12.59800000        7       0.00000000       0.00000000       0.00000000      -0.00000051      -0.00005019       0.42237447      -0.00280658       0.01216929       0.63323492
Cu       3.63000000       2.56679762      12.59800000        7       0.00000000       0.00000000       0.00000000       0.00000020      -0.00004698       0.42177359      -0.00213953       0.00064689       0.63139739
Cu       0.00000000       5.13359523      12.59800000        7       0.00000000       0.00000000       0.00000000      -0.00000027      -0.00001481       0.42185505       0.00090360      -0.00936008       0.62170096
Cu       3.63000000       5.13359523      12.59800000        7       0.00000000       0.00000000       0.00000000       0.00000004       0.00015532       0.42177615      -0.00053042      -0.01311711       0.63530946
Cu       1.81500000       1.28339881      13.89700000        6       0.00000000       0.00000000       0.00000000      -0.00022683       0.00009041      -0.15920623       0.02258509       0.00366146      -0.18669251
Cu       5.44500000       1.28339881      13.89700000        6       0.00000000       0.00000000       0.00000000       0.00022595       0.00008877      -0.15920394      -0.02309302       0.00672076      -0.18307161
Cu       1.81500000       3.85019642      13.89700000        6       0.00000000       0.00000000       0.00000000      -0.00038750      -0.00030452      -0.16005378       0.01683318      -0.00810142      -0.19191839
Cu       5.44500000       3.85019642      13.89700000        6       0.00000000       0.00000000       0.00000000       0.00038610      -0.00030302      -0.16005276      -0.01639497      -0.00104026      -0.19413682
Cu       1.81500000       6.41699404      13.89700000        6       0.00000000       0.00000000       0.00000000      -0.00003901       0.00026416      -0.16014005       0.00813391      -0.00107212      -0.17824945
Cu       5.44500000       6.41699404      13.89700000        6       0.00000000       0.00000000       0.00000000       0.00003923       0.00026450      -0.16014223      -0.01172077      -0.00435265      -0.17663402
Cu       0.00000000       0.00000000      15.19600000        5       0.00000000       0.00000000       0.00000000      -0.00000068       0.00071538      -0.06243817       0.00076266       0.00363030       0.00539131
Cu       3.63000000       0.00000000      15.19600000        5       0.00000000       0.00000000       0.00000000       0.00000471       0.00180197      -0.05752107      -0.00347321      -0.00050902       0.01767305
Cu       0.00000000       2.56679762      15.19600000        5       0.00000000       0.00000000       0.00000000      -0.00000066       0.00093842      -0.06215943      -0.00088196      -0.02432921       0.03854618
Cu       3.63000000       2.56679762      15.19600000        5       0.00000000       0.00000000       0.00000000       0.00000388      -0.00071459      -0.05546671      -0.00311584      -0.00528665       0.03462699
Cu       0.00000000       5.13359523      15.19600000        5       0.00000000       0.00000000       0.00000000       0.00000066      -0.00152757      -0.05922213       0.00043369       0.01655300       0.07491110
Cu       3.63000000       5.13359523      15.19600000        5       0.00000000       0.00000000       0.00000000       0.00000320      -0.00087843      -0.05661467      -0.00107720       0.00583724      -0.00466638
Cu       1.81500000       1.28339881      16.49500000        4       0.00000000       0.00000000       0.00000000       0.00102264       0.00278032      -0.11731386       0.00013488       0.00832899      -0.16306327
Cu       5.44500000       1.28339881      16.49500000        4       0.00000000       0.00000000       0.00000000      -0.00100309       0.00277903      -0.11721969       0.00149181       0.00475872      -0.20719979
Cu       1.81500000       3.85019642      16.49500000        4       0.00000000       0.00000000       0.00000000       0.00504832       0.00200166      -0.11189502      -0.00477712       0.00786240      -0.17541870
Cu       5.44500000       3.85019642      16.49500000        4       0.00000000       0.00000000       0.00000000      -0.00503772       0.00200438      -0.11178487      -0.00127789       0.00849407      -0.20065746
Cu       1.81500000       6.41699404      16.49500000        4       0.00000000       0.00000000       0.00000000       0.00429298      -0.00129282      -0.12954447       0.01336827      -0.02710509      -0.15877728
Cu       5.44500000       6.41699404      16.49500000        4       0.00000000       0.00000000       0.00000000      -0.00428790      -0.00128103      -0.12964371      -0.01337274      -0.02966241      -0.16969831
Cu       0.00000000       0.00000000      17.79400000        3       0.00000000       0.00000000       0.00000000       0.00007122      -0.02952130      -0.28123294      -0.00662970       0.00932240      -0.19261220
Cu       3.63000000       0.00000000      17.79400000        3       0.00000000       0.00000000       0.00000000       0.00014836       0.01744399      -0.37451516      -0.04298003       0.04719321      -0.43360899
Cu       0.00000000       2.56679762      17.79400000        3       0.00000000       0.00000000       0.00000000       0.00011479      -0.00645390      -0.22304873      -0.00066057       0.03725650      -0.28078205
Cu       3.63000000       2.56679762      17.79400000        3       0.00000000       0.00000000       0.00000000       0.00021651      -0.01716088      -0.36156520      -0.04202099       0.04047438      -0.43011570
Cu       0.00000000       5.13359523      17.79400000        3       0.00000000       0.00000000       0.00000000       0.00007328      -0.00595957      -0.38055265       0.00280738       0.05400133      -0.42422870
Cu       3.63000000       5.13359523      17.79400000        3       0.00000000       0.00000000       0.00000000       0.00016078      -0.02756118      -0.38006320      -0.04676985       0.04095458      -0.48974122
Cu       1.79884915       1.31116488      19.04741595        2       0.00505332      -0.00290180       0.11564150       0.00004464       0.01060957       0.09923922       0.09540563      -0.01268844      -0.00169801
Cu       5.44485066       1.30981039      19.02799578        2       0.00130989      -0.00104182       0.12700229      -0.00006697       0.01059386       0.09914589      -0.08912874      -0.00437901      -0.00846425
Cu       1.82446390       3.87524300      19.04136620        2       0.00643002       0.00616680       0.12123422      -0.00274407       0.00796860       0.10373897      -0.02127551       0.04604053       0.04153342
Cu       5.42275404       3.88296498      19.02929859        2      -0.00487018       0.00345195       0.12638604       0.00262506       0.00803866       0.10361893       0.03059102       0.03983386       0.05589991
Cu       1.81781890       6.45030404      19.04086539        2       0.00217458      -0.00436761       0.12296945      -0.00140203       0.00420356       0.09839746      -0.02506581      -0.03051842       0.07013694
Cu       5.43235845       6.44512649      19.03396251        2      -0.00135197      -0.00184216       0.12520379       0.00142104       0.00423963       0.09835207       0.03485021      -0.02775169       0.09034955
Cu      -0.02875077       0.00430156      20.29117712        1       0.00744348      -0.00919314       0.19128527       0.00004000       0.00860619       0.14274682      -0.00557272       0.11665694       0.14913850
Cu       3.62790205       0.03815486      20.22922016        1       0.00206031      -0.00462363       0.14493041      -0.00002015       0.00252742       0.11837160       0.00655537      -0.00585553      -0.06362138
Cu      -0.02650020       2.72248071      20.21028831        1       0.00646701      -0.01512362       0.16895954      -0.00017140      -0.00533259       0.16685886       0.04477905      -0.07231562       0.01020741
Cu       3.63082008       2.59223404      20.23039843        1      -0.00198902       0.00501370       0.14687374      -0.00008180       0.01320092       0.11930561      -0.01482383       0.01770937      -0.08673044
Cu      -0.00361640       5.20903620      20.20794464        1      -0.00297514      -0.00559493       0.14607301      -0.00005270       0.00079805       0.12888788      -0.01495451      -0.00409698      -0.07456439
Cu       3.62429992       5.17017501      20.23176250        1      -0.00174098      -0.00046098       0.15301829      -0.00010797       0.00682300       0.11913722       0.00121155      -0.01397529      -0.04166819
O        0.28548206       7.95983988      23.18470765        0      -0.23040955       0.00868980       0.12660950      -0.00041156      -0.01592458       0.01424090      -0.46174766       0.00750446       0.54877397
C       -0.00214518       0.90219024      22.03045289        0       0.01445398      -0.01907977       0.08672339      -0.00007043       0.05269624       0.06192348       0.28471695      -0.02782078       0.67858552
H       -0.01344039       7.02441570      23.11374471        0       0.17279428      -0.15281008      -0.09823432       0.00058760      -0.00686929      -0.00747315      -0.13844227      -0.52077876      -0.64910995
O       -0.11951996       2.14752513      22.09219754        0       0.14451095       0.03003075       0.05910561      -0.00041770      -0.04038631       0.03143877       0.42829812       0.30055251      -0.24315906
46
Lattice="7.26 0.0 0.0 0.0 7.700392847121503 0.0 0.0 0.0 30.391999999999996" Properties=species:S:1:pos:R:3:tags:I:1:MACE_forces:R:3:forces:R:3:DFT_forces:R:3 method=neb MACE_energy=-186.9005446450374 energy=-186.97781233356525 stress="0.006651952307557245 -3.2073154882963493e-07 1.4710622538436238e-06 -3.2073154882963493e-07 0.007771409437050713 -2.2644539661852852e-05 1.4710622538436238e-06 -2.2644539661852852e-05 0.002609307520851428" free_energy=-186.97781233356525 DFT_energy=-191.22090598 pbc="T T T"
Cu       0.00000000       0.00000000      12.59800000        7       0.00000000       0.00000000       0.00000000      -0.00000029       0.00006157       0.42267225       0.00107359      -0.00431887       0.64320250
Cu       3.63000000       0.00000000      12.59800000        7       0.00000000       0.00000000       0.00000000       0.00000011      -0.00011203       0.42221863      -0.00036625       0.01637820       0.63422503
Cu       0.00000000       2.56679762      12.59800000        7       0.00000000       0.00000000       0.00000000      -0.00000051      -0.00005019       0.42237447      -0.00254735       0.01464437       0.63442187
Cu       3.63000000       2.56679762      12.59800000        7       0.00000000       0.00000000       0.00000000       0.00000020      -0.00004698       0.42177359      -0.00132197       0.00259429       0.63310841
Cu       0.00000000       5.13359523      12.59800000        7       0.00000000       0.00000000       0.00000000      -0.00000027      -0.00001481       0.42185505       0.00077425      -0.00827285       0.62367592
Cu       3.63000000       5.13359523      12.59800000        7       0.00000000       0.00000000       0.00000000       0.00000004       0.00015532       0.42177615      -0.00044100      -0.01447095       0.63816013
Cu       1.81500000       1.28339881      13.89700000        6       0.00000000       0.00000000       0.00000000      -0.00022683       0.00009041      -0.15920623       0.02263960       0.00470946      -0.18604574
Cu       5.44500000       1.28339881      13.89700000        6       0.00000000       0.00000000       0.00000000       0.00022595       0.00008877      -0.15920394      -0.02343430       0.00794697      -0.18382623
Cu       1.81500000       3.85019642      13.89700000        6       0.00000000       0.00000000       0.00000000      -0.00038750      -0.00030452      -0.16005378       0.01725847      -0.00623072      -0.19251109
Cu       5.44500000       3.85019642      13.89700000        6       0.00000000       0.00000000       0.00000000       0.00038610      -0.00030302      -0.16005276      -0.01616703       0.00029947      -0.19473172
Cu       1.81500000       6.41699404      13.89700000        6       0.00000000       0.00000000       0.00000000      -0.00003901       0.00026416      -0.16014005       0.00844249      -0.00044122      -0.17822651
Cu       5.44500000       6.41699404      13.89700000        6       0.00000000       0.00000000       0.00000000       0.00003923       0.00026450      -0.16014223      -0.01060855      -0.00266050      -0.17626704
Cu       0.00000000       0.00000000      15.19600000        5       0.00000000       0.00000000       0.00000000      -0.00000068       0.00071538      -0.06243817       0.00095935       0.00147058       0.00213370
Cu       3.63000000       0.00000000      15.19600000        5       0.00000000       0.00000000       0.00000000       0.00000471       0.00180197      -0.05752107      -0.00374447       0.00033171       0.01590633
Cu       0.00000000       2.56679762      15.19600000        5       0.00000000       0.00000000       0.00000000      -0.00000066       0.00093842      -0.06215943      -0.00038803      -0.02203551       0.03589399
Cu       3.63000000       2.56679762      15.19600000        5       0.00000000       0.00000000       0.00000000       0.00000388      -0.00071459      -0.05546671      -0.00325758      -0.00301327       0.03763296
Cu       0.00000000       5.13359523      15.19600000        5       0.00000000       0.00000000       0.00000000       0.00000066      -0.00152757      -0.05922213       0.00029431       0.01878788       0.07462076
Cu       3.63000000       5.13359523      15.19600000        5       0.00000000       0.00000000       0.00000000       0.00000320      -0.00087843      -0.05661467      -0.00120101       0.00662197      -0.00614889
Cu       1.81500000       1.28339881      16.49500000        4       0.00000000       0.00000000       0.00000000       0.00102264       0.00278032      -0.11731386      -0.00028460       0.00659663      -0.15316085
Cu       5.44500000       1.28339881      16.49500000        4       0.00000000       0.00000000       0.00000000      -0.00100309       0.00277903      -0.11721969       0.00225354       0.00371864      -0.21418388
Cu       1.81500000       3.85019642      16.49500000        4       0.00000000       0.00000000       0.00000000       0.00504832       0.00200166      -0.11189502      -0.00496117       0.00760296      -0.17632677
Cu       5.44500000       3.85019642      16.49500000        4       0.00000000       0.00000000       0.00000000      -0.00503772       0.00200438      -0.11178487      -0.00114127       0.00748517      -0.20361040
Cu       1.81500000       6.41699404      16.49500000        4       0.00000000       0.00000000       0.00000000       0.00429298      -0.00129282      -0.12954447       0.01279045      -0.02601840      -0.15247988
Cu       5.44500000       6.41699404      16.49500000        4       0.00000000       0.00000000       0.00000000      -0.00428790      -0.00128103      -0.12964371      -0.01355907      -0.03142062      -0.18072503
Cu       0.00000000       0.00000000      17.79400000        3       0.00000000       0.00000000       0.00000000       0.00007122      -0.02952130      -0.28123294      -0.00950616       0.02803993      -0.23565187
Cu       3.63000000       0.00000000      17.79400000        3       0.00000000       0.00000000       0.00000000       0.00014836       0.01744399      -0.37451516      -0.06277458       0.07708069      -0.44474428
Cu       0.00000000       2.56679762      17.79400000        3       0.00000000       0.00000000       0.00000000       0.00011479      -0.00645390      -0.22304873      -0.00094944       0.06063601      -0.27190403
Cu       3.63000000       2.56679762      17.79400000        3       0.00000000       0.00000000       0.00000000       0.00021651      -0.01716088      -0.36156520      -0.06714804       0.06805638      -0.43473605
Cu       0.00000000       5.13359523      17.79400000        3       0.00000000       0.00000000       0.00000000       0.00007328      -0.00595957      -0.38055265      -0.00026615       0.06660478      -0.41256831
Cu       3.63000000       5.13359523      17.79400000        3       0.00000000       0.00000000       0.00000000       0.00016078      -0.02756118      -0.38006320      -0.06905767       0.07046688      -0.50120577
Cu       1.79750093       1.32534965      19.05167478        2       0.01085075      -0.00302634       0.10543624       0.00004464       0.01060957       0.09923922       0.10608306      -0.01722452      -0.01844472
Cu       5.43941366       1.32899855      19.02358979        2       0.00688036      -0.00931196       0.13569653      -0.00006697       0.01059386       0.09914589      -0.08047750      -0.02591154      -0.00047374
Cu       1.82257901       3.89069336      19.03984671        2       0.00967910       0.00218102       0.12618978      -0.00274407       0.00796860       0.10373897      -0.01791547       0.03393393       0.04840198
Cu       5.41716504       3.89859153      19.02708051        2       0.00327017      -0.00168358       0.13061522       0.00262506       0.00803866       0.10361893       0.03342617       0.03292291       0.05971845
Cu       1.81656043       6.46586793      19.04355469        2       0.00695327      -0.01159428       0.11700975      -0.00140203       0.00420356       0.09839746      -0.01792332      -0.04101016       0.07190889
Cu       5.42702592       6.45764879      19.02867837        2       0.00221493      -0.00395931       0.13200482       0.00142104       0.00423963       0.09835207       0.04158705      -0.03121503       0.09884519
Cu      -0.04320053       0.05150946      20.27310731        1       0.03390387      -0.03546192       0.19261107       0.00004000       0.00860619       0.14274682       0.02039685       0.08077560       0.16262665
Cu       3.63217743       0.04503809      20.22911485        1      -0.00674163       0.01265318       0.14786418      -0.00002015       0.00252742       0.11837160      -0.00810758       0.01225062      -0.06110581
Cu      -0.03105983       2.76838253      20.21043103        1       0.01831555      -0.04974081       0.17312917      -0.00017140      -0.00533259       0.16685886       0.05052512      -0.12055135       0.04584050
Cu       3.62627800       2.59968639      20.23173235        1       0.00545619       0.02373072       0.14598556      -0.00008180       0.01320092       0.11930561      -0.00591004       0.03638553      -0.09068787
Cu      -0.01119901       5.25353894      20.21012116        1       0.00745858      -0.03526626       0.14344603      -0.00005270       0.00079805       0.12888788       0.00280663      -0.05722888      -0.09580793
Cu       3.61984290       5.17796475      20.23293880        1       0.00615227       0.01237209       0.15228895      -0.00010797       0.00682300       0.11913722       0.01241219      -0.00244980      -0.04277797
O        0.18232232       7.96635140      23.15872720        0      -0.18543734      -0.03037177       0.07981658      -0.00041156      -0.01592458       0.01424090      -0.31491660      -0.12330846       0.46680704
C       -0.03077961       0.94499426      22.01188438        0       0.02687863      -0.02388068       0.10659345      -0.00007043       0.05269624       0.06192348       0.18318217      -0.03778915       0.64510550
H        0.01514868       7.00659418      23.00164723        0       0.13394044      -0.08774328      -0.03994873       0.00058760      -0.00686929      -0.00747315      -0.05641017      -0.56272981      -0.61447560
O       -0.12497631       2.19018279      22.09975443        0       0.10731462      -0.02146142       0.06146726      -0.00041770      -0.04038631       0.03143877       0.27788109       0.47196005      -0.14940782
46
Lattice="7.26 0.0 0.0 0.0 7.700392847121503 0.0 0.0 0.0 30.391999999999996" Properties=species:S:1:pos:R:3:tags:I:1:MACE_forces:R:3:forces:R:3:DFT_forces:R:3 method=neb MACE_energy=-186.92696004505873 energy=-186.97781233356525 stress="0.006651952307557245 -3.2073154882963493e-07 1.4710622538436238e-06 -3.2073154882963493e-07 0.007771409437050713 -2.2644539661852852e-05 1.4710622538436238e-06 -2.2644539661852852e-05 0.002609307520851428" free_energy=-186.97781233356525 DFT_energy=-191.25903064 pbc="T T T"
Cu       0.00000000       0.00000000      12.59800000        7       0.00000000       0.00000000       0.00000000      -0.00000029       0.00006157       0.42267225       0.00031472      -0.00397554       0.64303651
Cu       3.63000000       0.00000000      12.59800000        7       0.00000000       0.00000000       0.00000000       0.00000011      -0.00011203       0.42221863      -0.00038741       0.01612477       0.63414291
Cu       0.00000000       2.56679762      12.59800000        7       0.00000000       0.00000000       0.00000000      -0.00000051      -0.00005019       0.42237447      -0.00289282       0.01409383       0.63388440
Cu       3.63000000       2.56679762      12.59800000        7       0.00000000       0.00000000       0.00000000       0.00000020      -0.00004698       0.42177359      -0.00082336       0.00225133       0.63332313
Cu       0.00000000       5.13359523      12.59800000        7       0.00000000       0.00000000       0.00000000      -0.00000027      -0.00001481       0.42185505       0.00143098      -0.00884186       0.62340409
Cu       3.63000000       5.13359523      12.59800000        7       0.00000000       0.00000000       0.00000000       0.00000004       0.00015532       0.42177615      -0.00064735      -0.01489200       0.63792055
Cu       1.81500000       1.28339881      13.89700000        6       0.00000000       0.00000000       0.00000000      -0.00022683       0.00009041      -0.15920623       0.02233011       0.00469766      -0.18532737
Cu       5.44500000       1.28339881      13.89700000        6       0.00000000       0.00000000       0.00000000       0.00022595       0.00008877      -0.15920394      -0.02394102       0.00738294      -0.18457035
Cu       1.81500000       3.85019642      13.89700000        6       0.00000000       0.00000000       0.00000000      -0.00038750      -0.00030452      -0.16005378       0.01668105      -0.00649432      -0.19281948
Cu       5.44500000       3.85019642      13.89700000        6       0.00000000       0.00000000       0.00000000       0.00038610      -0.00030302      -0.16005276      -0.01717867      -0.00012038      -0.19400912
Cu       1.81500000       6.41699404      13.89700000        6       0.00000000       0.00000000       0.00000000      -0.00003901       0.00026416      -0.16014005       0.00853717      -0.00112639      -0.17788023
Cu       5.44500000       6.41699404      13.89700000        6       0.00000000       0.00000000       0.00000000       0.00003923       0.00026450      -0.16014223      -0.01073204      -0.00245524      -0.17619382
Cu       0.00000000       0.00000000      15.19600000        5       0.00000000       0.00000000       0.00000000      -0.00000068       0.00071538      -0.06243817      -0.00001588       0.00148484       0.00225068
Cu       3.63000000       0.00000000      15.19600000        5       0.00000000       0.00000000       0.00000000       0.00000471       0.00180197      -0.05752107      -0.00403960       0.00032712       0.01558316
Cu       0.00000000       2.56679762      15.19600000        5       0.00000000       0.00000000       0.00000000      -0.00000066       0.00093842      -0.06215943      -0.00033993      -0.02289322       0.03638350
Cu       3.63000000       2.56679762      15.19600000        5       0.00000000       0.00000000       0.00000000       0.00000388      -0.00071459      -0.05546671      -0.00295475      -0.00314182       0.03768040
Cu       0.00000000       5.13359523      15.19600000        5       0.00000000       0.00000000       0.00000000       0.00000066      -0.00152757      -0.05922213      -0.00010554       0.01874455       0.07385298
Cu       3.63000000       5.13359523      15.19600000        5       0.00000000       0.00000000       0.00000000       0.00000320      -0.00087843      -0.05661467       0.00010776       0.00614423      -0.00600008
Cu       1.81500000       1.28339881      16.49500000        4       0.00000000       0.00000000       0.00000000       0.00102264       0.00278032      -0.11731386       0.00096648       0.00572409      -0.16068297
Cu       5.44500000       1.28339881      16.49500000        4       0.00000000       0.00000000       0.00000000      -0.00100309       0.00277903      -0.11721969       0.00262822       0.00468300      -0.20673044
Cu       1.81500000       3.85019642      16.49500000        4       0.00000000       0.00000000       0.00000000       0.00504832       0.00200166      -0.11189502      -0.00416388       0.00780432      -0.17806263
Cu       5.44500000       3.85019642      16.49500000        4       0.00000000       0.00000000       0.00000000      -0.00503772       0.00200438      -0.11178487       0.00058146       0.00677222      -0.19964483
Cu       1.81500000       6.41699404      16.49500000        4       0.00000000       0.00000000       0.00000000       0.00429298      -0.00129282      -0.12954447       0.01357356      -0.02572143      -0.15672234
Cu       5.44500000       6.41699404      16.49500000        4       0.00000000       0.00000000       0.00000000      -0.00428790      -0.00128103      -0.12964371      -0.01345260      -0.03166854      -0.17649368
Cu       0.00000000       0.00000000      17.79400000        3       0.00000000       0.00000000       0.00000000       0.00007122      -0.02952130      -0.28123294      -0.00361940       0.02694013      -0.23000649
Cu       3.63000000       0.00000000      17.79400000        3       0.00000000       0.00000000       0.00000000       0.00014836       0.01744399      -0.37451516      -0.04375549       0.07475257      -0.44030094
Cu       0.00000000       2.56679762      17.79400000        3       0.00000000       0.00000000       0.00000000       0.00011479      -0.00645390      -0.22304873       0.00347130       0.05954867      -0.26534561
Cu       3.63000000       2.56679762      17.79400000        3       0.00000000       0.00000000       0.00000000       0.00021651      -0.01716088      -0.36156520      -0.04434970       0.06398785      -0.43595174
Cu       0.00000000       5.13359523      17.79400000        3       0.00000000       0.00000000       0.00000000       0.00007328      -0.00595957      -0.38055265       0.00201381       0.06293039      -0.40798177
Cu       3.63000000       5.13359523      17.79400000        3       0.00000000       0.00000000       0.00000000       0.00016078      -0.02756118      -0.38006320      -0.04819191       0.06881543      -0.50006357
Cu       1.79993116       1.32466058      19.04799275        2       0.01228041      -0.00534591       0.11226221       0.00004464       0.01060957       0.09923922       0.10915367      -0.01955765      -0.01288492
Cu       5.44404639       1.32608473      19.02687374        2       0.00507350      -0.01085414       0.13486923      -0.00006697       0.01059386       0.09914589      -0.08548832      -0.02618130       0.00177278
Cu       1.82639594       3.89042578      19.03882245        2      -0.00095362      -0.00117097       0.12695341      -0.00274407       0.00796860       0.10373897      -0.03440147       0.02797585       0.05075753
Cu       5.42138330       3.89622761      19.02874479        2       0.00676831      -0.00494088       0.13032446       0.00262506       0.00803866       0.10361893       0.03763058       0.02855290       0.05905099
Cu       1.81824460       6.46334333      19.04099036        2       0.01393792      -0.01071346       0.12061131      -0.00140203       0.00420356       0.09839746      -0.01295759      -0.04162168       0.07831938
Cu       5.43102310       6.45683190      19.03049795        2      -0.00557612      -0.00347592       0.13142891       0.00142104       0.00423963       0.09835207       0.03271789      -0.03111869       0.09850471
Cu      -0.02847682       0.04713446      20.27730109        1       0.03270833      -0.02812955       0.15835254       0.00004000       0.00860619       0.14274682       0.03449728       0.09036565       0.12414006
Cu       3.63180146       0.04051875      20.22938687        1      -0.00344926       0.01416307       0.14269819      -0.00002015       0.00252742       0.11837160      -0.00747076       0.01684630      -0.06735230
Cu      -0.01970656       2.76562268      20.21261287        1       0.00716449      -0.05003493       0.18232634      -0.00017140      -0.00533259       0.16685886       0.03946976      -0.12279997       0.06767255
Cu       3.62949884       2.59528769      20.23031556        1       0.00210797       0.02382972       0.15095304      -0.00008180       0.01320092       0.11930561      -0.01346492       0.03948201      -0.08449751
Cu      -0.00601147       5.25350276      20.21265616        1       0.00272355      -0.05168275       0.13963587      -0.00005270       0.00079805       0.12888788      -0.00119106      -0.07865254      -0.10404225
Cu       3.62406835       5.17218039      20.23221241        1       0.00318831       0.02445187       0.15490219      -0.00010797       0.00682300       0.11913722       0.00424147       0.01456390      -0.03919905
O        0.03831066       7.94906194      23.17158516        0      -0.06404632      -0.05538855       0.02500867      -0.00041156      -0.01592458       0.01424090      -0.08121750      -0.17947419       0.37556822
C       -0.05691140       0.93661486      22.01524550        0       0.02603630       0.00507507       0.12505620      -0.00007043       0.05269624       0.06192348       0.04910392      -0.03845979       0.61597301
H        0.03575122       6.98066179      22.97635128        0       0.03322559      -0.04644156      -0.00765293       0.00058760      -0.00686929      -0.00747315       0.04035076      -0.56918792      -0.56522510
O       -0.12625103       2.18350386      22.10437811        0       0.05004657      -0.05431493       0.06072062      -0.00041770      -0.04038631       0.03143877       0.03798104       0.55738794      -0.09523291
46
Lattice="7.26 0.0 0.0 0.0 7.700392847121503 0.0 0.0 0.0 30.391999999999996" Properties=species:S:1:pos:R:3:tags:I:1:MACE_forces:R:3:forces:R:3:DFT_forces:R:3 method=neb MACE_energy=-186.9500299763721 energy=-186.97781233356525 stress="0.006651952307557245 -3.2073154882963493e-07 1.4710622538436238e-06 -3.2073154882963493e-07 0.007771409437050713 -2.2644539661852852e-05 1.4710622538436238e-06 -2.2644539661852852e-05 0.002609307520851428" free_energy=-186.97781233356525 DFT_energy=-191.28331339 pbc="T T T"
Cu       0.00000000       0.00000000      12.59800000        7       0.00000000       0.00000000       0.00000000      -0.00000029       0.00006157       0.42267225      -0.00022731      -0.00445480       0.64338813
Cu       3.63000000       0.00000000      12.59800000        7       0.00000000       0.00000000       0.00000000       0.00000011      -0.00011203       0.42221863      -0.00005904       0.01227562       0.63504574
Cu       0.00000000       2.56679762      12.59800000        7       0.00000000       0.00000000       0.00000000      -0.00000051      -0.00005019       0.42237447      -0.00269169       0.01212399       0.63431555
Cu       3.63000000       2.56679762      12.59800000        7       0.00000000       0.00000000       0.00000000       0.00000020      -0.00004698       0.42177359       0.00058372       0.00102366       0.63482998
Cu       0.00000000       5.13359523      12.59800000        7       0.00000000       0.00000000       0.00000000      -0.00000027      -0.00001481       0.42185505       0.00164103      -0.01228639       0.62296881
Cu       3.63000000       5.13359523      12.59800000        7       0.00000000       0.00000000       0.00000000       0.00000004       0.00015532       0.42177615      -0.00128389      -0.01550105       0.63835332
Cu       1.81500000       1.28339881      13.89700000        6       0.00000000       0.00000000       0.00000000      -0.00022683       0.00009041      -0.15920623       0.02156215       0.00331334      -0.18593043
Cu       5.44500000       1.28339881      13.89700000        6       0.00000000       0.00000000       0.00000000       0.00022595       0.00008877      -0.15920394      -0.02309751       0.00492352      -0.18704759
Cu       1.81500000       3.85019642      13.89700000        6       0.00000000       0.00000000       0.00000000      -0.00038750      -0.00030452      -0.16005378       0.01576434      -0.00820100      -0.19422779
Cu       5.44500000       3.85019642      13.89700000        6       0.00000000       0.00000000       0.00000000       0.00038610      -0.00030302      -0.16005276      -0.01716509      -0.00241808      -0.19407185
Cu       1.81500000       6.41699404      13.89700000        6       0.00000000       0.00000000       0.00000000      -0.00003901       0.00026416      -0.16014005       0.00868465      -0.00301482      -0.17805409
Cu       5.44500000       6.41699404      13.89700000        6       0.00000000       0.00000000       0.00000000       0.00003923       0.00026450      -0.16014223      -0.01051513      -0.00400763      -0.17611543
Cu       0.00000000       0.00000000      15.19600000        5       0.00000000       0.00000000       0.00000000      -0.00000068       0.00071538      -0.06243817      -0.00040746       0.00314683       0.00040995
Cu       3.63000000       0.00000000      15.19600000        5       0.00000000       0.00000000       0.00000000       0.00000471       0.00180197      -0.05752107      -0.00330141      -0.00075531       0.01612131
Cu       0.00000000       2.56679762      15.19600000        5       0.00000000       0.00000000       0.00000000      -0.00000066       0.00093842      -0.06215943      -0.00005294      -0.02676541       0.03939076
Cu       3.63000000       2.56679762      15.19600000        5       0.00000000       0.00000000       0.00000000       0.00000388      -0.00071459      -0.05546671      -0.00149265      -0.00482114       0.03473398
Cu       0.00000000       5.13359523      15.19600000        5       0.00000000       0.00000000       0.00000000       0.00000066      -0.00152757      -0.05922213      -0.00003007       0.01681725       0.07043784
Cu       3.63000000       5.13359523      15.19600000        5       0.00000000       0.00000000       0.00000000       0.00000320      -0.00087843      -0.05661467       0.00130083       0.00413436      -0.00357789
Cu       1.81500000       1.28339881      16.49500000        4       0.00000000       0.00000000       0.00000000       0.00102264       0.00278032      -0.11731386       0.00233709       0.00717590      -0.17323692
Cu       5.44500000       1.28339881      16.49500000        4       0.00000000       0.00000000       0.00000000      -0.00100309       0.00277903      -0.11721969       0.00102976       0.00745351      -0.19655741
Cu       1.81500000       3.85019642      16.49500000        4       0.00000000       0.00000000       0.00000000       0.00504832       0.00200166      -0.11189502      -0.00504637       0.00702968      -0.17360279
Cu       5.44500000       3.85019642      16.49500000        4       0.00000000       0.00000000       0.00000000      -0.00503772       0.00200438      -0.11178487       0.00218735       0.00720748      -0.18676056
Cu       1.81500000       6.41699404      16.49500000        4       0.00000000       0.00000000       0.00000000       0.00429298      -0.00129282      -0.12954447       0.01451198      -0.02603364      -0.16446120
Cu       5.44500000       6.41699404      16.49500000        4       0.00000000       0.00000000       0.00000000      -0.00428790      -0.00128103      -0.12964371      -0.01372091      -0.03205668      -0.17007571
Cu       0.00000000       0.00000000      17.79400000        3       0.00000000       0.00000000       0.00000000       0.00007122      -0.02952130      -0.28123294       0.00151159       0.00017578      -0.25703897
Cu       3.63000000       0.00000000      17.79400000        3       0.00000000       0.00000000       0.00000000       0.00014836       0.01744399      -0.37451516      -0.01943770       0.04719380      -0.43575095
Cu       0.00000000       2.56679762      17.79400000        3       0.00000000       0.00000000       0.00000000       0.00011479      -0.00645390      -0.22304873       0.00249448       0.02514822      -0.22870082
Cu       3.63000000       2.56679762      17.79400000        3       0.00000000       0.00000000       0.00000000       0.00021651      -0.01716088      -0.36156520      -0.01794081       0.04650149      -0.43193067
Cu       0.00000000       5.13359523      17.79400000        3       0.00000000       0.00000000       0.00000000       0.00007328      -0.00595957      -0.38055265       0.00139140       0.04900610      -0.41179661
Cu       3.63000000       5.13359523      17.79400000        3       0.00000000       0.00000000       0.00000000       0.00016078      -0.02756118      -0.38006320      -0.02130814       0.01690581      -0.48535738
Cu       1.80439677       1.30923805      19.04213851        2       0.01174707      -0.00453522       0.11614500       0.00004464       0.01060957       0.09923922       0.10498758      -0.01115478      -0.00892277
Cu       5.44914915       1.30805059      19.03258114        2      -0.00419495      -0.00580581       0.12430592      -0.00006697       0.01059386       0.09914589      -0.09364960      -0.00885412      -0.00402542
Cu       1.82393251       3.87196759      19.04076631        2       0.00937351       0.00522976       0.12419167      -0.00274407       0.00796860       0.10373897      -0.02103276       0.04053751       0.05235143
Cu       5.43088721       3.87523056      19.03474248        2      -0.00747068       0.00365665       0.12581545       0.00262506       0.00803866       0.10361893       0.02468168       0.04196536       0.05627855
Cu       1.82188834       6.44224971      19.03673578        2       0.00764452      -0.00399154       0.12483401      -0.00140203       0.00420356       0.09839746      -0.02440206      -0.02576203       0.08414362
Cu       5.43406788       6.43962191      19.03295199        2      -0.00328579      -0.00042395       0.12882662       0.00142104       0.00423963       0.09835207       0.03251245      -0.02169334       0.09554266
Cu      -0.00884695       0.01052908      20.26815962        1       0.01185290      -0.03790954       0.15244604       0.00004000       0.00860619       0.14274682       0.01348970       0.07933761       0.12926112
Cu       3.63033961       0.01897576      20.22892202        1      -0.00091654       0.01603450       0.14253853      -0.00002015       0.00252742       0.11837160      -0.00333705       0.03250116      -0.06899402
Cu      -0.01024541       2.72099895      20.22755026        1       0.00417894      -0.04335044       0.18130553      -0.00017140      -0.00533259       0.16685886       0.02681240      -0.10463952       0.07588681
Cu       3.63164492       2.57440099      20.22926028        1      -0.00068151       0.02587174       0.15240867      -0.00008180       0.01320092       0.11930561      -0.01197286       0.04582061      -0.07628245
Cu      -0.00186967       5.21196790      20.21604658        1       0.00015581      -0.01520385       0.14105040      -0.00005270       0.00079805       0.12888788      -0.00218419      -0.03512455      -0.11116130
Cu       3.62788936       5.15095897      20.23107733        1       0.00086024       0.01709951       0.15544795      -0.00010797       0.00682300       0.11913722      -0.00024807       0.01779003      -0.03756287
O       -0.01555285       7.84546232      23.16272007        0      -0.00916718      -0.03530102      -0.00243086      -0.00041156      -0.01592458       0.01424090      -0.00086139      -0.20835876       0.35685087
C       -0.04172898       0.86202615      22.02182317        0       0.01509154       0.00656765       0.02944080      -0.00007043       0.05269624       0.06192348       0.00068832       0.02097109       0.64158791
H        0.01810030       6.88460581      22.93068861        0      -0.00368774      -0.06084296       0.04561491       0.00058760      -0.00686929      -0.00747315       0.04735743      -0.57720186      -0.69842713
O       -0.07866416       2.10757412      22.12317699        0       0.01628305      -0.00607729       0.10435974      -0.00041770      -0.04038631       0.03143877      -0.03006383       0.58262522      -0.02222737
46
Lattice="7.26 0.0 0.0 0.0 7.700392847121503 0.0 0.0 0.0 30.391999999999996" Properties=species:S:1:pos:R:3:tags:I:1:MACE_forces:R:3:forces:R:3:DFT_forces:R:3 method=neb MACE_energy=-186.9678362000158 energy=-186.97781233356525 stress="0.006651952307557245 -3.2073154882963493e-07 1.4710622538436238e-06 -3.2073154882963493e-07 0.007771409437050713 -2.2644539661852852e-05 1.4710622538436238e-06 -2.2644539661852852e-05 0.002609307520851428" free_energy=-186.97781233356525 DFT_energy=-191.2996328 pbc="T T T"
Cu       0.00000000       0.00000000      12.59800000        7       0.00000000       0.00000000       0.00000000      -0.00000029       0.00006157       0.42267225      -0.00003666      -0.00232278       0.64231293
Cu       3.63000000       0.00000000      12.59800000        7       0.00000000       0.00000000       0.00000000       0.00000011      -0.00011203       0.42221863       0.00065455       0.01242800       0.63538258
Cu       0.00000000       2.56679762      12.59800000        7       0.00000000       0.00000000       0.00000000      -0.00000051      -0.00005019       0.42237447      -0.00187420       0.01335173       0.63440306
Cu       3.63000000       2.56679762      12.59800000        7       0.00000000       0.00000000       0.00000000       0.00000020      -0.00004698       0.42177359       0.00180271       0.00280220       0.63494942
Cu       0.00000000       5.13359523      12.59800000        7       0.00000000       0.00000000       0.00000000      -0.00000027      -0.00001481       0.42185505       0.00187445      -0.01202650       0.62210514
Cu       3.63000000       5.13359523      12.59800000        7       0.00000000       0.00000000       0.00000000       0.00000004       0.00015532       0.42177615      -0.00131161      -0.01311433       0.63854406
Cu       1.81500000       1.28339881      13.89700000        6       0.00000000       0.00000000       0.00000000      -0.00022683       0.00009041      -0.15920623       0.02116618       0.00511755      -0.18750951
Cu       5.44500000       1.28339881      13.89700000        6       0.00000000       0.00000000       0.00000000       0.00022595       0.00008877      -0.15920394      -0.02169131       0.00631641      -0.18977811
Cu       1.81500000       3.85019642      13.89700000        6       0.00000000       0.00000000       0.00000000      -0.00038750      -0.00030452      -0.16005378       0.01592271      -0.00694612      -0.19569251
Cu       5.44500000       3.85019642      13.89700000        6       0.00000000       0.00000000       0.00000000       0.00038610      -0.00030302      -0.16005276      -0.01640357      -0.00114608      -0.19515698
Cu       1.81500000       6.41699404      13.89700000        6       0.00000000       0.00000000       0.00000000      -0.00003901       0.00026416      -0.16014005       0.00906713      -0.00153212      -0.17921089
Cu       5.44500000       6.41699404      13.89700000        6       0.00000000       0.00000000       0.00000000       0.00003923       0.00026450      -0.16014223      -0.00985034      -0.00236016      -0.17706499
Cu       0.00000000       0.00000000      15.19600000        5       0.00000000       0.00000000       0.00000000      -0.00000068       0.00071538      -0.06243817       0.00037410       0.00635582      -0.00024131
Cu       3.63000000       0.00000000      15.19600000        5       0.00000000       0.00000000       0.00000000       0.00000471       0.00180197      -0.05752107      -0.00204066       0.00131897       0.01626400
Cu       0.00000000       2.56679762      15.19600000        5       0.00000000       0.00000000       0.00000000      -0.00000066       0.00093842      -0.06215943       0.00046152      -0.02657861       0.04275564
Cu       3.63000000       2.56679762      15.19600000        5       0.00000000       0.00000000       0.00000000       0.00000388      -0.00071459      -0.05546671      -0.00011867      -0.00311893       0.03310893
Cu       0.00000000       5.13359523      15.19600000        5       0.00000000       0.00000000       0.00000000       0.00000066      -0.00152757      -0.05922213       0.00051428       0.01922520       0.06653708
Cu       3.63000000       5.13359523      15.19600000        5       0.00000000       0.00000000       0.00000000       0.00000320      -0.00087843      -0.05661467       0.00221363       0.00561091      -0.00068043
Cu       1.81500000       1.28339881      16.49500000        4       0.00000000       0.00000000       0.00000000       0.00102264       0.00278032      -0.11731386       0.00341406       0.01288894      -0.17517711
Cu       5.44500000       1.28339881      16.49500000        4       0.00000000       0.00000000       0.00000000      -0.00100309       0.00277903      -0.11721969       0.00029400       0.01326365      -0.18195047
Cu       1.81500000       3.85019642      16.49500000        4       0.00000000       0.00000000       0.00000000       0.00504832       0.00200166      -0.11189502      -0.00649789       0.01048467      -0.16512652
Cu       5.44500000       3.85019642      16.49500000        4       0.00000000       0.00000000       0.00000000      -0.00503772       0.00200438      -0.11178487       0.00400215       0.01150014      -0.16816066
Cu       1.81500000       6.41699404      16.49500000        4       0.00000000       0.00000000       0.00000000       0.00429298      -0.00129282      -0.12954447       0.01606044      -0.02078877      -0.15925201
Cu       5.44500000       6.41699404      16.49500000        4       0.00000000       0.00000000       0.00000000      -0.00428790      -0.00128103      -0.12964371      -0.01429615      -0.02729059      -0.15683634
Cu       0.00000000       0.00000000      17.79400000        3       0.00000000       0.00000000       0.00000000       0.00007122      -0.02952130      -0.28123294       0.00226852      -0.03870844      -0.24510852
Cu       3.63000000       0.00000000      17.79400000        3       0.00000000       0.00000000       0.00000000       0.00014836       0.01744399      -0.37451516      -0.00355176       0.00385610      -0.42178996
Cu       0.00000000       2.56679762      17.79400000        3       0.00000000       0.00000000       0.00000000       0.00011479      -0.00645390      -0.22304873       0.00164281      -0.02046890      -0.18245196
Cu       3.63000000       2.56679762      17.79400000        3       0.00000000       0.00000000       0.00000000       0.00021651      -0.01716088      -0.36156520      -0.00176399       0.01123918      -0.41971749
Cu       0.00000000       5.13359523      17.79400000        3       0.00000000       0.00000000       0.00000000       0.00007328      -0.00595957      -0.38055265      -0.00001903       0.02529379      -0.41419708
Cu       3.63000000       5.13359523      17.79400000        3       0.00000000       0.00000000       0.00000000       0.00016078      -0.02756118      -0.38006320      -0.00228259      -0.03810217      -0.46153097
Cu       1.80648880       1.28177423      19.04115067        2       0.00874246       0.01085679       0.11137005       0.00004464       0.01060957       0.09923922       0.09255468       0.01036945      -0.00962326
Cu       5.45277209       1.28102285      19.03983670        2      -0.01031503       0.01096956       0.10903085      -0.00006697       0.01059386       0.09914589      -0.09519872       0.01121218      -0.01593292
Cu       1.82185701       3.84333221      19.04450846        2       0.00821247       0.02100885       0.11731345      -0.00274407       0.00796860       0.10373897      -0.01534471       0.04983032       0.05054621
Cu       5.43751630       3.84398118      19.04313270        2      -0.00906507       0.02162168       0.11619004       0.00262506       0.00803866       0.10361893       0.01416726       0.05493114       0.05032065
Cu       1.82211365       6.41370684      19.03823594        2       0.00372411       0.01099768       0.11892069      -0.00140203       0.00420356       0.09839746      -0.02513400      -0.01279502       0.08186299
Cu       5.43767437       6.41351178      19.03795913        2      -0.00471910       0.01001104       0.11795431       0.00142104       0.00423963       0.09835207       0.02517618      -0.01493763       0.08657139
Cu      -0.00058239      -0.03892402      20.27471876        1      -0.00201158      -0.02432928       0.10712049       0.00004000       0.00860619       0.14274682      -0.00636570       0.09360651       0.09331967
Cu       3.62978707      -0.00734380      20.22921198        1      -0.00011450       0.00380902       0.14058222      -0.00002015       0.00252742       0.11837160       0.00045332       0.00711655      -0.06750055
Cu      -0.00172124       2.65270953      20.24373184        1      -0.00294189       0.00726285       0.17686750      -0.00017140      -0.00533259       0.16685886       0.00427099      -0.04688409       0.09534359
Cu       3.63057912       2.54825142      20.23085652        1       0.00018697       0.01499643       0.14423317      -0.00008180       0.01320092       0.11930561      -0.00409487       0.02215967      -0.08230335
Cu       0.00007955       5.15135806      20.21796712        1      -0.00016508       0.03162090       0.14606201      -0.00005270       0.00079805       0.12888788      -0.00175543       0.01915156      -0.10884101
Cu       3.63002349       5.12307615      20.23184445        1      -0.00061689       0.01055334       0.14622485      -0.00010797       0.00682300       0.11913722      -0.00151721      -0.00158937      -0.04439240
O        0.00006252       7.74809420      23.16049299        0      -0.02341994      -0.04869513      -0.04323929      -0.00041156      -0.01592458       0.01424090      -0.03548020      -0.24234586       0.30793394
C       -0.01746436       0.79433068      22.03728969        0       0.00801072       0.03961021       0.04629422      -0.00007043       0.05269624       0.06192348       0.01202822      -0.00945595       0.54541984
H       -0.00703935       6.79239999      22.89819906        0       0.01312916      -0.01940535       0.08213002       0.00058760      -0.00686929      -0.00747315       0.01485164      -0.53656062      -0.70449593
O       -0.03348095       2.03783837      22.16193751        0       0.01531446      -0.05564889       0.04369573      -0.00041770      -0.04038631       0.03143877       0.02139373       0.64964241       0.03204212
46
Lattice="7.26 0.0 0.0 0.0 7.700392847121503 0.0 0.0 0.0 30.391999999999996" Properties=species:S:1:pos:R:3:tags:I:1:MACE_forces:R:3:forces:R:3:DFT_forces:R:3 method=neb MACE_energy=-186.97781233356525 energy=-186.97781233356525 stress="0.006651952307557245 -3.2073154882963493e-07 1.4710622538436238e-06 -3.2073154882963493e-07 0.007771409437050713 -2.2644539661852852e-05 1.4710622538436238e-06 -2.2644539661852852e-05 0.002609307520851428" free_energy=-186.97781233356525 DFT_energy=-191.30275357 pbc="T T T"
Cu       0.00000000       0.00000000      12.59800000        7       0.00000000       0.00000000       0.00000000      -0.00000029       0.00006157       0.42267225      -0.00077093      -0.00105083       0.64275298
Cu       3.63000000       0.00000000      12.59800000        7       0.00000000       0.00000000       0.00000000       0.00000011      -0.00011203       0.42221863       0.00124026       0.01049914       0.63515320
Cu       0.00000000       2.56679762      12.59800000        7       0.00000000       0.00000000       0.00000000      -0.00000051      -0.00005019       0.42237447      -0.00155259       0.01323198       0.63525133
Cu       3.63000000       2.56679762      12.59800000        7       0.00000000       0.00000000       0.00000000       0.00000020      -0.00004698       0.42177359       0.00240104       0.00321093       0.63633587
Cu       0.00000000       5.13359523      12.59800000        7       0.00000000       0.00000000       0.00000000      -0.00000027      -0.00001481       0.42185505       0.00160551      -0.01221606       0.62240993
Cu       3.63000000       5.13359523      12.59800000        7       0.00000000       0.00000000       0.00000000       0.00000004       0.00015532       0.42177615      -0.00185390      -0.01062427       0.63778225
Cu       1.81500000       1.28339881      13.89700000        6       0.00000000       0.00000000       0.00000000      -0.00022683       0.00009041      -0.15920623       0.02071915       0.00645508      -0.18772651
Cu       5.44500000       1.28339881      13.89700000        6       0.00000000       0.00000000       0.00000000       0.00022595       0.00008877      -0.15920394      -0.02126867       0.00640408      -0.19108716
Cu       1.81500000       3.85019642      13.89700000        6       0.00000000       0.00000000       0.00000000      -0.00038750      -0.00030452      -0.16005378       0.01565506      -0.00656547      -0.19637390
Cu       5.44500000       3.85019642      13.89700000        6       0.00000000       0.00000000       0.00000000       0.00038610      -0.00030302      -0.16005276      -0.01637700      -0.00178415      -0.19479314
Cu       1.81500000       6.41699404      13.89700000        6       0.00000000       0.00000000       0.00000000      -0.00003901       0.00026416      -0.16014005       0.00950441      -0.00112622      -0.17888927
Cu       5.44500000       6.41699404      13.89700000        6       0.00000000       0.00000000       0.00000000       0.00003923       0.00026450      -0.16014223      -0.01005943      -0.00166847      -0.17680234
Cu       0.00000000       0.00000000      15.19600000        5       0.00000000       0.00000000       0.00000000      -0.00000068       0.00071538      -0.06243817       0.00023581       0.01047348       0.00096387
Cu       3.63000000       0.00000000      15.19600000        5       0.00000000       0.00000000       0.00000000       0.00000471       0.00180197      -0.05752107      -0.00138314       0.00205132       0.01858677
Cu       0.00000000       2.56679762      15.19600000        5       0.00000000       0.00000000       0.00000000      -0.00000066       0.00093842      -0.06215943       0.00055611      -0.02790150       0.04543477
Cu       3.63000000       2.56679762      15.19600000        5       0.00000000       0.00000000       0.00000000       0.00000388      -0.00071459      -0.05546671       0.00044036      -0.00327336       0.03054671
Cu       0.00000000       5.13359523      15.19600000        5       0.00000000       0.00000000       0.00000000       0.00000066      -0.00152757      -0.05922213       0.00074317       0.01869830       0.06659162
Cu       3.63000000       5.13359523      15.19600000        5       0.00000000       0.00000000       0.00000000       0.00000320      -0.00087843      -0.05661467       0.00216770       0.00650702       0.00153268
Cu       1.81500000       1.28339881      16.49500000        4       0.00000000       0.00000000       0.00000000       0.00102264       0.00278032      -0.11731386       0.00341517       0.01526595      -0.16743497
Cu       5.44500000       1.28339881      16.49500000        4       0.00000000       0.00000000       0.00000000      -0.00100309       0.00277903      -0.11721969      -0.00108097       0.01609326      -0.17237412
Cu       1.81500000       3.85019642      16.49500000        4       0.00000000       0.00000000       0.00000000       0.00504832       0.00200166      -0.11189502      -0.00780691       0.00996984      -0.15115062
Cu       5.44500000       3.85019642      16.49500000        4       0.00000000       0.00000000       0.00000000      -0.00503772       0.00200438      -0.11178487       0.00441440       0.01226439      -0.15103332
Cu       1.81500000       6.41699404      16.49500000        4       0.00000000       0.00000000       0.00000000       0.00429298      -0.00129282      -0.12954447       0.01560912      -0.02099305      -0.15125793
Cu       5.44500000       6.41699404      16.49500000        4       0.00000000       0.00000000       0.00000000      -0.00428790      -0.00128103      -0.12964371      -0.01428537      -0.02693847      -0.14874025
Cu       0.00000000       0.00000000      17.79400000        3       0.00000000       0.00000000       0.00000000       0.00007122      -0.02952130      -0.28123294       0.00051539      -0.04082965      -0.25775722
Cu       3.63000000       0.00000000      17.79400000        3       0.00000000       0.00000000       0.00000000       0.00014836       0.01744399      -0.37451516      -0.00134274       0.00279428      -0.40189917
Cu       0.00000000       2.56679762      17.79400000        3       0.00000000       0.00000000       0.00000000       0.00011479      -0.00645390      -0.22304873       0.00061474      -0.02608130      -0.14438874
Cu       3.63000000       2.56679762      17.79400000        3       0.00000000       0.00000000       0.00000000       0.00021651      -0.01716088      -0.36156520      -0.00095677       0.01162142      -0.39405332
Cu       0.00000000       5.13359523      17.79400000        3       0.00000000       0.00000000       0.00000000       0.00007328      -0.00595957      -0.38055265      -0.00056650       0.02593994      -0.38497636
Cu       3.63000000       5.13359523      17.79400000        3       0.00000000       0.00000000       0.00000000       0.00016078      -0.02756118      -0.38006320       0.00097263      -0.05544844      -0.43753497
Cu       1.80857918       1.27805044      19.04426549        2       0.00004464       0.01060957       0.09923922       0.00004464       0.01060957       0.09923922       0.08286025       0.01283823      -0.02514802
Cu       5.45151816       1.27806721      19.04433551        2      -0.00006697       0.01059386       0.09914589      -0.00006697       0.01059386       0.09914589      -0.08216172       0.01133455      -0.02673968
Cu       1.82309367       3.84092841      19.05023242        2      -0.00274407       0.00796860       0.10373897      -0.00274407       0.00796860       0.10373897      -0.02907332       0.03795393       0.03566389
Cu       5.43705008       3.84084703      19.05029689        2       0.00262506       0.00803866       0.10361893       0.00262506       0.00803866       0.10361893       0.02947050       0.04067700       0.03394962
Cu       1.82774435       6.40861285      19.04127854        2      -0.00140203       0.00420356       0.09839746      -0.00140203       0.00420356       0.09839746      -0.03281545      -0.02161617       0.05886902
Cu       5.43226880       6.40857841      19.04122847        2       0.00142104       0.00423963       0.09835207       0.00142104       0.00423963       0.09835207       0.03459053      -0.02234306       0.06274561
Cu      -0.00001217      -0.06726192      20.26256687        1       0.00004000       0.00860619       0.14274682       0.00004000       0.00860619       0.14274682      -0.00427912       0.13168355       0.12624759
Cu       3.63004064      -0.00941664      20.23660278        1      -0.00002015       0.00252742       0.11837160      -0.00002015       0.00252742       0.11837160       0.00106189       0.00574027      -0.09313104
Cu       0.00030153       2.63919254      20.25343815        1      -0.00017140      -0.00533259       0.16685886      -0.00017140      -0.00533259       0.16685886       0.00017201      -0.05489496       0.08472837
Cu       3.63005171       2.54549847      20.23789597        1      -0.00008180       0.01320092       0.11930561      -0.00008180       0.01320092       0.11930561      -0.00076569       0.02410846      -0.10577755
Cu       0.00002012       5.14034259      20.22274252        1      -0.00005270       0.00079805       0.12888788      -0.00005270       0.00079805       0.12888788      -0.00033867      -0.01231462      -0.13227278
Cu       3.63008588       5.11980471      20.24106245        1      -0.00010797       0.00682300       0.11913722      -0.00010797       0.00682300       0.11913722      -0.00047209      -0.00438730      -0.07664676
O       -0.00514249       7.69534690      23.16035661        0      -0.00041156      -0.01592458       0.01424090      -0.00041156      -0.01592458       0.01424090      -0.00427419      -0.18961489       0.35733766
C       -0.00195020       0.73632531      22.03336413        0      -0.00007043       0.05269624       0.06192348      -0.00007043       0.05269624       0.06192348      -0.00133646       0.00602382       0.51732315
H       -0.00685690       6.73532382      22.91941237        0       0.00058760      -0.00686929      -0.00747315       0.00058760      -0.00686929      -0.00747315       0.00337299      -0.53871005      -0.64484109
O       -0.00028349       1.98014078      22.15941173        0      -0.00041770      -0.04038631       0.03143877      -0.00041770      -0.04038631       0.03143877       0.00248344       0.63854210      -0.05737664
