62
Lattice="7.26 0.0 0.0 0.0 10.26719046282867 0.0 0.0 0.0 30.392" Properties=species:S:1:pos:R:3:tags:I:1:initial_magmoms:R:1:MACE_forces:R:3:forces:R:3:DFT_forces:R:3 MACE_energy=-251.4581560671749 energy=-252.087500241033 stress="0.0044975561111709125 8.810443933857045e-07 0.00010728813243967474 8.810443933857045e-07 0.006489355393789003 -5.9733471431731176e-05 0.00010728813243967474 -5.9733471431731176e-05 -0.0008584545804065417" free_energy=-252.087500241033 DFT_energy=-257.3902393 pbc="T T T"
Cu       0.00033949      -0.00174187      12.59832408        7       0.00000000       0.00000000       0.00000000       0.00000000      -0.00070913       0.00998676       0.41835467      -0.00118702       0.03029291       0.68216302
Cu       3.62961954      -0.00066879      12.59861168        7       0.00000000       0.00000000       0.00000000       0.00000000       0.00090900       0.00364844       0.41590338       0.00088897      -0.00478515       0.66493767
Cu       0.00101862       2.56771771      12.59716078        7       0.00000000       0.00000000       0.00000000       0.00000000      -0.00267556      -0.00613596       0.41962782      -0.00114853       0.00750882       0.68521715
Cu       3.62969450       2.56712490      12.59897555        7       0.00000000       0.00000000       0.00000000       0.00000000       0.00042427      -0.00121001       0.41446946      -0.00243451       0.00946982       0.65812962
Cu      -0.00047342       5.13341180      12.59689367        7       0.00000000       0.00000000       0.00000000       0.00000000       0.00153747       0.00294579       0.42343874       0.00379713      -0.04135656       0.70587667
Cu       3.62881816       5.13439800      12.59935624        7       0.00000000       0.00000000       0.00000000       0.00000000       0.00315459      -0.00237382       0.41353843       0.00142420      -0.00830103       0.67551281
Cu      -0.00007115       7.70138433      12.59836164        7       0.00000000       0.00000000       0.00000000       0.00000000       0.00019302      -0.00676376       0.41725205       0.00025976       0.00812718       0.69264445
Cu       3.62936263       7.70074990      12.59953804        7       0.00000000       0.00000000       0.00000000       0.00000000       0.00153043      -0.00113798       0.41318645       0.00188276       0.01111336       0.66638312
Cu       1.81500000       1.28339881      13.89700000        6       0.00000000       0.00000000       0.00000000       0.00000000      -0.00246142      -0.00126101      -0.17829908       0.00956937      -0.01034812      -0.18706043
Cu       5.44500000       1.28339881      13.89700000        6       0.00000000       0.00000000       0.00000000       0.00000000       0.00331907      -0.00088895      -0.18028805      -0.00794918      -0.01211961      -0.18542797
Cu       1.81500000       3.85019642      13.89700000        6       0.00000000       0.00000000       0.00000000       0.00000000      -0.00313913       0.00194142      -0.17643421      -0.03055703      -0.00288528      -0.18256991
Cu       5.44500000       3.85019642      13.89700000        6       0.00000000       0.00000000       0.00000000       0.00000000       0.00203186       0.00138981      -0.17817199       0.02648048      -0.00136183      -0.17849525
Cu       1.81500000       6.41699404      13.89700000        6       0.00000000       0.00000000       0.00000000       0.00000000      -0.00581862      -0.00059563      -0.17377469       0.00797049       0.01289869      -0.17205531
Cu       5.44500000       6.41699404      13.89700000        6       0.00000000       0.00000000       0.00000000       0.00000000       0.00297185      -0.00069911      -0.17500980      -0.00962901       0.01526275      -0.16981792
Cu       1.81500000       8.98379165      13.89700000        6       0.00000000       0.00000000       0.00000000       0.00000000      -0.00154084       0.00053551      -0.17360904      -0.03289338       0.00603363      -0.17592127
Cu       5.44500000       8.98379165      13.89700000        6       0.00000000       0.00000000       0.00000000       0.00000000       0.00066255       0.00081423      -0.17500788       0.03378715       0.00889520      -0.17733404
Cu       0.00000000       0.00000000      15.19600000        5       0.00000000       0.00000000       0.00000000       0.00000000       0.00021243       0.00059097      -0.19187055      -0.00251037       0.00276112      -0.05087156
Cu       3.63000000       0.00000000      15.19600000        5       0.00000000       0.00000000       0.00000000       0.00000000      -0.00011050      -0.00014670      -0.25461776       0.00081367       0.01036380      -0.12977037
Cu       0.00000000       2.56679762      15.19600000        5       0.00000000       0.00000000       0.00000000       0.00000000       0.00004872       0.00014753      -0.29541027       0.00122481      -0.00847281      -0.10932192
Cu       3.63000000       2.56679762      15.19600000        5       0.00000000       0.00000000       0.00000000       0.00000000       0.00017466       0.00025569      -0.25507050      -0.00202360      -0.00031280      -0.18345131
Cu       0.00000000       5.13359523      15.19600000        5       0.00000000       0.00000000       0.00000000       0.00000000      -0.00014161       0.00110793      -0.17818187      -0.00008442       0.01436370      -0.10609841
Cu       3.63000000       5.13359523      15.19600000        5       0.00000000       0.00000000       0.00000000       0.00000000       0.00023213       0.00097673      -0.24605226      -0.00213247      -0.00810090      -0.16269714
Cu       0.00000000       7.70039285      15.19600000        5       0.00000000       0.00000000       0.00000000       0.00000000       0.00009970      -0.00048701      -0.23835327      -0.00124313      -0.00163815      -0.13528493
Cu       3.63000000       7.70039285      15.19600000        5       0.00000000       0.00000000       0.00000000       0.00000000       0.00008192      -0.00093302      -0.24174196       0.00061933       0.00650613      -0.12699047
Cu       1.81500000       1.28339881      16.49500000        4       0.00000000       0.00000000       0.00000000       0.00000000      -0.00133813      -0.02138125      -0.37622213      -0.04460190      -0.01070254      -0.45255947
Cu       5.44500000       1.28339881      16.49500000        4       0.00000000       0.00000000       0.00000000       0.00000000       0.01010472      -0.02531666      -0.37865269       0.05021317      -0.01230300      -0.43998571
Cu       1.81500000       3.85019642      16.49500000        4       0.00000000       0.00000000       0.00000000       0.00000000      -0.00567597       0.02575148      -0.38429260      -0.04090867      -0.03029008      -0.49925963
Cu       5.44500000       3.85019642      16.49500000        4       0.00000000       0.00000000       0.00000000       0.00000000       0.01670741       0.02755879      -0.36921811       0.03799921      -0.02765144      -0.46477441
Cu       1.81500000       6.41699404      16.49500000        4       0.00000000       0.00000000       0.00000000       0.00000000      -0.02339864      -0.01711700      -0.35815562      -0.02670885      -0.00778564      -0.45738962
Cu       5.44500000       6.41699404      16.49500000        4       0.00000000       0.00000000       0.00000000       0.00000000       0.03455620      -0.01750500      -0.34866026       0.02747439      -0.00957038      -0.45709211
Cu       1.81500000       8.98379165      16.49500000        4       0.00000000       0.00000000       0.00000000       0.00000000      -0.01901416       0.00243212      -0.37367758      -0.03278736       0.00415417      -0.41674794
Cu       5.44500000       8.98379165      16.49500000        4       0.00000000       0.00000000       0.00000000       0.00000000       0.02800231       0.00537876      -0.37882485       0.02644429       0.00547131      -0.42012690
Cu      -0.00104839      -0.00949824      17.71871840        3       0.00000000       0.00017013       0.00421831       0.07060217      -0.00010231       0.00503394       0.07309809      -0.00477476       0.03615650       0.19106499
Cu       3.63054452      -0.00555544      17.69421693        3       0.00000000       0.00081871       0.00384462       0.07290616      -0.00000088       0.00981996       0.07368551      -0.00491129       0.00936511       0.08275133
Cu      -0.00070301       2.56100279      17.71075819        3       0.00000000       0.00070452      -0.00013042       0.07314931       0.00022094       0.00741686       0.06788930       0.00708984      -0.06402273       0.12496668
Cu       3.63151718       2.55200965      17.68707093        3       0.00000000       0.00065670       0.00154757       0.07340449      -0.00022450      -0.00386054       0.08323682       0.00246718      -0.00848522       0.09421619
Cu      -0.00109580       5.12500982      17.71102891        3       0.00000000       0.00061996       0.00304784       0.06859462      -0.00004810       0.00054276       0.06794487       0.00660697       0.07380737       0.12034451
Cu       3.63128293       5.13129520      17.68509507        3       0.00000000       0.00063779      -0.00006240       0.07343181       0.00042705      -0.00088652       0.07532795       0.00334547       0.00047816       0.06070538
Cu      -0.00120340       7.69280500      17.70331224        3       0.00000000       0.00004363       0.00086070       0.06148622       0.00040345       0.00131056       0.05151725      -0.00616262      -0.03320778       0.14490889
Cu       3.63005962       7.69774924      17.69109081        3       0.00000000       0.00055578       0.00283779       0.07247205      -0.00011202       0.00449470       0.06832870      -0.00363537      -0.01143674       0.08237351
Cu       1.80724894       1.27065238      18.99985569        2       0.00000000       0.00613221       0.00707927       0.12553029       0.00353755       0.00049239       0.13416602      -0.00384883       0.01665332      -0.06699057
Cu       5.45329585       1.27430219      19.00644729        2       0.00000000      -0.00384219       0.00597156       0.12575610      -0.00390571       0.00180217       0.13225739      -0.00627724       0.00711210      -0.05973564
Cu       1.82908767       3.83697262      18.96132987        2       0.00000000       0.00626574       0.00227962       0.12542780       0.00266902      -0.00525274       0.12782357       0.06158272       0.00125687      -0.02209193
Cu       5.43357213       3.83487607      18.97108829        2       0.00000000      -0.00452119       0.00183625       0.12582291      -0.00206751      -0.00569652       0.12701125      -0.04835270      -0.00229555       0.02395862
Cu       1.81834084       6.39756366      18.98846110        2       0.00000000       0.00971570       0.00177737       0.11634690       0.02046726      -0.00372950       0.11040127      -0.02193940       0.01127484      -0.02162531
Cu       5.43982379       6.39705882      18.99138315        2       0.00000000      -0.00844608       0.00240697       0.11607845      -0.02034143      -0.00276807       0.10916709       0.01315598       0.02685117      -0.02066459
Cu       1.80752283       8.97142977      18.99104953        2       0.00000000       0.00999204       0.00808009       0.11953106       0.00851408      -0.00058847       0.11826583       0.10961867      -0.01044052      -0.07250059
Cu       5.45034305       8.97352993      18.99303686        2       0.00000000      -0.00913240       0.00841231       0.11917048      -0.00849401      -0.00173539       0.11645568      -0.10264909      -0.01541918      -0.07053636
Cu      -0.00137019       0.04941132      20.19761700        1       0.00000000       0.00267849      -0.00549175       0.17544033      -0.00121756      -0.01747399       0.14026274      -0.00504487      -0.11225620       0.08965736
Cu       3.62716751      -0.02243913      20.14594451        1       0.00000000       0.00150293       0.01201713       0.14996018      -0.00028584       0.01481363       0.14096840       0.01521149       0.02992337      -0.11749454
Cu       0.01200700       2.54927859      20.20785630        1       0.00000000       0.00114791       0.01201309       0.15974234       0.00126239      -0.01583875       0.14775614       0.05275483       0.00276410       0.02755716
Cu       3.62424783       2.54815226      20.13929834        1       0.00000000      -0.00118207       0.00089296       0.15409508      -0.00085552      -0.00122332       0.15095710       0.00989394       0.01181308      -0.07893939
Cu      -0.00190778       5.15369642      20.19688485        1       0.00000000      -0.00077634      -0.00310083       0.14726282      -0.00106420      -0.02322139       0.13647589       0.05805038      -0.04246435      -0.08882420
Cu       3.62611387       5.11475317      20.14364912        1       0.00000000       0.00011902       0.00291782       0.15144620      -0.00073784       0.00237801       0.15095227       0.00939450      -0.01774289      -0.12046470
Cu      -0.00195391       7.63002240      20.18062105        1       0.00000000      -0.00023510       0.01696089       0.13707261       0.00107813      -0.00824042       0.14191859       0.00802425       0.21464311       0.06716277
Cu       3.62818689       7.68484473      20.14469862        1       0.00000000       0.00230262       0.00352028       0.14683120      -0.00247488       0.01017545       0.13957748       0.01203130       0.01028750      -0.11794295
O        0.04456151       9.62987216      22.11142455        0       0.00000000       0.00495942      -0.02285691       0.04210621      -0.01425968       0.00745505       0.09225323       0.01360612       0.11745473       0.41593060
C        0.07166034       8.39046605      21.96607633        0       0.00000000       0.00189392       0.01822058       0.05409927      -0.00531185       0.03312714       0.05630851       0.02323352      -0.17740765       0.28856131
O        0.15417208       7.62791193      23.07518820        0       0.00000000       0.00466287      -0.02210792       0.00934444      -0.01051393       0.00795903       0.04083524      -0.12029912       0.02810851       0.21168495
H        0.17768167       6.67121698      22.81978254        0       0.00000000       0.00267870      -0.01461034      -0.01890540       0.02874298      -0.00785534       0.01051588      -0.01521482      -0.60024793      -0.60778376
O        0.05801853       3.87444993      21.64680561        0       0.50000000      -0.01242293       0.00693502       0.05901774      -0.00020488      -0.01686346       0.03976009      -0.00643552       0.57673546      -0.07526970
H       -0.82384207       3.85004196      22.06057587        0       0.50000000      -0.01372898       0.00674784       0.02749138      -0.03603079       0.02690367       0.01870782      -0.04857129      -0.03449583       0.12525944
62
Lattice="7.26 0.0 0.0 0.0 10.26719046282867 0.0 0.0 0.0 30.392" Properties=species:S:1:pos:R:3:tags:I:1:initial_magmoms:R:1:MACE_forces:R:3:forces:R:3:DFT_forces:R:3 MACE_energy=-251.46440549890687 energy=-252.087500241033 stress="0.0044975561111709125 8.810443933857045e-07 0.00010728813243967474 8.810443933857045e-07 0.006489355393789003 -5.9733471431731176e-05 0.00010728813243967474 -5.9733471431731176e-05 -0.0008584545804065417" free_energy=-252.087500241033 DFT_energy=-257.39328289 pbc="T T T"
Cu       0.00033949      -0.00174187      12.59832408        7       0.00000000       0.00000000       0.00000000       0.00000000      -0.00070913       0.00998676       0.41835467      -0.00119386       0.03188506       0.68203758
Cu       3.62961954      -0.00066879      12.59861168        7       0.00000000       0.00000000       0.00000000       0.00000000       0.00090900       0.00364844       0.41590338       0.00073138      -0.00491568       0.66448300
Cu       0.00101862       2.56771771      12.59716078        7       0.00000000       0.00000000       0.00000000       0.00000000      -0.00267556      -0.00613596       0.41962782      -0.00120741       0.00590059       0.68434015
Cu       3.62969450       2.56712490      12.59897555        7       0.00000000       0.00000000       0.00000000       0.00000000       0.00042427      -0.00121001       0.41446946      -0.00251513       0.00936935       0.65778113
Cu      -0.00047342       5.13341180      12.59689367        7       0.00000000       0.00000000       0.00000000       0.00000000       0.00153747       0.00294579       0.42343874       0.00371488      -0.04254543       0.70644798
Cu       3.62881816       5.13439800      12.59935624        7       0.00000000       0.00000000       0.00000000       0.00000000       0.00315459      -0.00237382       0.41353843       0.00126235      -0.00793047       0.67612862
Cu      -0.00007115       7.70138433      12.59836164        7       0.00000000       0.00000000       0.00000000       0.00000000       0.00019302      -0.00676376       0.41725205       0.00020477       0.00909035       0.69359993
Cu       3.62936263       7.70074990      12.59953804        7       0.00000000       0.00000000       0.00000000       0.00000000       0.00153043      -0.00113798       0.41318645       0.00179454       0.01095287       0.66672380
Cu       1.81500000       1.28339881      13.89700000        6       0.00000000       0.00000000       0.00000000       0.00000000      -0.00246142      -0.00126101      -0.17829908       0.00872738      -0.01001618      -0.18626895
Cu       5.44500000       1.28339881      13.89700000        6       0.00000000       0.00000000       0.00000000       0.00000000       0.00331907      -0.00088895      -0.18028805      -0.00732248      -0.01131496      -0.18470672
Cu       1.81500000       3.85019642      13.89700000        6       0.00000000       0.00000000       0.00000000       0.00000000      -0.00313913       0.00194142      -0.17643421      -0.03031946      -0.00335023      -0.18181808
Cu       5.44500000       3.85019642      13.89700000        6       0.00000000       0.00000000       0.00000000       0.00000000       0.00203186       0.00138981      -0.17817199       0.02628606      -0.00203974      -0.17808823
Cu       1.81500000       6.41699404      13.89700000        6       0.00000000       0.00000000       0.00000000       0.00000000      -0.00581862      -0.00059563      -0.17377469       0.00833893       0.01228449      -0.17185549
Cu       5.44500000       6.41699404      13.89700000        6       0.00000000       0.00000000       0.00000000       0.00000000       0.00297185      -0.00069911      -0.17500980      -0.01004885       0.01453273      -0.16949823
Cu       1.81500000       8.98379165      13.89700000        6       0.00000000       0.00000000       0.00000000       0.00000000      -0.00154084       0.00053551      -0.17360904      -0.03232049       0.00665052      -0.17514845
Cu       5.44500000       8.98379165      13.89700000        6       0.00000000       0.00000000       0.00000000       0.00000000       0.00066255       0.00081423      -0.17500788       0.03307988       0.00919139      -0.17661452
Cu       0.00000000       0.00000000      15.19600000        5       0.00000000       0.00000000       0.00000000       0.00000000       0.00021243       0.00059097      -0.19187055      -0.00236691       0.00265515      -0.04894421
Cu       3.63000000       0.00000000      15.19600000        5       0.00000000       0.00000000       0.00000000       0.00000000      -0.00011050      -0.00014670      -0.25461776       0.00061396       0.01126354      -0.13046156
Cu       0.00000000       2.56679762      15.19600000        5       0.00000000       0.00000000       0.00000000       0.00000000       0.00004872       0.00014753      -0.29541027       0.00093114      -0.00902427      -0.09598061
Cu       3.63000000       2.56679762      15.19600000        5       0.00000000       0.00000000       0.00000000       0.00000000       0.00017466       0.00025569      -0.25507050      -0.00202688      -0.00011980      -0.18168946
Cu       0.00000000       5.13359523      15.19600000        5       0.00000000       0.00000000       0.00000000       0.00000000      -0.00014161       0.00110793      -0.17818187      -0.00033868       0.01320368      -0.10690712
Cu       3.63000000       5.13359523      15.19600000        5       0.00000000       0.00000000       0.00000000       0.00000000       0.00023213       0.00097673      -0.24605226      -0.00205729      -0.00814680      -0.15890117
Cu       0.00000000       7.70039285      15.19600000        5       0.00000000       0.00000000       0.00000000       0.00000000       0.00009970      -0.00048701      -0.23835327      -0.00124031      -0.00078437      -0.14341288
Cu       3.63000000       7.70039285      15.19600000        5       0.00000000       0.00000000       0.00000000       0.00000000       0.00008192      -0.00093302      -0.24174196       0.00040510       0.00637983      -0.12607378
Cu       1.81500000       1.28339881      16.49500000        4       0.00000000       0.00000000       0.00000000       0.00000000      -0.00133813      -0.02138125      -0.37622213      -0.04884865      -0.00855955      -0.44001932
Cu       5.44500000       1.28339881      16.49500000        4       0.00000000       0.00000000       0.00000000       0.00000000       0.01010472      -0.02531666      -0.37865269       0.05561988      -0.01042388      -0.42832292
Cu       1.81500000       3.85019642      16.49500000        4       0.00000000       0.00000000       0.00000000       0.00000000      -0.00567597       0.02575148      -0.38429260      -0.04345393      -0.03543504      -0.49187446
Cu       5.44500000       3.85019642      16.49500000        4       0.00000000       0.00000000       0.00000000       0.00000000       0.01670741       0.02755879      -0.36921811       0.04201954      -0.03278454      -0.45816483
Cu       1.81500000       6.41699404      16.49500000        4       0.00000000       0.00000000       0.00000000       0.00000000      -0.02339864      -0.01711700      -0.35815562      -0.02291977      -0.01085496      -0.45896571
Cu       5.44500000       6.41699404      16.49500000        4       0.00000000       0.00000000       0.00000000       0.00000000       0.03455620      -0.01750500      -0.34866026       0.02449998      -0.01267380      -0.45993279
Cu       1.81500000       8.98379165      16.49500000        4       0.00000000       0.00000000       0.00000000       0.00000000      -0.01901416       0.00243212      -0.37367758      -0.02945812       0.00702323      -0.41639017
Cu       5.44500000       8.98379165      16.49500000        4       0.00000000       0.00000000       0.00000000       0.00000000       0.02800231       0.00537876      -0.37882485       0.02404415       0.00847778      -0.41978554
Cu      -0.00084767      -0.00988397      17.72036930        3       0.00000000       0.00022126       0.00424872       0.07515266      -0.00010231       0.00503394       0.07309809      -0.00484164       0.03437323       0.19048727
Cu       3.63065443      -0.00504364      17.69439589        3       0.00000000       0.00020807       0.00909327       0.07759935      -0.00000088       0.00981996       0.07368551      -0.00536057       0.01691314       0.08901867
Cu      -0.00051013       2.56055516      17.71543668        3       0.00000000       0.00048680       0.00076578       0.08603115       0.00022094       0.00741686       0.06788930       0.00603482      -0.05955154       0.14541407
Cu       3.63171504       2.55188023      17.68791536        3       0.00000000      -0.00008692      -0.00194346       0.07599165      -0.00022450      -0.00386054       0.08323682       0.00113071      -0.01288031       0.09530584
Cu      -0.00087457       5.12436660      17.71146393        3       0.00000000      -0.00012611       0.00269511       0.06412807      -0.00004810       0.00054276       0.06794487       0.00473501       0.07461480       0.11351380
Cu       3.63140952       5.13011076      17.68572965        3       0.00000000      -0.00016334      -0.00068359       0.07058137       0.00042705      -0.00088652       0.07532795       0.00167672      -0.00100777       0.05887998
Cu      -0.00104282       7.69247888      17.70022019        3       0.00000000       0.00007660       0.00167484       0.05539661       0.00040345       0.00131056       0.05151725      -0.00642604      -0.03374909       0.13539029
Cu       3.63021004       7.69701300      17.69116341        3       0.00000000      -0.00033628       0.00671346       0.07111694      -0.00011202       0.00449470       0.06832870      -0.00468320      -0.00868028       0.07968816
Cu       1.80398949       1.27232715      19.00319328        2       0.00000000      -0.00394026       0.01471364       0.13403707       0.00353755       0.00049239       0.13416602      -0.01511379       0.03041768      -0.05424668
Cu       5.45715663       1.27562339      19.00962281        2       0.00000000       0.00526555       0.01285147       0.13456070      -0.00390571       0.00180217       0.13225739       0.00529444       0.01988679      -0.04683554
Cu       1.82887696       3.83599520      18.96307541        2       0.00000000       0.00499064       0.00630528       0.12513851       0.00266902      -0.00525274       0.12782357       0.05570573       0.00210789      -0.01931447
Cu       5.43405876       3.83350384      18.97283723        2       0.00000000      -0.00523764       0.00516313       0.12363234      -0.00206751      -0.00569652       0.12701125      -0.04453689      -0.00104454       0.02449952
Cu       1.81964191       6.39650117      18.98796848        2       0.00000000       0.01408753       0.00368198       0.11257497       0.02046726      -0.00372950       0.11040127      -0.01484200       0.01516520      -0.02801919
Cu       5.43863876       6.39609641      18.99046557        2       0.00000000      -0.01572660       0.00549529       0.11004435      -0.02034143      -0.00276807       0.10916709       0.00248793       0.03214393      -0.03047017
Cu       1.80917897       8.97201953      18.99076887        2       0.00000000       0.00632438       0.01499264       0.11988478       0.00851408      -0.00058847       0.11826583       0.10365413      -0.00574715      -0.07267443
Cu       5.44922227       8.97427687      18.99252267        2       0.00000000      -0.00589240       0.01620714       0.11996606      -0.00849401      -0.00173539       0.11645568      -0.09654354      -0.00889938      -0.06961002
Cu      -0.00042432       0.05264069      20.20428963        1       0.00000000       0.00203436       0.01275914       0.17849984      -0.00121756      -0.01747399       0.14026274      -0.00592026      -0.08970302       0.08587820
Cu       3.62752650      -0.02273437      20.14621128        1       0.00000000       0.00096243       0.01675751       0.14695827      -0.00028584       0.01481363       0.14096840       0.01394206       0.03527505      -0.11832830
Cu       0.01209530       2.57110838      20.23138190        1       0.00000000      -0.00444279      -0.00912766       0.16303931       0.00126239      -0.01583875       0.14775614       0.04634934      -0.00853661       0.03756566
Cu       3.62470819       2.54684272      20.14041110        1       0.00000000      -0.00167583       0.00085803       0.15258759      -0.00085552      -0.00122332       0.15095710       0.00909731       0.01250420      -0.07725352
Cu      -0.00464955       5.15816785      20.19310165        1       0.00000000       0.00254748       0.00667426       0.14456028      -0.00106420      -0.02322139       0.13647589       0.06514186      -0.03063004      -0.08923359
Cu       3.62674277       5.11337436      20.14477036        1       0.00000000      -0.00021355       0.00245067       0.15082568      -0.00073784       0.00237801       0.15095227       0.00739390      -0.01680843      -0.12304658
Cu      -0.00235455       7.63332539      20.16753806        1       0.00000000       0.00012861       0.02830733       0.15644657       0.00107813      -0.00824042       0.14191859       0.00872056       0.22388091       0.08997514
Cu       3.62863754       7.68353637      20.14533092        1       0.00000000       0.00160049       0.00679431       0.14544575      -0.00247488       0.01017545       0.13957748       0.01093056       0.01255452      -0.12120451
O        0.04467604       9.61384515      22.11738207        0       0.00000000       0.00652123      -0.05872962       0.06583954      -0.01425968       0.00745505       0.09225323       0.01502199       0.09127746       0.44106636
C        0.06931048       8.37627026      21.95957400        0       0.00000000       0.00278429      -0.01399563       0.03028127      -0.00531185       0.03312714       0.05630851       0.02391538      -0.16669468       0.26963037
O        0.14724257       7.59340777      23.05550674        0       0.00000000       0.00354833       0.00541325      -0.01125254      -0.01051393       0.00795903       0.04083524      -0.13070119      -0.04205858       0.14979815
H        0.17025930       6.63935741      22.78399877        0       0.00000000       0.00471704       0.02414062      -0.00775749       0.02874298      -0.00785534       0.01051588      -0.01196719      -0.63731013      -0.63163067
O        0.06515734       3.92129216      21.67399382        0       0.50000000      -0.02405828      -0.04080437       0.02949321      -0.00020488      -0.01686346       0.03976009      -0.00293839       0.62837922      -0.06186697
H       -0.81301576       3.90639364      22.09691069        0       0.50000000       0.00456483      -0.01186805      -0.00872834      -0.03603079       0.02690367       0.01870782      -0.03199347      -0.05413332       0.09590615
62
Lattice="7.26 0.0 0.0 0.0 10.26719046282867 0.0 0.0 0.0 30.392" Properties=species:S:1:pos:R:3:tags:I:1:initial_magmoms:R:1:MACE_forces:R:3:forces:R:3:DFT_forces:R:3 MACE_energy=-251.46854086759294 energy=-252.087500241033 stress="0.0044975561111709125 8.810443933857045e-07 0.00010728813243967474 8.810443933857045e-07 0.006489355393789003 -5.9733471431731176e-05 0.00010728813243967474 -5.9733471431731176e-05 -0.0008584545804065417" free_energy=-252.087500241033 DFT_energy=-257.39304805 pbc="T T T"
Cu       0.00033949      -0.00174187      12.59832408        7       0.00000000       0.00000000       0.00000000       0.00000000      -0.00070913       0.00998676       0.41835467      -0.00100055       0.03314445       0.68199542
Cu       3.62961954      -0.00066879      12.59861168        7       0.00000000       0.00000000       0.00000000       0.00000000       0.00090900       0.00364844       0.41590338       0.00066161      -0.00555067       0.66445300
Cu       0.00101862       2.56771771      12.59716078        7       0.00000000       0.00000000       0.00000000       0.00000000      -0.00267556      -0.00613596       0.41962782      -0.00101236       0.00492691       0.68394917
Cu       3.62969450       2.56712490      12.59897555        7       0.00000000       0.00000000       0.00000000       0.00000000       0.00042427      -0.00121001       0.41446946      -0.00238234       0.00916414       0.65782907
Cu      -0.00047342       5.13341180      12.59689367        7       0.00000000       0.00000000       0.00000000       0.00000000       0.00153747       0.00294579       0.42343874       0.00376645      -0.04441934       0.70734497
Cu       3.62881816       5.13439800      12.59935624        7       0.00000000       0.00000000       0.00000000       0.00000000       0.00315459      -0.00237382       0.41353843       0.00129993      -0.00794945       0.67681834
Cu      -0.00007115       7.70138433      12.59836164        7       0.00000000       0.00000000       0.00000000       0.00000000       0.00019302      -0.00676376       0.41725205       0.00029224       0.00944537       0.69557381
Cu       3.62936263       7.70074990      12.59953804        7       0.00000000       0.00000000       0.00000000       0.00000000       0.00153043      -0.00113798       0.41318645       0.00187134       0.01040400       0.66760103
Cu       1.81500000       1.28339881      13.89700000        6       0.00000000       0.00000000       0.00000000       0.00000000      -0.00246142      -0.00126101      -0.17829908       0.00766565      -0.01052497      -0.18444471
Cu       5.44500000       1.28339881      13.89700000        6       0.00000000       0.00000000       0.00000000       0.00000000       0.00331907      -0.00088895      -0.18028805      -0.00604285      -0.01110246      -0.18244081
Cu       1.81500000       3.85019642      13.89700000        6       0.00000000       0.00000000       0.00000000       0.00000000      -0.00313913       0.00194142      -0.17643421      -0.03002075      -0.00456096      -0.18061699
Cu       5.44500000       3.85019642      13.89700000        6       0.00000000       0.00000000       0.00000000       0.00000000       0.00203186       0.00138981      -0.17817199       0.02635145      -0.00341911      -0.17697214
Cu       1.81500000       6.41699404      13.89700000        6       0.00000000       0.00000000       0.00000000       0.00000000      -0.00581862      -0.00059563      -0.17377469       0.00912879       0.01155480      -0.17179083
Cu       5.44500000       6.41699404      13.89700000        6       0.00000000       0.00000000       0.00000000       0.00000000       0.00297185      -0.00069911      -0.17500980      -0.01054150       0.01345472      -0.16945270
Cu       1.81500000       8.98379165      13.89700000        6       0.00000000       0.00000000       0.00000000       0.00000000      -0.00154084       0.00053551      -0.17360904      -0.03145945       0.00734079      -0.17408017
Cu       5.44500000       8.98379165      13.89700000        6       0.00000000       0.00000000       0.00000000       0.00000000       0.00066255       0.00081423      -0.17500788       0.03247415       0.00917228      -0.17541341
Cu       0.00000000       0.00000000      15.19600000        5       0.00000000       0.00000000       0.00000000       0.00000000       0.00021243       0.00059097      -0.19187055      -0.00197041       0.00285430      -0.04157847
Cu       3.63000000       0.00000000      15.19600000        5       0.00000000       0.00000000       0.00000000       0.00000000      -0.00011050      -0.00014670      -0.25461776       0.00049139       0.01174775      -0.12544424
Cu       0.00000000       2.56679762      15.19600000        5       0.00000000       0.00000000       0.00000000       0.00000000       0.00004872       0.00014753      -0.29541027       0.00071591      -0.01030736      -0.06791232
Cu       3.63000000       2.56679762      15.19600000        5       0.00000000       0.00000000       0.00000000       0.00000000       0.00017466       0.00025569      -0.25507050      -0.00183709      -0.00028872      -0.17697444
Cu       0.00000000       5.13359523      15.19600000        5       0.00000000       0.00000000       0.00000000       0.00000000      -0.00014161       0.00110793      -0.17818187      -0.00054075       0.01146444      -0.11346940
Cu       3.63000000       5.13359523      15.19600000        5       0.00000000       0.00000000       0.00000000       0.00000000       0.00023213       0.00097673      -0.24605226      -0.00169241      -0.00879883      -0.15786263
Cu       0.00000000       7.70039285      15.19600000        5       0.00000000       0.00000000       0.00000000       0.00000000       0.00009970      -0.00048701      -0.23835327      -0.00101332      -0.00057046      -0.15883166
Cu       3.63000000       7.70039285      15.19600000        5       0.00000000       0.00000000       0.00000000       0.00000000       0.00008192      -0.00093302      -0.24174196       0.00035414       0.00627111      -0.12632398
Cu       1.81500000       1.28339881      16.49500000        4       0.00000000       0.00000000       0.00000000       0.00000000      -0.00133813      -0.02138125      -0.37622213      -0.06155299      -0.00464027      -0.41292443
Cu       5.44500000       1.28339881      16.49500000        4       0.00000000       0.00000000       0.00000000       0.00000000       0.01010472      -0.02531666      -0.37865269       0.06885986      -0.00679661      -0.40138807
Cu       1.81500000       3.85019642      16.49500000        4       0.00000000       0.00000000       0.00000000       0.00000000      -0.00567597       0.02575148      -0.38429260      -0.04919814      -0.04884040      -0.48203445
Cu       5.44500000       3.85019642      16.49500000        4       0.00000000       0.00000000       0.00000000       0.00000000       0.01670741       0.02755879      -0.36921811       0.04793551      -0.04658326      -0.44977861
Cu       1.81500000       6.41699404      16.49500000        4       0.00000000       0.00000000       0.00000000       0.00000000      -0.02339864      -0.01711700      -0.35815562      -0.01565564      -0.01466702      -0.46667187
Cu       5.44500000       6.41699404      16.49500000        4       0.00000000       0.00000000       0.00000000       0.00000000       0.03455620      -0.01750500      -0.34866026       0.01665436      -0.01606808      -0.47117136
Cu       1.81500000       8.98379165      16.49500000        4       0.00000000       0.00000000       0.00000000       0.00000000      -0.01901416       0.00243212      -0.37367758      -0.02482663       0.01600189      -0.41388507
Cu       5.44500000       8.98379165      16.49500000        4       0.00000000       0.00000000       0.00000000       0.00000000       0.02800231       0.00537876      -0.37882485       0.01950594       0.01715204      -0.41637747
Cu      -0.00065683      -0.01033831      17.72440962        3       0.00000000       0.00014932       0.00744216       0.07167961      -0.00010231       0.00503394       0.07309809      -0.00449380       0.03635916       0.17753613
Cu       3.63061595      -0.00227403      17.69627707        3       0.00000000       0.00015580       0.01144141       0.07470852      -0.00000088       0.00981996       0.07368551      -0.00477026       0.02220250       0.08955957
Cu      -0.00035632       2.56026641      17.72733369        3       0.00000000       0.00016579       0.00659802       0.05416458       0.00022094       0.00741686       0.06788930       0.00583358      -0.05122559       0.10726160
Cu       3.63170960       2.55013713      17.68968517        3       0.00000000      -0.00057567       0.00058752       0.07638231      -0.00022450      -0.00386054       0.08323682      -0.00016882      -0.01072684       0.09560809
Cu      -0.00091760       5.12345569      17.70935451        3       0.00000000      -0.00095472       0.00642443       0.07372188      -0.00004810       0.00054276       0.06794487       0.00373770       0.07970205       0.12309319
Cu       3.63128893       5.12818924      17.68530023        3       0.00000000      -0.00080694      -0.00013864       0.07102304       0.00042705      -0.00088652       0.07532795       0.00053312      -0.00303632       0.06094848
Cu      -0.00090520       7.69217040      17.69427583        3       0.00000000      -0.00025624       0.00227268       0.06951000       0.00040345       0.00131056       0.05151725      -0.00721626      -0.03423425       0.14537597
Cu       3.63002340       7.69780569      17.69064092        3       0.00000000      -0.00093491       0.01334811       0.07202338      -0.00011202       0.00449470       0.06832870      -0.00475794      -0.00237716       0.07951129
Cu       1.79544055       1.27749916      19.01105671        2       0.00000000       0.01920480       0.00789809       0.12325302       0.00353755       0.00049239       0.13416602       0.01268727       0.02826267      -0.06519951
Cu       5.46628906       1.28034659      19.01764812        2       0.00000000      -0.02037018       0.00537563       0.12337656      -0.00390571       0.00180217       0.13225739      -0.02366469       0.01579053      -0.05762816
Cu       1.82814767       3.83629763      18.96464480        2       0.00000000       0.00136640       0.00875342       0.13015025       0.00266902      -0.00525274       0.12782357       0.05058250       0.00094628      -0.01077651
Cu       5.43431943       3.83261903      18.97419653        2       0.00000000      -0.00173440       0.01353006       0.12791333      -0.00206751      -0.00569652       0.12701125      -0.03741844       0.00679662       0.03250473
Cu       1.82294263       6.39589428      18.98551580        2       0.00000000       0.00685186       0.01273207       0.11484583       0.02046726      -0.00372950       0.11040127      -0.02315032       0.02596315      -0.02696262
Cu       5.43400953       6.39621773      18.98652332        2       0.00000000      -0.00321847       0.01158554       0.11578921      -0.02034143      -0.00276807       0.10916709       0.01840678       0.03849326      -0.02161542
Cu       1.80946466       8.97550966      18.99084121        2       0.00000000       0.00352549       0.01595734       0.12233695       0.00851408      -0.00058847       0.11826583       0.10006437      -0.00724654      -0.07121496
Cu       5.44921203       8.97829531      18.99236802        2       0.00000000      -0.00407724       0.01641243       0.12241631      -0.00849401      -0.00173539       0.11645568      -0.09456196      -0.00984610      -0.06778039
Cu       0.00050713       0.06378936      20.21712262        1       0.00000000       0.00149817      -0.01765647       0.18797279      -0.00121756      -0.01747399       0.14026274      -0.00660998      -0.11814910       0.09483358
Cu       3.62770126      -0.02136654      20.14498886        1       0.00000000       0.00022387       0.02191196       0.14986471      -0.00028584       0.01481363       0.14096840       0.01270699       0.04152198      -0.11184765
Cu       0.01104837       2.58834564      20.26177089        1       0.00000000      -0.00985700      -0.02473422       0.12562482       0.00126239      -0.01583875       0.14775614       0.03654670      -0.03095480      -0.01547543
Cu       3.62490386       2.54472390      20.14101833        1       0.00000000      -0.00154850       0.00625428       0.15363897      -0.00085552      -0.00122332       0.15095710       0.00891939       0.01898957      -0.07086342
Cu      -0.00718771       5.16709766      20.18819258        1       0.00000000       0.01000220       0.00094904       0.13388140      -0.00106420      -0.02322139       0.13647589       0.07091943      -0.03897821      -0.10426663
Cu       3.62739837       5.11105470      20.14579494        1       0.00000000      -0.00062971       0.00572629       0.14900979      -0.00073784       0.00237801       0.15095227       0.00632074      -0.01200693      -0.12588612
Cu      -0.00289890       7.63911052      20.15363620        1       0.00000000      -0.00321875       0.00465596       0.09396956       0.00107813      -0.00824042       0.14191859       0.00593972       0.20365969       0.03396104
Cu       3.62877312       7.68307129      20.14542429        1       0.00000000       0.00085709       0.01412585       0.14211801      -0.00247488       0.01017545       0.13957748       0.01002480       0.01984359      -0.12601476
O        0.04421992       9.58939738      22.12427437        0       0.00000000       0.00273758       0.00939306       0.02748420      -0.01425968       0.00745505       0.09225323       0.00821769       0.17651378       0.40794434
C        0.06631423       8.35552237      21.94753212        0       0.00000000       0.00465189       0.00643141       0.07257858      -0.00531185       0.03312714       0.05630851       0.02509628      -0.16884504       0.32549675
O        0.13842555       7.55697008      23.03103887        0       0.00000000       0.00755852      -0.00922376       0.04020056      -0.01051393       0.00795903       0.04083524      -0.11215553      -0.02920497       0.14100978
H        0.16269328       6.60624409      22.74926255        0       0.00000000       0.00924191      -0.01794838      -0.01076616       0.02874298      -0.00785534       0.01051588      -0.00821036      -0.63850821      -0.59422264
O        0.07493009       3.95861757      21.69057199        0       0.50000000      -0.00768058      -0.01643916       0.03099115      -0.00020488      -0.01686346       0.03976009       0.00346710       0.60005395      -0.07285695
H       -0.79648903       3.96658479      22.12658848        0       0.50000000      -0.01324963      -0.04553424      -0.01800327      -0.03603079       0.02690367       0.01870782      -0.05010734      -0.08876976       0.09024209
62
Lattice="7.26 0.0 0.0 0.0 10.26719046282867 0.0 0.0 0.0 30.392" Properties=species:S:1:pos:R:3:tags:I:1:initial_magmoms:R:1:MACE_forces:R:3:forces:R:3:DFT_forces:R:3 MACE_energy=-251.46533413264578 energy=-252.087500241033 stress="0.0044975561111709125 8.810443933857045e-07 0.00010728813243967474 8.810443933857045e-07 0.006489355393789003 -5.9733471431731176e-05 0.00010728813243967474 -5.9733471431731176e-05 -0.0008584545804065417" free_energy=-252.087500241033 DFT_energy=-257.38508776 pbc="T T T"
Cu       0.00033949      -0.00174187      12.59832408        7       0.00000000       0.00000000       0.00000000       0.00000000      -0.00070913       0.00998676       0.41835467      -0.00082107       0.03497749       0.68171812
Cu       3.62961954      -0.00066879      12.59861168        7       0.00000000       0.00000000       0.00000000       0.00000000       0.00090900       0.00364844       0.41590338       0.00053865      -0.00614113       0.66375950
Cu       0.00101862       2.56771771      12.59716078        7       0.00000000       0.00000000       0.00000000       0.00000000      -0.00267556      -0.00613596       0.41962782      -0.00125437       0.00386110       0.68286766
Cu       3.62969450       2.56712490      12.59897555        7       0.00000000       0.00000000       0.00000000       0.00000000       0.00042427      -0.00121001       0.41446946      -0.00216112       0.00943043       0.65730431
Cu      -0.00047342       5.13341180      12.59689367        7       0.00000000       0.00000000       0.00000000       0.00000000       0.00153747       0.00294579       0.42343874       0.00369781      -0.04562355       0.70855761
Cu       3.62881816       5.13439800      12.59935624        7       0.00000000       0.00000000       0.00000000       0.00000000       0.00315459      -0.00237382       0.41353843       0.00146912      -0.00778235       0.67732745
Cu      -0.00007115       7.70138433      12.59836164        7       0.00000000       0.00000000       0.00000000       0.00000000       0.00019302      -0.00676376       0.41725205       0.00032624       0.01014995       0.69664464
Cu       3.62936263       7.70074990      12.59953804        7       0.00000000       0.00000000       0.00000000       0.00000000       0.00153043      -0.00113798       0.41318645       0.00175903       0.01051863       0.66792363
Cu       1.81500000       1.28339881      13.89700000        6       0.00000000       0.00000000       0.00000000       0.00000000      -0.00246142      -0.00126101      -0.17829908       0.00680319      -0.01047763      -0.18270265
Cu       5.44500000       1.28339881      13.89700000        6       0.00000000       0.00000000       0.00000000       0.00000000       0.00331907      -0.00088895      -0.18028805      -0.00521791      -0.01069501      -0.17955124
Cu       1.81500000       3.85019642      13.89700000        6       0.00000000       0.00000000       0.00000000       0.00000000      -0.00313913       0.00194142      -0.17643421      -0.02952329      -0.00570766      -0.17991616
Cu       5.44500000       3.85019642      13.89700000        6       0.00000000       0.00000000       0.00000000       0.00000000       0.00203186       0.00138981      -0.17817199       0.02613752      -0.00461083      -0.17675671
Cu       1.81500000       6.41699404      13.89700000        6       0.00000000       0.00000000       0.00000000       0.00000000      -0.00581862      -0.00059563      -0.17377469       0.00979346       0.01137863      -0.17206022
Cu       5.44500000       6.41699404      13.89700000        6       0.00000000       0.00000000       0.00000000       0.00000000       0.00297185      -0.00069911      -0.17500980      -0.01108945       0.01280110      -0.16965817
Cu       1.81500000       8.98379165      13.89700000        6       0.00000000       0.00000000       0.00000000       0.00000000      -0.00154084       0.00053551      -0.17360904      -0.03100353       0.00826584      -0.17347838
Cu       5.44500000       8.98379165      13.89700000        6       0.00000000       0.00000000       0.00000000       0.00000000       0.00066255       0.00081423      -0.17500788       0.03211184       0.00990674      -0.17445889
Cu       0.00000000       0.00000000      15.19600000        5       0.00000000       0.00000000       0.00000000       0.00000000       0.00021243       0.00059097      -0.19187055      -0.00165071       0.00222440      -0.03201135
Cu       3.63000000       0.00000000      15.19600000        5       0.00000000       0.00000000       0.00000000       0.00000000      -0.00011050      -0.00014670      -0.25461776       0.00037452       0.01228482      -0.12457264
Cu       0.00000000       2.56679762      15.19600000        5       0.00000000       0.00000000       0.00000000       0.00000000       0.00004872       0.00014753      -0.29541027       0.00054906      -0.01100322      -0.06175178
Cu       3.63000000       2.56679762      15.19600000        5       0.00000000       0.00000000       0.00000000       0.00000000       0.00017466       0.00025569      -0.25507050      -0.00176509      -0.00028816      -0.17162335
Cu       0.00000000       5.13359523      15.19600000        5       0.00000000       0.00000000       0.00000000       0.00000000      -0.00014161       0.00110793      -0.17818187      -0.00059317       0.01010570      -0.11879202
Cu       3.63000000       5.13359523      15.19600000        5       0.00000000       0.00000000       0.00000000       0.00000000       0.00023213       0.00097673      -0.24605226      -0.00144032      -0.00937598      -0.15726427
Cu       0.00000000       7.70039285      15.19600000        5       0.00000000       0.00000000       0.00000000       0.00000000       0.00009970      -0.00048701      -0.23835327      -0.00084834       0.00033438      -0.17914387
Cu       3.63000000       7.70039285      15.19600000        5       0.00000000       0.00000000       0.00000000       0.00000000       0.00008192      -0.00093302      -0.24174196       0.00026303       0.00575391      -0.12765455
Cu       1.81500000       1.28339881      16.49500000        4       0.00000000       0.00000000       0.00000000       0.00000000      -0.00133813      -0.02138125      -0.37622213      -0.06995411       0.00008627      -0.39580054
Cu       5.44500000       1.28339881      16.49500000        4       0.00000000       0.00000000       0.00000000       0.00000000       0.01010472      -0.02531666      -0.37865269       0.07645371      -0.00236083      -0.38481469
Cu       1.81500000       3.85019642      16.49500000        4       0.00000000       0.00000000       0.00000000       0.00000000      -0.00567597       0.02575148      -0.38429260      -0.04915163      -0.05347919      -0.47338493
Cu       5.44500000       3.85019642      16.49500000        4       0.00000000       0.00000000       0.00000000       0.00000000       0.01670741       0.02755879      -0.36921811       0.04639750      -0.05158794      -0.44286316
Cu       1.81500000       6.41699404      16.49500000        4       0.00000000       0.00000000       0.00000000       0.00000000      -0.02339864      -0.01711700      -0.35815562      -0.00642879      -0.01495721      -0.47856796
Cu       5.44500000       6.41699404      16.49500000        4       0.00000000       0.00000000       0.00000000       0.00000000       0.03455620      -0.01750500      -0.34866026       0.00476654      -0.01566358      -0.48372031
Cu       1.81500000       8.98379165      16.49500000        4       0.00000000       0.00000000       0.00000000       0.00000000      -0.01901416       0.00243212      -0.37367758      -0.02402415       0.03125504      -0.41308528
Cu       5.44500000       8.98379165      16.49500000        4       0.00000000       0.00000000       0.00000000       0.00000000       0.02800231       0.00537876      -0.37882485       0.01775511       0.03206598      -0.41494292
Cu      -0.00052828      -0.00774057      17.72962564        3       0.00000000      -0.00056904       0.00987331       0.06790612      -0.00010231       0.00503394       0.07309809      -0.00499809       0.03693991       0.16643837
Cu       3.63056921       0.00291946      17.69708541        3       0.00000000      -0.00036223       0.00347815       0.07275699      -0.00000088       0.00981996       0.07368551      -0.00484931       0.01804085       0.08782439
Cu      -0.00036966       2.56292161      17.72950302        3       0.00000000      -0.00073456       0.00174063       0.06907087       0.00022094       0.00741686       0.06788930       0.00357555      -0.05332185       0.12505986
Cu       3.63160981       2.55037982      17.69197213        3       0.00000000       0.00023268       0.00931469       0.07341767      -0.00022450      -0.00386054       0.08323682       0.00057605      -0.00268796       0.09014485
Cu      -0.00123780       5.12482064      17.70821383        3       0.00000000       0.00158307       0.00900972       0.06212075      -0.00004810       0.00054276       0.06794487       0.00664291       0.08555915       0.10524458
Cu       3.63090175       5.12698022      17.68466643        3       0.00000000       0.00025619       0.00640294       0.07209021       0.00042705      -0.00088652       0.07532795       0.00073729       0.00418083       0.06359950
Cu      -0.00088107       7.69374416      17.68719276        3       0.00000000      -0.00029197       0.00719348       0.06430318       0.00040345       0.00131056       0.05151725      -0.00777495      -0.02859239       0.13459378
Cu       3.62955086       7.70297855      17.68961939        3       0.00000000       0.00147615       0.00493694       0.06973985      -0.00011202       0.00449470       0.06832870      -0.00158893      -0.00776875       0.07606151
Cu       1.79247931       1.28284217      19.01667284        2       0.00000000       0.00333439       0.01008404       0.12207823       0.00353755       0.00049239       0.13416602      -0.00594519       0.03345825      -0.06349152
Cu       5.46917064       1.28514486      19.02370763        2       0.00000000      -0.00531574       0.00868212       0.12005715      -0.00390571       0.00180217       0.13225739      -0.00399919       0.02355897      -0.05657047
Cu       1.82586770       3.83911856      18.96776849        2       0.00000000       0.00836357       0.00364109       0.11863786       0.00266902      -0.00525274       0.12782357       0.05934035      -0.00771300      -0.02146048
Cu       5.43611102       3.83598806      18.97709649        2       0.00000000      -0.00765207       0.00606767       0.11770213      -0.00206751      -0.00569652       0.12701125      -0.04358580      -0.00349774       0.02435194
Cu       1.82734988       6.40019502      18.98154688        2       0.00000000       0.01042045       0.01107395       0.11529663       0.02046726      -0.00372950       0.11040127      -0.01876044       0.02397269      -0.02758193
Cu       5.42955353       6.40024761      18.98194235        2       0.00000000      -0.00841682       0.01034323       0.11795550      -0.02034143      -0.00276807       0.10916709       0.01212515       0.03833036      -0.02110381
Cu       1.80919390       8.98336388      18.99135477        2       0.00000000       0.00959857       0.01132541       0.11718055       0.00851408      -0.00058847       0.11826583       0.10621823      -0.01035074      -0.07905697
Cu       5.44904925       8.98667925      18.99251725        2       0.00000000      -0.01026194       0.01047724       0.11746219      -0.00849401      -0.00173539       0.11645568      -0.10125226      -0.01390254      -0.07639065
Cu       0.00141964       0.06864885      20.23302291        1       0.00000000      -0.00038390      -0.01123200       0.16876926      -0.00121756      -0.01747399       0.14026274      -0.00909893      -0.10243775       0.06975373
Cu       3.62747662      -0.01541540      20.14499844        1       0.00000000      -0.00050826       0.01813083       0.15510666      -0.00028584       0.01481363       0.14096840       0.01122550       0.03684986      -0.10286766
Cu       0.00899239       2.60102078      20.28012108        1       0.00000000      -0.00015877      -0.00396160       0.12835308       0.00126239      -0.01583875       0.14775614       0.04240239       0.00538197      -0.00554747
Cu       3.62494860       2.54695816      20.14248184        1       0.00000000      -0.00037074       0.01425750       0.15535290      -0.00085552      -0.00122332       0.15095710       0.01042032       0.02797744      -0.06547114
Cu      -0.00672362       5.17655452      20.17616934        1       0.00000000       0.00596326       0.00127146       0.14136277      -0.00106420      -0.02322139       0.13647589       0.06573542      -0.04636729      -0.09197738
Cu       3.62800191       5.11180510      20.14572366        1       0.00000000      -0.00276513       0.01471791       0.14883272      -0.00073784       0.00237801       0.15095227       0.00285410      -0.00070931      -0.12815301
Cu      -0.00425217       7.64576151      20.12989648        1       0.00000000      -0.00035504       0.00111422       0.12643223       0.00107813      -0.00824042       0.14191859       0.01105815       0.19659125       0.08341431
Cu       3.62864472       7.68820258      20.14357663        1       0.00000000       0.00224283       0.01465892       0.14695249      -0.00247488       0.01017545       0.13957748       0.01086684       0.01799857      -0.12412150
O        0.04336364       9.55830102      22.12952467        0       0.00000000       0.00139273       0.02042770       0.02267745      -0.01425968       0.00745505       0.09225323       0.00561745       0.19224243       0.40986192
C        0.06358613       8.32748082      21.93414021        0       0.00000000       0.00434649       0.02747533       0.07633837      -0.00531185       0.03312714       0.05630851       0.03297459      -0.19977136       0.31390146
O        0.13021659       7.51016872      23.00281405        0       0.00000000       0.01154579      -0.02801568       0.03303267      -0.01051393       0.00795903       0.04083524      -0.10687669      -0.10476711       0.10141830
H        0.15809164       6.56310152      22.70486197        0       0.00000000       0.01187503      -0.02355345       0.00925195       0.02874298      -0.00785534       0.01051588      -0.00602911      -0.63157125      -0.58952141
O        0.08653379       4.00696148      21.70303396        0       0.50000000      -0.00396722      -0.05695077       0.00962418      -0.00020488      -0.01686346       0.03976009       0.00538606       0.61752401      -0.05641853
H       -0.78263356       4.02036047      22.14291782        0       0.50000000      -0.02681987      -0.05319739      -0.01829096      -0.03603079       0.02690367       0.01870782      -0.06526675      -0.10079362       0.09053856
62
Lattice="7.26 0.0 0.0 0.0 10.26719046282867 0.0 0.0 0.0 30.392" Properties=species:S:1:pos:R:3:tags:I:1:initial_magmoms:R:1:MACE_forces:R:3:forces:R:3:DFT_forces:R:3 MACE_energy=-251.45645415301112 energy=-252.087500241033 stress="0.0044975561111709125 8.810443933857045e-07 0.00010728813243967474 8.810443933857045e-07 0.006489355393789003 -5.9733471431731176e-05 0.00010728813243967474 -5.9733471431731176e-05 -0.0008584545804065417" free_energy=-252.087500241033 DFT_energy=-257.36758584 pbc="T T T"
Cu       0.00033949      -0.00174187      12.59832408        7       0.00000000       0.00000000       0.00000000       0.00000000      -0.00070913       0.00998676       0.41835467      -0.00082277       0.03631583       0.68116971
Cu       3.62961954      -0.00066879      12.59861168        7       0.00000000       0.00000000       0.00000000       0.00000000       0.00090900       0.00364844       0.41590338       0.00037538      -0.00720771       0.66313070
Cu       0.00101862       2.56771771      12.59716078        7       0.00000000       0.00000000       0.00000000       0.00000000      -0.00267556      -0.00613596       0.41962782      -0.00138834       0.00240604       0.68203748
Cu       3.62969450       2.56712490      12.59897555        7       0.00000000       0.00000000       0.00000000       0.00000000       0.00042427      -0.00121001       0.41446946      -0.00206337       0.00936474       0.65683135
Cu      -0.00047342       5.13341180      12.59689367        7       0.00000000       0.00000000       0.00000000       0.00000000       0.00153747       0.00294579       0.42343874       0.00363660      -0.04729115       0.70964684
Cu       3.62881816       5.13439800      12.59935624        7       0.00000000       0.00000000       0.00000000       0.00000000       0.00315459      -0.00237382       0.41353843       0.00153057      -0.00817154       0.67778939
Cu      -0.00007115       7.70138433      12.59836164        7       0.00000000       0.00000000       0.00000000       0.00000000       0.00019302      -0.00676376       0.41725205       0.00024685       0.01079015       0.69774105
Cu       3.62936263       7.70074990      12.59953804        7       0.00000000       0.00000000       0.00000000       0.00000000       0.00153043      -0.00113798       0.41318645       0.00170223       0.01027542       0.66816837
Cu       1.81500000       1.28339881      13.89700000        6       0.00000000       0.00000000       0.00000000       0.00000000      -0.00246142      -0.00126101      -0.17829908       0.00569290      -0.01097561      -0.18001473
Cu       5.44500000       1.28339881      13.89700000        6       0.00000000       0.00000000       0.00000000       0.00000000       0.00331907      -0.00088895      -0.18028805      -0.00417555      -0.01088595      -0.17717342
Cu       1.81500000       3.85019642      13.89700000        6       0.00000000       0.00000000       0.00000000       0.00000000      -0.00313913       0.00194142      -0.17643421      -0.02905446      -0.00741916      -0.17938317
Cu       5.44500000       3.85019642      13.89700000        6       0.00000000       0.00000000       0.00000000       0.00000000       0.00203186       0.00138981      -0.17817199       0.02555538      -0.00628527      -0.17647551
Cu       1.81500000       6.41699404      13.89700000        6       0.00000000       0.00000000       0.00000000       0.00000000      -0.00581862      -0.00059563      -0.17377469       0.01029154       0.01101917      -0.17242706
Cu       5.44500000       6.41699404      13.89700000        6       0.00000000       0.00000000       0.00000000       0.00000000       0.00297185      -0.00069911      -0.17500980      -0.01169344       0.01196692      -0.17007839
Cu       1.81500000       8.98379165      13.89700000        6       0.00000000       0.00000000       0.00000000       0.00000000      -0.00154084       0.00053551      -0.17360904      -0.03045945       0.00887935      -0.17289226
Cu       5.44500000       8.98379165      13.89700000        6       0.00000000       0.00000000       0.00000000       0.00000000       0.00066255       0.00081423      -0.17500788       0.03167808       0.01005785      -0.17379349
Cu       0.00000000       0.00000000      15.19600000        5       0.00000000       0.00000000       0.00000000       0.00000000       0.00021243       0.00059097      -0.19187055      -0.00134005       0.00149481      -0.02394522
Cu       3.63000000       0.00000000      15.19600000        5       0.00000000       0.00000000       0.00000000       0.00000000      -0.00011050      -0.00014670      -0.25461776       0.00014800       0.01224370      -0.12382066
Cu       0.00000000       2.56679762      15.19600000        5       0.00000000       0.00000000       0.00000000       0.00000000       0.00004872       0.00014753      -0.29541027       0.00038919      -0.01228870      -0.05342288
Cu       3.63000000       2.56679762      15.19600000        5       0.00000000       0.00000000       0.00000000       0.00000000       0.00017466       0.00025569      -0.25507050      -0.00182597      -0.00132091      -0.16795582
Cu       0.00000000       5.13359523      15.19600000        5       0.00000000       0.00000000       0.00000000       0.00000000      -0.00014161       0.00110793      -0.17818187      -0.00082154       0.00771919      -0.13473789
Cu       3.63000000       5.13359523      15.19600000        5       0.00000000       0.00000000       0.00000000       0.00000000       0.00023213       0.00097673      -0.24605226      -0.00120087      -0.01066791      -0.15959435
Cu       0.00000000       7.70039285      15.19600000        5       0.00000000       0.00000000       0.00000000       0.00000000       0.00009970      -0.00048701      -0.23835327      -0.00074855       0.00057774      -0.20446476
Cu       3.63000000       7.70039285      15.19600000        5       0.00000000       0.00000000       0.00000000       0.00000000       0.00008192      -0.00093302      -0.24174196       0.00013982       0.00500165      -0.13293948
Cu       1.81500000       1.28339881      16.49500000        4       0.00000000       0.00000000       0.00000000       0.00000000      -0.00133813      -0.02138125      -0.37622213      -0.07650600       0.00738366      -0.37960840
Cu       5.44500000       1.28339881      16.49500000        4       0.00000000       0.00000000       0.00000000       0.00000000       0.01010472      -0.02531666      -0.37865269       0.08256707       0.00422835      -0.36779028
Cu       1.81500000       3.85019642      16.49500000        4       0.00000000       0.00000000       0.00000000       0.00000000      -0.00567597       0.02575148      -0.38429260      -0.04847066      -0.05952710      -0.47578842
Cu       5.44500000       3.85019642      16.49500000        4       0.00000000       0.00000000       0.00000000       0.00000000       0.01670741       0.02755879      -0.36921811       0.04604568      -0.05735330      -0.44430703
Cu       1.81500000       6.41699404      16.49500000        4       0.00000000       0.00000000       0.00000000       0.00000000      -0.02339864      -0.01711700      -0.35815562       0.00427390      -0.01161183      -0.49658604
Cu       5.44500000       6.41699404      16.49500000        4       0.00000000       0.00000000       0.00000000       0.00000000       0.03455620      -0.01750500      -0.34866026      -0.00672502      -0.01215777      -0.50252055
Cu       1.81500000       8.98379165      16.49500000        4       0.00000000       0.00000000       0.00000000       0.00000000      -0.01901416       0.00243212      -0.37367758      -0.02296629       0.04984237      -0.41659490
Cu       5.44500000       8.98379165      16.49500000        4       0.00000000       0.00000000       0.00000000       0.00000000       0.02800231       0.00537876      -0.37882485       0.01538539       0.05020154      -0.41872562
Cu      -0.00069264      -0.00349484      17.73433390        3       0.00000000      -0.00030276       0.00499525       0.06158554      -0.00010231       0.00503394       0.07309809      -0.00436759       0.03094107       0.15281755
Cu       3.63051669       0.00832732      17.69775828        3       0.00000000      -0.00048650       0.00470738       0.07590140      -0.00000088       0.00981996       0.07368551      -0.00508147       0.02353253       0.09008978
Cu      -0.00050115       2.56594135      17.73337145        3       0.00000000      -0.00032094       0.00514734       0.06002788       0.00022094       0.00741686       0.06788930       0.00431625      -0.04654177       0.11257218
Cu       3.63185483       2.55252233      17.69385556        3       0.00000000      -0.00010504       0.00330156       0.07215579      -0.00022450      -0.00386054       0.08323682       0.00059728      -0.01011931       0.08755222
Cu      -0.00122962       5.12802128      17.70281238        3       0.00000000       0.00114050       0.00770120       0.06786097      -0.00004810       0.00054276       0.06794487       0.00583592       0.08725098       0.10550656
Cu       3.63083806       5.12758479      17.68331204        3       0.00000000       0.00075630       0.00902385       0.07226769       0.00042705      -0.00088652       0.07532795       0.00058584       0.00725603       0.06436346
Cu      -0.00096933       7.69757533      17.67887646        3       0.00000000      -0.00032034       0.00708261       0.06514965       0.00040345       0.00131056       0.05151725      -0.00871051      -0.02622038       0.13165742
Cu       3.62935763       7.70859050      17.68724963        3       0.00000000       0.00184127       0.00061598       0.07454329      -0.00011202       0.00449470       0.06832870      -0.00057660      -0.00828002       0.08122949
Cu       1.78678251       1.29024084      19.02208772        2       0.00000000       0.01546589       0.00560687       0.11881679       0.00353755       0.00049239       0.13416602       0.00590847       0.03022498      -0.06338840
Cu       5.47517770       1.29272291      19.03024099        2       0.00000000      -0.01718141       0.00376115       0.11612346      -0.00390571       0.00180217       0.13225739      -0.01453821       0.01903545      -0.06272146
Cu       1.82555247       3.84338207      18.96714655        2       0.00000000       0.01093825       0.00815066       0.11848781       0.00266902      -0.00525274       0.12782357       0.06284133      -0.00460978      -0.01919033
Cu       5.43674803       3.83981305      18.97723791        2       0.00000000      -0.00893770       0.01205916       0.11769240      -0.00206751      -0.00569652       0.12701125      -0.04556731       0.00110964       0.02701753
Cu       1.83317650       6.40703869      18.97629522        2       0.00000000       0.00984531       0.00761249       0.11698618       0.02046726      -0.00372950       0.11040127      -0.01759579       0.02302138      -0.02643830
Cu       5.42323776       6.40676587      18.97634529        2       0.00000000      -0.00609561       0.00522332       0.12059881      -0.02034143      -0.00276807       0.10916709       0.01309736       0.03337800      -0.01902355
Cu       1.80972005       8.99290292      18.99059338        2       0.00000000       0.01064567       0.00697935       0.11765545       0.00851408      -0.00058847       0.11826583       0.10734655      -0.01280572      -0.07997525
Cu       5.44770849       8.99680693      18.99149571        2       0.00000000      -0.01003341       0.00594940       0.11873525      -0.00849401      -0.00173539       0.11645568      -0.10005688      -0.01813208      -0.07683859
Cu       0.00223309       0.07540406      20.24794185        1       0.00000000      -0.00156859      -0.02570826       0.15989636      -0.00121756      -0.01747399       0.14026274      -0.01166256      -0.11119504       0.05230216
Cu       3.62695477      -0.00705799      20.14589727        1       0.00000000      -0.00005988       0.02155545       0.15181544      -0.00028584       0.01481363       0.14096840       0.01136025       0.04021949      -0.10574268
Cu       0.01051376       2.61522080      20.29429756        1       0.00000000      -0.00215326      -0.01338309       0.11219768       0.00126239      -0.01583875       0.14775614       0.03923380      -0.00530604      -0.02475248
Cu       3.62459149       2.55294922      20.14422408        1       0.00000000       0.00022021       0.01261960       0.15125138      -0.00085552      -0.00122332       0.15095710       0.01088404       0.02453972      -0.06871830
Cu      -0.00591990       5.18931983      20.15946725        1       0.00000000       0.00779361      -0.02103082       0.15346399      -0.00106420      -0.02322139       0.13647589       0.06233920      -0.07286800      -0.07769264
Cu       3.62831469       5.11634631      20.14521142        1       0.00000000      -0.00374417       0.01801080       0.14892923      -0.00073784       0.00237801       0.15095227       0.00173845       0.00287997      -0.13072463
Cu      -0.00562624       7.65070744      20.10546788        1       0.00000000       0.00270006       0.01973053       0.17146087       0.00107813      -0.00824042       0.14191859       0.01832737       0.21576200       0.12907048
Cu       3.62852470       7.69678665      20.14239417        1       0.00000000       0.00265303       0.01394035       0.14804840      -0.00247488       0.01017545       0.13957748       0.01191208       0.01644761      -0.12557590
O        0.04214902       9.52389192      22.13284846        0       0.00000000       0.00339185      -0.02578081       0.05957823      -0.01425968       0.00745505       0.09225323       0.00679185       0.14841699       0.45219125
C        0.06200276       8.29594878      21.92070538        0       0.00000000       0.00599181      -0.01392210       0.05159006      -0.00531185       0.03312714       0.05630851       0.03530782      -0.11936432       0.32549146
O        0.12597173       7.45545051      22.97244910        0       0.00000000       0.01301791       0.06442731       0.03927478      -0.01051393       0.00795903       0.04083524      -0.11730438      -0.09429287       0.12440267
H        0.15941690       6.51135451      22.66239434        0       0.00000000       0.01215775      -0.00783072      -0.01172641       0.02874298      -0.00785534       0.01051588      -0.00433992      -0.68164570      -0.59148846
O        0.09314406       4.04329181      21.70279613        0       0.50000000      -0.02023393      -0.04144940       0.02893499      -0.00020488      -0.01686346       0.03976009       0.00401320       0.64462557      -0.08156228
H       -0.77601076       4.06967664      22.14270892        0       0.50000000      -0.02173090      -0.07339071      -0.01921806      -0.03603079       0.02690367       0.01870782      -0.06203208      -0.12386494       0.08609450
62
Lattice="7.26 0.0 0.0 0.0 10.26719046282867 0.0 0.0 0.0 30.392" Properties=species:S:1:pos:R:3:tags:I:1:initial_magmoms:R:1:MACE_forces:R:3:forces:R:3:DFT_forces:R:3 MACE_energy=-251.44071062264078 energy=-252.087500241033 stress="0.0044975561111709125 8.810443933857045e-07 0.00010728813243967474 8.810443933857045e-07 0.006489355393789003 -5.9733471431731176e-05 0.00010728813243967474 -5.9733471431731176e-05 -0.0008584545804065417" free_energy=-252.087500241033 DFT_energy=-257.34339777 pbc="T T T"
Cu       0.00033949      -0.00174187      12.59832408        7       0.00000000       0.00000000       0.00000000       0.00000000      -0.00070913       0.00998676       0.41835467      -0.00096040       0.03767285       0.68135990
Cu       3.62961954      -0.00066879      12.59861168        7       0.00000000       0.00000000       0.00000000       0.00000000       0.00090900       0.00364844       0.41590338       0.00026217      -0.00862404       0.66313568
Cu       0.00101862       2.56771771      12.59716078        7       0.00000000       0.00000000       0.00000000       0.00000000      -0.00267556      -0.00613596       0.41962782      -0.00145112       0.00032980       0.68203513
Cu       3.62969450       2.56712490      12.59897555        7       0.00000000       0.00000000       0.00000000       0.00000000       0.00042427      -0.00121001       0.41446946      -0.00207621       0.00975942       0.65691933
Cu      -0.00047342       5.13341180      12.59689367        7       0.00000000       0.00000000       0.00000000       0.00000000       0.00153747       0.00294579       0.42343874       0.00329105      -0.04890752       0.71154097
Cu       3.62881816       5.13439800      12.59935624        7       0.00000000       0.00000000       0.00000000       0.00000000       0.00315459      -0.00237382       0.41353843       0.00161938      -0.00872209       0.67874940
Cu      -0.00007115       7.70138433      12.59836164        7       0.00000000       0.00000000       0.00000000       0.00000000       0.00019302      -0.00676376       0.41725205       0.00003855       0.01152574       0.69994913
Cu       3.62936263       7.70074990      12.59953804        7       0.00000000       0.00000000       0.00000000       0.00000000       0.00153043      -0.00113798       0.41318645       0.00165216       0.01015237       0.66894865
Cu       1.81500000       1.28339881      13.89700000        6       0.00000000       0.00000000       0.00000000       0.00000000      -0.00246142      -0.00126101      -0.17829908       0.00358819      -0.01101074      -0.17588827
Cu       5.44500000       1.28339881      13.89700000        6       0.00000000       0.00000000       0.00000000       0.00000000       0.00331907      -0.00088895      -0.18028805      -0.00260423      -0.01086564      -0.17545481
Cu       1.81500000       3.85019642      13.89700000        6       0.00000000       0.00000000       0.00000000       0.00000000      -0.00313913       0.00194142      -0.17643421      -0.02809659      -0.00926663      -0.17834122
Cu       5.44500000       3.85019642      13.89700000        6       0.00000000       0.00000000       0.00000000       0.00000000       0.00203186       0.00138981      -0.17817199       0.02442047      -0.00826388      -0.17565732
Cu       1.81500000       6.41699404      13.89700000        6       0.00000000       0.00000000       0.00000000       0.00000000      -0.00581862      -0.00059563      -0.17377469       0.01096000       0.01008700      -0.17198704
Cu       5.44500000       6.41699404      13.89700000        6       0.00000000       0.00000000       0.00000000       0.00000000       0.00297185      -0.00069911      -0.17500980      -0.01244843       0.01124465      -0.16979633
Cu       1.81500000       8.98379165      13.89700000        6       0.00000000       0.00000000       0.00000000       0.00000000      -0.00154084       0.00053551      -0.17360904      -0.02957113       0.00954841      -0.17137568
Cu       5.44500000       8.98379165      13.89700000        6       0.00000000       0.00000000       0.00000000       0.00000000       0.00066255       0.00081423      -0.17500788       0.03072962       0.01020874      -0.17229194
Cu       0.00000000       0.00000000      15.19600000        5       0.00000000       0.00000000       0.00000000       0.00000000       0.00021243       0.00059097      -0.19187055      -0.00131487       0.00065631      -0.01734112
Cu       3.63000000       0.00000000      15.19600000        5       0.00000000       0.00000000       0.00000000       0.00000000      -0.00011050      -0.00014670      -0.25461776       0.00002197       0.01236432      -0.12104038
Cu       0.00000000       2.56679762      15.19600000        5       0.00000000       0.00000000       0.00000000       0.00000000       0.00004872       0.00014753      -0.29541027       0.00022031      -0.01392070      -0.04056175
Cu       3.63000000       2.56679762      15.19600000        5       0.00000000       0.00000000       0.00000000       0.00000000       0.00017466       0.00025569      -0.25507050      -0.00196901      -0.00178628      -0.16386601
Cu       0.00000000       5.13359523      15.19600000        5       0.00000000       0.00000000       0.00000000       0.00000000      -0.00014161       0.00110793      -0.17818187      -0.00089947       0.00470363      -0.15584240
Cu       3.63000000       5.13359523      15.19600000        5       0.00000000       0.00000000       0.00000000       0.00000000       0.00023213       0.00097673      -0.24605226      -0.00123847      -0.01160887      -0.16204941
Cu       0.00000000       7.70039285      15.19600000        5       0.00000000       0.00000000       0.00000000       0.00000000       0.00009970      -0.00048701      -0.23835327      -0.00082473       0.00180468      -0.22864372
Cu       3.63000000       7.70039285      15.19600000        5       0.00000000       0.00000000       0.00000000       0.00000000       0.00008192      -0.00093302      -0.24174196       0.00011476       0.00436485      -0.13639897
Cu       1.81500000       1.28339881      16.49500000        4       0.00000000       0.00000000       0.00000000       0.00000000      -0.00133813      -0.02138125      -0.37622213      -0.08632194       0.01278467      -0.35967549
Cu       5.44500000       1.28339881      16.49500000        4       0.00000000       0.00000000       0.00000000       0.00000000       0.01010472      -0.02531666      -0.37865269       0.09346801       0.00943214      -0.34156522
Cu       1.81500000       3.85019642      16.49500000        4       0.00000000       0.00000000       0.00000000       0.00000000      -0.00567597       0.02575148      -0.38429260      -0.04567097      -0.07036182      -0.48083890
Cu       5.44500000       3.85019642      16.49500000        4       0.00000000       0.00000000       0.00000000       0.00000000       0.01670741       0.02755879      -0.36921811       0.04414356      -0.06860203      -0.44599261
Cu       1.81500000       6.41699404      16.49500000        4       0.00000000       0.00000000       0.00000000       0.00000000      -0.02339864      -0.01711700      -0.35815562       0.01485829      -0.00885353      -0.51470638
Cu       5.44500000       6.41699404      16.49500000        4       0.00000000       0.00000000       0.00000000       0.00000000       0.03455620      -0.01750500      -0.34866026      -0.01935990      -0.00807425      -0.52508267
Cu       1.81500000       8.98379165      16.49500000        4       0.00000000       0.00000000       0.00000000       0.00000000      -0.01901416       0.00243212      -0.37367758      -0.02024779       0.06667831      -0.41892397
Cu       5.44500000       8.98379165      16.49500000        4       0.00000000       0.00000000       0.00000000       0.00000000       0.02800231       0.00537876      -0.37882485       0.01042444       0.06602308      -0.42084821
Cu      -0.00088665      -0.00096745      17.73879894        3       0.00000000      -0.00007733       0.00671431       0.06354147      -0.00010231       0.00503394       0.07309809      -0.00466836       0.03015517       0.14612375
Cu       3.63054249       0.01328964      17.69911477        3       0.00000000      -0.00002980       0.00292829       0.07422467      -0.00000088       0.00981996       0.07368551      -0.00400912       0.02324409       0.09001232
Cu      -0.00027440       2.56866655      17.73884920        3       0.00000000      -0.00043448       0.00523809       0.05487507       0.00022094       0.00741686       0.06788930       0.00363625      -0.04301906       0.10214748
Cu       3.63224707       2.55215386      17.69561306        3       0.00000000       0.00005263       0.00550718       0.07138715      -0.00022450      -0.00386054       0.08323682       0.00017688      -0.00862439       0.08530003
Cu      -0.00153318       5.12985026      17.69584035        3       0.00000000       0.00136692       0.00875586       0.07248328      -0.00004810       0.00054276       0.06794487       0.00447807       0.09207755       0.10177106
Cu       3.63096147       5.12719248      17.68140128        3       0.00000000       0.00083095       0.00975331       0.07331782       0.00042705      -0.00088652       0.07532795       0.00001535       0.00726594       0.06778413
Cu      -0.00112642       7.70023866      17.67109059        3       0.00000000      -0.00029061       0.00645522       0.06406115       0.00040345       0.00131056       0.05151725      -0.00813624      -0.02601806       0.12543197
Cu       3.62883218       7.71307813      17.68529523        3       0.00000000       0.00268864       0.00143594       0.07649539      -0.00011202       0.00449470       0.06832870       0.00054837      -0.00676453       0.08267653
Cu       1.77998774       1.29644170      19.02901741        2       0.00000000       0.01721547       0.00306510       0.11690142       0.00353755       0.00049239       0.13416602       0.00464943       0.02901694      -0.06566562
Cu       5.48353891       1.29963483      19.03966417        2       0.00000000      -0.01992594       0.00065220       0.11345602      -0.00390571       0.00180217       0.13225739      -0.01215505       0.02012988      -0.06061885
Cu       1.82652068       3.84788052      18.96552570        2       0.00000000       0.00974301       0.00651378       0.12205668       0.00266902      -0.00525274       0.12782357       0.05852995      -0.00782563      -0.01011280
Cu       5.43691342       3.84152430      18.97730052        2       0.00000000      -0.00913845       0.01444677       0.11900348      -0.00206751      -0.00569652       0.12701125      -0.04406261       0.00101344       0.03200188
Cu       1.83892848       6.41183298      18.97103815        2       0.00000000       0.00785677       0.00892696       0.11997733       0.02046726      -0.00372950       0.11040127      -0.01464987       0.02669260      -0.02942535
Cu       5.41555419       6.41188419      18.96961545        2       0.00000000      -0.00095534       0.00529656       0.12560642      -0.02034143      -0.00276807       0.10916709       0.01274249       0.03618948      -0.01948813
Cu       1.80996782       9.00030425      18.98988706        2       0.00000000       0.01176141       0.00792902       0.11910938       0.00851408      -0.00058847       0.11826583       0.10742087      -0.01580930      -0.07813238
Cu       5.44657966       9.00528599      18.99080635        2       0.00000000      -0.01031910       0.00634313       0.12050862      -0.00849401      -0.00173539       0.11645568      -0.09774715      -0.02254185      -0.07389589
Cu       0.00378420       0.08034028      20.26700892        1       0.00000000      -0.00138553      -0.03647634       0.16564656      -0.00121756      -0.01747399       0.14026274      -0.01216399      -0.11557234       0.03867149
Cu       3.62649209      -0.00018153      20.14563979        1       0.00000000       0.00012319       0.02294185       0.15328152      -0.00028584       0.01481363       0.14096840       0.01162199       0.04376159      -0.09928734
Cu       0.01860136       2.63888944      20.31623008        1       0.00000000      -0.01277224      -0.02682332       0.10232211       0.00126239      -0.01583875       0.14775614       0.02513845      -0.00023031      -0.02946141
Cu       3.62318389       2.55594341      20.14510180        1       0.00000000       0.00164495       0.01665636       0.15079087      -0.00085552      -0.00122332       0.15095710       0.01430605       0.02927574      -0.06448518
Cu      -0.00866768       5.20108498      20.13728349        1       0.00000000       0.01271184      -0.02618846       0.15902049      -0.00106420      -0.02322139       0.13647589       0.06852632      -0.07397001      -0.06331545
Cu       3.62914445       5.11888413      20.14485501        1       0.00000000      -0.00448695       0.02022566       0.14887831      -0.00073784       0.00237801       0.15095227      -0.00109431       0.00620472      -0.13336573
Cu      -0.00744647       7.65517060      20.08197221        1       0.00000000       0.00351017       0.01506340       0.16273923       0.00107813      -0.00824042       0.14191859       0.02037284       0.19976452       0.12662003
Cu       3.62800456       7.70318430      20.14168805        1       0.00000000       0.00354352       0.01594023       0.14835089      -0.00247488       0.01017545       0.13957748       0.01307131       0.01914197      -0.12725605
O        0.04289897       9.47439809      22.13881119        0       0.00000000       0.00221015       0.01706207       0.03002160      -0.01425968       0.00745505       0.09225323       0.00514229       0.21757704       0.43379940
C        0.06232138       8.25055579      21.90666727        0       0.00000000       0.00764620       0.02287000       0.07861147      -0.00531185       0.03312714       0.05630851       0.04391158      -0.21328919       0.30131346
O        0.12542796       7.39183238      22.94168271        0       0.00000000       0.01899532      -0.01656084       0.03360452      -0.01051393       0.00795903       0.04083524      -0.11615937      -0.13952050       0.12862373
H        0.16282887       6.44841859      22.61898455        0       0.00000000       0.01350257       0.02947249       0.01298731       0.02874298      -0.00785534       0.01051588       0.00154584      -0.68048448      -0.55016203
O        0.09521905       4.10930546      21.71370454        0       0.50000000      -0.02011826      -0.06108852       0.03447789      -0.00020488      -0.01686346       0.03976009       0.00749391       0.71919106      -0.06150250
H       -0.77767016       4.14264798      22.14571564        0       0.50000000      -0.02894896      -0.08734996      -0.01429302      -0.03603079       0.02690367       0.01870782      -0.07323985      -0.14750501       0.08542909
62
Lattice="7.26 0.0 0.0 0.0 10.26719046282867 0.0 0.0 0.0 30.392" Properties=species:S:1:pos:R:3:tags:I:1:initial_magmoms:R:1:MACE_forces:R:3:forces:R:3:DFT_forces:R:3 MACE_energy=-251.41909292218565 energy=-252.087500241033 stress="0.0044975561111709125 8.810443933857045e-07 0.00010728813243967474 8.810443933857045e-07 0.006489355393789003 -5.9733471431731176e-05 0.00010728813243967474 -5.9733471431731176e-05 -0.0008584545804065417" free_energy=-252.087500241033 DFT_energy=-257.30969956 pbc="T T T"
Cu       0.00033949      -0.00174187      12.59832408        7       0.00000000       0.00000000       0.00000000       0.00000000      -0.00070913       0.00998676       0.41835467      -0.00087248       0.03850018       0.68173196
Cu       3.62961954      -0.00066879      12.59861168        7       0.00000000       0.00000000       0.00000000       0.00000000       0.00090900       0.00364844       0.41590338       0.00053555      -0.01035385       0.66307552
Cu       0.00101862       2.56771771      12.59716078        7       0.00000000       0.00000000       0.00000000       0.00000000      -0.00267556      -0.00613596       0.41962782      -0.00125607      -0.00239967       0.68191812
Cu       3.62969450       2.56712490      12.59897555        7       0.00000000       0.00000000       0.00000000       0.00000000       0.00042427      -0.00121001       0.41446946      -0.00179379       0.00984477       0.65689293
Cu      -0.00047342       5.13341180      12.59689367        7       0.00000000       0.00000000       0.00000000       0.00000000       0.00153747       0.00294579       0.42343874       0.00310067      -0.05018684       0.71321247
Cu       3.62881816       5.13439800      12.59935624        7       0.00000000       0.00000000       0.00000000       0.00000000       0.00315459      -0.00237382       0.41353843       0.00202482      -0.00935185       0.67931864
Cu      -0.00007115       7.70138433      12.59836164        7       0.00000000       0.00000000       0.00000000       0.00000000       0.00019302      -0.00676376       0.41725205      -0.00006722       0.01192735       0.70163216
Cu       3.62936263       7.70074990      12.59953804        7       0.00000000       0.00000000       0.00000000       0.00000000       0.00153043      -0.00113798       0.41318645       0.00189590       0.00991107       0.66910553
Cu       1.81500000       1.28339881      13.89700000        6       0.00000000       0.00000000       0.00000000       0.00000000      -0.00246142      -0.00126101      -0.17829908       0.00133257      -0.01053369      -0.17376480
Cu       5.44500000       1.28339881      13.89700000        6       0.00000000       0.00000000       0.00000000       0.00000000       0.00331907      -0.00088895      -0.18028805      -0.00068488      -0.01086021      -0.17416087
Cu       1.81500000       3.85019642      13.89700000        6       0.00000000       0.00000000       0.00000000       0.00000000      -0.00313913       0.00194142      -0.17643421      -0.02638248      -0.01111120      -0.17750506
Cu       5.44500000       3.85019642      13.89700000        6       0.00000000       0.00000000       0.00000000       0.00000000       0.00203186       0.00138981      -0.17817199       0.02313456      -0.01049785      -0.17508690
Cu       1.81500000       6.41699404      13.89700000        6       0.00000000       0.00000000       0.00000000       0.00000000      -0.00581862      -0.00059563      -0.17377469       0.01187622       0.00835822      -0.17136962
Cu       5.44500000       6.41699404      13.89700000        6       0.00000000       0.00000000       0.00000000       0.00000000       0.00297185      -0.00069911      -0.17500980      -0.01278631       0.01064933      -0.16957485
Cu       1.81500000       8.98379165      13.89700000        6       0.00000000       0.00000000       0.00000000       0.00000000      -0.00154084       0.00053551      -0.17360904      -0.02799904       0.00948327      -0.16975186
Cu       5.44500000       8.98379165      13.89700000        6       0.00000000       0.00000000       0.00000000       0.00000000       0.00066255       0.00081423      -0.17500788       0.02948096       0.01012759      -0.17089316
Cu       0.00000000       0.00000000      15.19600000        5       0.00000000       0.00000000       0.00000000       0.00000000       0.00021243       0.00059097      -0.19187055      -0.00141040      -0.00075910      -0.01356618
Cu       3.63000000       0.00000000      15.19600000        5       0.00000000       0.00000000       0.00000000       0.00000000      -0.00011050      -0.00014670      -0.25461776       0.00043068       0.01233016      -0.11984184
Cu       0.00000000       2.56679762      15.19600000        5       0.00000000       0.00000000       0.00000000       0.00000000       0.00004872       0.00014753      -0.29541027       0.00042981      -0.01574825      -0.03127677
Cu       3.63000000       2.56679762      15.19600000        5       0.00000000       0.00000000       0.00000000       0.00000000       0.00017466       0.00025569      -0.25507050      -0.00201094      -0.00245581      -0.16184840
Cu       0.00000000       5.13359523      15.19600000        5       0.00000000       0.00000000       0.00000000       0.00000000      -0.00014161       0.00110793      -0.17818187      -0.00034044       0.00128810      -0.17702944
Cu       3.63000000       5.13359523      15.19600000        5       0.00000000       0.00000000       0.00000000       0.00000000       0.00023213       0.00097673      -0.24605226      -0.00140690      -0.01264502      -0.16437482
Cu       0.00000000       7.70039285      15.19600000        5       0.00000000       0.00000000       0.00000000       0.00000000       0.00009970      -0.00048701      -0.23835327      -0.00077939       0.00353076      -0.25244934
Cu       3.63000000       7.70039285      15.19600000        5       0.00000000       0.00000000       0.00000000       0.00000000       0.00008192      -0.00093302      -0.24174196       0.00051931       0.00330919      -0.13843982
Cu       1.81500000       1.28339881      16.49500000        4       0.00000000       0.00000000       0.00000000       0.00000000      -0.00133813      -0.02138125      -0.37622213      -0.09426730       0.01707416      -0.34117565
Cu       5.44500000       1.28339881      16.49500000        4       0.00000000       0.00000000       0.00000000       0.00000000       0.01010472      -0.02531666      -0.37865269       0.10342294       0.01351645      -0.31901394
Cu       1.81500000       3.85019642      16.49500000        4       0.00000000       0.00000000       0.00000000       0.00000000      -0.00567597       0.02575148      -0.38429260      -0.04077784      -0.07949603      -0.48814884
Cu       5.44500000       3.85019642      16.49500000        4       0.00000000       0.00000000       0.00000000       0.00000000       0.01670741       0.02755879      -0.36921811       0.04147878      -0.07735811      -0.45012078
Cu       1.81500000       6.41699404      16.49500000        4       0.00000000       0.00000000       0.00000000       0.00000000      -0.02339864      -0.01711700      -0.35815562       0.02490227      -0.00490164      -0.52886073
Cu       5.44500000       6.41699404      16.49500000        4       0.00000000       0.00000000       0.00000000       0.00000000       0.03455620      -0.01750500      -0.34866026      -0.03001662      -0.00357845      -0.54325513
Cu       1.81500000       8.98379165      16.49500000        4       0.00000000       0.00000000       0.00000000       0.00000000      -0.01901416       0.00243212      -0.37367758      -0.01585303       0.07951463      -0.42226391
Cu       5.44500000       8.98379165      16.49500000        4       0.00000000       0.00000000       0.00000000       0.00000000       0.02800231       0.00537876      -0.37882485       0.00500288       0.07900819      -0.42396329
Cu      -0.00100612       0.00137622      17.74230895        3       0.00000000       0.00005269       0.00724625       0.06913397      -0.00010231       0.00503394       0.07309809      -0.00461451       0.02765006       0.14643485
Cu       3.63053554       0.01699945      17.70003343        3       0.00000000       0.00039223       0.00380199       0.07358823      -0.00000088       0.00981996       0.07368551      -0.00381489       0.02654177       0.08990698
Cu      -0.00001470       2.57171646      17.74252496        3       0.00000000      -0.00063521       0.00384129       0.06124146       0.00022094       0.00741686       0.06788930       0.00266275      -0.04075887       0.10475123
Cu       3.63263770       2.55184373      17.69650355        3       0.00000000      -0.00008612       0.00576105       0.07280452      -0.00022450      -0.00386054       0.08323682      -0.00000777      -0.01018543       0.08499458
Cu      -0.00165980       5.13182931      17.68929974        3       0.00000000       0.00126469       0.00808289       0.07164323      -0.00004810       0.00054276       0.06794487       0.00413003       0.09546970       0.08801577
Cu       3.63118646       5.12763116      17.67951875        3       0.00000000       0.00024451       0.00734104       0.07464439       0.00042705      -0.00088652       0.07532795      -0.00129089       0.00429763       0.07131629
Cu      -0.00131049       7.70273920      17.66384502        3       0.00000000      -0.00012868       0.00613671       0.06501390       0.00040345       0.00131056       0.05151725      -0.00798835      -0.02413368       0.12293151
Cu       3.62860259       7.71642069      17.68415845        3       0.00000000       0.00240403       0.00360113       0.07506232      -0.00011202       0.00449470       0.06832870       0.00066556      -0.00574205       0.08025648
Cu       1.77348024       1.30138966      19.03527793        2       0.00000000       0.01027907       0.00616506       0.12171491       0.00353755       0.00049239       0.13416602      -0.00562288       0.03405793      -0.05642989
Cu       5.49139412       1.30475786      19.04808450        2       0.00000000      -0.01247575       0.00388801       0.11837711      -0.00390571       0.00180217       0.13225739      -0.00123255       0.02582354      -0.05059948
Cu       1.82850231       3.85239605      18.96368370        2       0.00000000       0.00628253       0.00308462       0.12456185       0.00266902      -0.00525274       0.12782357       0.04863242      -0.01065672       0.00004766
Cu       5.43606620       3.84332282      18.97672518        2       0.00000000      -0.00733162       0.01204590       0.11987711      -0.00206751      -0.00569652       0.12701125      -0.03947885      -0.00413141       0.03729919
Cu       1.84342919       6.41621433      18.96739344        2       0.00000000       0.00819341       0.01024705       0.11878132       0.02046726      -0.00372950       0.11040127      -0.00622654       0.03283158      -0.03830937
Cu       5.40937430       6.41643055      18.96474427        2       0.00000000      -0.00106753       0.00748169       0.12406018      -0.02034143      -0.00276807       0.10916709       0.00436964       0.04158595      -0.02732127
Cu       1.81106130       9.00611742      18.98885718        2       0.00000000       0.01081699       0.01084079       0.11974686       0.00851408      -0.00058847       0.11826583       0.10029674      -0.01644838      -0.07619443
Cu       5.44500652       9.01215742      18.99025962        2       0.00000000      -0.00894250       0.00920527       0.12107220      -0.00849401      -0.00173539       0.11645568      -0.09064223      -0.02269551      -0.07358568
Cu       0.00576547       0.07794572      20.28524962        1       0.00000000      -0.00072291      -0.02402434       0.16780729      -0.00121756      -0.01747399       0.14026274      -0.01637321      -0.08956712       0.02324706
Cu       3.62586842       0.00706437      20.14529326        1       0.00000000       0.00053390       0.02298696       0.15402997      -0.00028584       0.01481363       0.14096840       0.01364084       0.04707611      -0.09189337
Cu       0.02816648       2.66759103      20.33543356        1       0.00000000      -0.02153763      -0.03584729       0.11718680       0.00126239      -0.01583875       0.14775614       0.01294353      -0.02161747      -0.03604149
Cu       3.62194188       2.56007689      20.14497404        1       0.00000000       0.00207285       0.01586715       0.15200808      -0.00085552      -0.00122332       0.15095710       0.01624600       0.02907754      -0.05881812
Cu      -0.01191037       5.20849690      20.11450192        1       0.00000000       0.01549490      -0.01805865       0.16372441      -0.00106420      -0.02322139       0.13647589       0.07653958      -0.06417948      -0.04321140
Cu       3.62957309       5.12312751      20.14453353        1       0.00000000      -0.00393198       0.01756351       0.14979219      -0.00073784       0.00237801       0.15095227      -0.00213152       0.00450365      -0.13584453
Cu      -0.00897743       7.65852393      20.06116258        1       0.00000000       0.00344384       0.01288434       0.15405279       0.00107813      -0.00824042       0.14191859       0.02244942       0.18740419       0.11834428
Cu       3.62779234       7.70984317      20.14166218        1       0.00000000       0.00341978       0.01658583       0.14883652      -0.00247488       0.01017545       0.13957748       0.01407244       0.01663925      -0.12920996
O        0.04826919       9.42114986      22.14507450        0       0.00000000       0.00409822       0.01520277       0.04128393      -0.01425968       0.00745505       0.09225323       0.00428971       0.22740208       0.45200914
C        0.06710754       8.20089736      21.89564248        0       0.00000000       0.00882877       0.02400390       0.07297630      -0.00531185       0.03312714       0.05630851       0.04525751      -0.17993680       0.28231711
O        0.13251303       7.31940451      22.90949729        0       0.00000000       0.01950418       0.00880616       0.03705834      -0.01051393       0.00795903       0.04083524      -0.12585866      -0.19391196       0.12366415
H        0.17089864       6.37795744      22.57187192        0       0.00000000       0.01879315       0.02089897       0.01765456       0.02874298      -0.00785534       0.01051588       0.00525985      -0.68959445      -0.51634035
O        0.08864996       4.19112301      21.73408749        0       0.50000000      -0.02806790      -0.10892719       0.01816712      -0.00020488      -0.01686346       0.03976009       0.01602593       0.72672036      -0.06154557
H       -0.79471621       4.21798212      22.14544361        0       0.50000000      -0.02588913      -0.09006706      -0.01152575      -0.03603079       0.02690367       0.01870782      -0.07306192      -0.15965789       0.08065730
62
Lattice="7.26 0.0 0.0 0.0 10.26719046282867 0.0 0.0 0.0 30.392" Properties=species:S:1:pos:R:3:tags:I:1:initial_magmoms:R:1:MACE_forces:R:3:forces:R:3:DFT_forces:R:3 MACE_energy=-251.4019895745866 energy=-252.087500241033 stress="0.0044975561111709125 8.810443933857045e-07 0.00010728813243967474 8.810443933857045e-07 0.006489355393789003 -5.9733471431731176e-05 0.00010728813243967474 -5.9733471431731176e-05 -0.0008584545804065417" free_energy=-252.087500241033 DFT_energy=-257.28094747 pbc="T T T"
Cu       0.00033949      -0.00174187      12.59832408        7       0.00000000       0.00000000       0.00000000       0.00000000      -0.00070913       0.00998676       0.41835467      -0.00096878       0.03976914       0.68228672
Cu       3.62961954      -0.00066879      12.59861168        7       0.00000000       0.00000000       0.00000000       0.00000000       0.00090900       0.00364844       0.41590338       0.00055446      -0.01076194       0.66330062
Cu       0.00101862       2.56771771      12.59716078        7       0.00000000       0.00000000       0.00000000       0.00000000      -0.00267556      -0.00613596       0.41962782      -0.00151428      -0.00432809       0.68201752
Cu       3.62969450       2.56712490      12.59897555        7       0.00000000       0.00000000       0.00000000       0.00000000       0.00042427      -0.00121001       0.41446946      -0.00171715       0.01028257       0.65711435
Cu      -0.00047342       5.13341180      12.59689367        7       0.00000000       0.00000000       0.00000000       0.00000000       0.00153747       0.00294579       0.42343874       0.00256418      -0.04943257       0.71406287
Cu       3.62881816       5.13439800      12.59935624        7       0.00000000       0.00000000       0.00000000       0.00000000       0.00315459      -0.00237382       0.41353843       0.00221926      -0.00882314       0.68008868
Cu      -0.00007115       7.70138433      12.59836164        7       0.00000000       0.00000000       0.00000000       0.00000000       0.00019302      -0.00676376       0.41725205      -0.00036424       0.01278763       0.70254201
Cu       3.62936263       7.70074990      12.59953804        7       0.00000000       0.00000000       0.00000000       0.00000000       0.00153043      -0.00113798       0.41318645       0.00177593       0.01042431       0.66891778
Cu       1.81500000       1.28339881      13.89700000        6       0.00000000       0.00000000       0.00000000       0.00000000      -0.00246142      -0.00126101      -0.17829908      -0.00063657      -0.00868962      -0.17259156
Cu       5.44500000       1.28339881      13.89700000        6       0.00000000       0.00000000       0.00000000       0.00000000       0.00331907      -0.00088895      -0.18028805       0.00031219      -0.00978189      -0.17310954
Cu       1.81500000       3.85019642      13.89700000        6       0.00000000       0.00000000       0.00000000       0.00000000      -0.00313913       0.00194142      -0.17643421      -0.02486681      -0.01137233      -0.17660103
Cu       5.44500000       3.85019642      13.89700000        6       0.00000000       0.00000000       0.00000000       0.00000000       0.00203186       0.00138981      -0.17817199       0.02180228      -0.01130350      -0.17464387
Cu       1.81500000       6.41699404      13.89700000        6       0.00000000       0.00000000       0.00000000       0.00000000      -0.00581862      -0.00059563      -0.17377469       0.01234969       0.00742297      -0.17077381
Cu       5.44500000       6.41699404      13.89700000        6       0.00000000       0.00000000       0.00000000       0.00000000       0.00297185      -0.00069911      -0.17500980      -0.01311153       0.01097352      -0.16926034
Cu       1.81500000       8.98379165      13.89700000        6       0.00000000       0.00000000       0.00000000       0.00000000      -0.00154084       0.00053551      -0.17360904      -0.02668204       0.00946828      -0.16828846
Cu       5.44500000       8.98379165      13.89700000        6       0.00000000       0.00000000       0.00000000       0.00000000       0.00066255       0.00081423      -0.17500788       0.02771384       0.01086468      -0.16957006
Cu       0.00000000       0.00000000      15.19600000        5       0.00000000       0.00000000       0.00000000       0.00000000       0.00021243       0.00059097      -0.19187055      -0.00197102      -0.00129260      -0.01147950
Cu       3.63000000       0.00000000      15.19600000        5       0.00000000       0.00000000       0.00000000       0.00000000      -0.00011050      -0.00014670      -0.25461776       0.00070541       0.01313573      -0.12028384
Cu       0.00000000       2.56679762      15.19600000        5       0.00000000       0.00000000       0.00000000       0.00000000       0.00004872       0.00014753      -0.29541027       0.00042646      -0.01601221      -0.02771734
Cu       3.63000000       2.56679762      15.19600000        5       0.00000000       0.00000000       0.00000000       0.00000000       0.00017466       0.00025569      -0.25507050      -0.00231133      -0.00237942      -0.16094846
Cu       0.00000000       5.13359523      15.19600000        5       0.00000000       0.00000000       0.00000000       0.00000000      -0.00014161       0.00110793      -0.17818187       0.00020520      -0.00038084      -0.18629107
Cu       3.63000000       5.13359523      15.19600000        5       0.00000000       0.00000000       0.00000000       0.00000000       0.00023213       0.00097673      -0.24605226      -0.00207228      -0.01251183      -0.16260179
Cu       0.00000000       7.70039285      15.19600000        5       0.00000000       0.00000000       0.00000000       0.00000000       0.00009970      -0.00048701      -0.23835327      -0.00095424       0.00588417      -0.26676282
Cu       3.63000000       7.70039285      15.19600000        5       0.00000000       0.00000000       0.00000000       0.00000000       0.00008192      -0.00093302      -0.24174196       0.00057979       0.00305968      -0.13866132
Cu       1.81500000       1.28339881      16.49500000        4       0.00000000       0.00000000       0.00000000       0.00000000      -0.00133813      -0.02138125      -0.37622213      -0.09874484       0.02006452      -0.32912906
Cu       5.44500000       1.28339881      16.49500000        4       0.00000000       0.00000000       0.00000000       0.00000000       0.01010472      -0.02531666      -0.37865269       0.10840284       0.01645767      -0.30691281
Cu       1.81500000       3.85019642      16.49500000        4       0.00000000       0.00000000       0.00000000       0.00000000      -0.00567597       0.02575148      -0.38429260      -0.03747435      -0.08180848      -0.48929938
Cu       5.44500000       3.85019642      16.49500000        4       0.00000000       0.00000000       0.00000000       0.00000000       0.01670741       0.02755879      -0.36921811       0.03903061      -0.07827444      -0.45126138
Cu       1.81500000       6.41699404      16.49500000        4       0.00000000       0.00000000       0.00000000       0.00000000      -0.02339864      -0.01711700      -0.35815562       0.03019222      -0.00100930      -0.53323305
Cu       5.44500000       6.41699404      16.49500000        4       0.00000000       0.00000000       0.00000000       0.00000000       0.03455620      -0.01750500      -0.34866026      -0.03537000      -0.00065640      -0.54783358
Cu       1.81500000       8.98379165      16.49500000        4       0.00000000       0.00000000       0.00000000       0.00000000      -0.01901416       0.00243212      -0.37367758      -0.01163349       0.08546878      -0.42450451
Cu       5.44500000       8.98379165      16.49500000        4       0.00000000       0.00000000       0.00000000       0.00000000       0.02800231       0.00537876      -0.37882485       0.00135685       0.08636196      -0.42605003
Cu      -0.00093447       0.00273895      17.74477546        3       0.00000000       0.00001138       0.00615736       0.06941011      -0.00010231       0.00503394       0.07309809      -0.00408229       0.02446962       0.14465029
Cu       3.63057814       0.01877909      17.70018146        3       0.00000000       0.00042188       0.00606447       0.07570301      -0.00000088       0.00981996       0.07368551      -0.00447176       0.03147985       0.09226687
Cu       0.00002425       2.57386339      17.74330202        3       0.00000000      -0.00032147       0.00244350       0.07389367       0.00022094       0.00741686       0.06788930       0.00206578      -0.03935537       0.11399225
Cu       3.63273766       2.55234006      17.69671735        3       0.00000000      -0.00026385       0.00244693       0.07495511      -0.00022450      -0.00386054       0.08323682      -0.00051886      -0.01561939       0.08541671
Cu      -0.00149722       5.13355738      17.68683048        3       0.00000000       0.00085207       0.00539724       0.06732939      -0.00004810       0.00054276       0.06794487       0.00250817       0.09483968       0.07833179
Cu       3.63122497       5.12845195      17.67925461        3       0.00000000      -0.00007791       0.00356845       0.07340806       0.00042705      -0.00088652       0.07532795      -0.00126038       0.00068149       0.07142785
Cu      -0.00136907       7.70444065      17.65977843        3       0.00000000      -0.00009217       0.00572666       0.06040908       0.00040345       0.00131056       0.05151725      -0.00846140      -0.02374230       0.11204306
Cu       3.62887215       7.71738022      17.68403834        3       0.00000000       0.00127090       0.00550729       0.07318398      -0.00011202       0.00449470       0.06832870      -0.00148861      -0.00289240       0.07724952
Cu       1.76917351       1.30373454      19.03924292        2       0.00000000       0.00305560       0.01224165       0.12899990       0.00353755       0.00049239       0.13416602      -0.01244293       0.04215415      -0.04587954
Cu       5.49618952       1.30666396      19.05246825        2       0.00000000      -0.00483220       0.00976342       0.12607281      -0.00390571       0.00180217       0.13225739       0.00645566       0.03432524      -0.04014367
Cu       1.82928713       3.85421507      18.96383671        2       0.00000000       0.00548399       0.00361154       0.12254618       0.00266902      -0.00525274       0.12782357       0.04299754      -0.00997601       0.00333961
Cu       5.43543157       3.84459158      18.97669003        2       0.00000000      -0.00669317       0.00939526       0.11856414      -0.00206751      -0.00569652       0.12701125      -0.03650737      -0.00832221       0.03928605
Cu       1.84474327       6.41868288      18.96654131        2       0.00000000       0.01383911       0.00776361       0.11367347       0.02046726      -0.00372950       0.11040127       0.00469000       0.03417371      -0.04659484
Cu       5.40788777       6.41870597      18.96383407        2       0.00000000      -0.01084911       0.00746037       0.11562002      -0.02034143      -0.00276807       0.10916709      -0.01231791       0.04535206      -0.04094851
Cu       1.81298263       9.00880642      18.98778707        2       0.00000000       0.00922267       0.01446547       0.12060166       0.00851408      -0.00058847       0.11826583       0.09247882      -0.01315864      -0.07378366
Cu       5.44347798       9.01521601      18.98986823        2       0.00000000      -0.00792222       0.01340590       0.12134680      -0.00849401      -0.00173539       0.11645568      -0.08495121      -0.02099724      -0.07157004
Cu       0.00717690       0.07030904      20.29574175        1       0.00000000       0.00006237      -0.00790743       0.18039395      -0.00121756      -0.01747399       0.14026274      -0.01691071      -0.06558920       0.02275955
Cu       3.62552784       0.01230837      20.14527407        1       0.00000000       0.00102480       0.02174826       0.15213171      -0.00028584       0.01481363       0.14096840       0.01610805       0.04670801      -0.08818959
Cu       0.03199756       2.68813029      20.34434229        1       0.00000000      -0.01629414      -0.01987508       0.15662992       0.00126239      -0.01583875       0.14775614       0.01587328      -0.03659591      -0.02609496
Cu       3.62193326       2.56389329      20.14427415        1       0.00000000       0.00081614       0.01071383       0.15394111      -0.00085552      -0.00122332       0.15095710       0.01527399       0.02489181      -0.05178240
Cu      -0.01365724       5.20857407      20.10317651        1       0.00000000       0.00960648       0.00210825       0.15511109      -0.00106420      -0.02322139       0.13647589       0.07688815      -0.04148311      -0.04808793
Cu       3.62927432       5.12740558      20.14459522        1       0.00000000      -0.00221955       0.01141160       0.14966506      -0.00073784       0.00237801       0.15095227      -0.00078139       0.00070456      -0.13730212
Cu      -0.00922664       7.66008273      20.04833523        1       0.00000000       0.00209860       0.01560315       0.15031945       0.00107813      -0.00824042       0.14191859       0.02212380       0.18329038       0.11253973
Cu       3.62806442       7.71431040      20.14224568        1       0.00000000       0.00233094       0.01507817       0.14767402      -0.00247488       0.01017545       0.13957748       0.01307933       0.01094290      -0.13039334
O        0.05445308       9.38367059      22.15213940        0       0.00000000       0.00511646       0.00567250       0.03134709      -0.01425968       0.00745505       0.09225323       0.00916781       0.22467013       0.44778199
C        0.07242080       8.16608437      21.88930226        0       0.00000000       0.00963227       0.02042332       0.07149565      -0.00531185       0.03312714       0.05630851       0.04675703      -0.17563821       0.24923650
O        0.14013270       7.26630290      22.88401780        0       0.00000000       0.02063122      -0.00511617       0.03586206      -0.01051393       0.00795903       0.04083524      -0.13518912      -0.24643730       0.11490808
H        0.17650849       6.32500555      22.53277169        0       0.00000000       0.02113192       0.01129960       0.02223208       0.02874298      -0.00785534       0.01051588       0.00860271      -0.72472769      -0.49142479
O        0.08171093       4.26380273      21.76047746        0       0.50000000      -0.03287709      -0.14918873      -0.00656482      -0.00020488      -0.01686346       0.03976009       0.02116931       0.74025276      -0.04104765
H       -0.81152796       4.26750387      22.15159582        0       0.50000000      -0.02159558      -0.07431935      -0.01288048      -0.03603079       0.02690367       0.01870782      -0.06665374      -0.14800833       0.07549122
62
Lattice="7.26 0.0 0.0 0.0 10.26719046282867 0.0 0.0 0.0 30.392" Properties=species:S:1:pos:R:3:tags:I:1:initial_magmoms:R:1:MACE_forces:R:3:forces:R:3:DFT_forces:R:3 MACE_energy=-251.3751847065584 energy=-252.087500241033 stress="0.0044975561111709125 8.810443933857045e-07 0.00010728813243967474 8.810443933857045e-07 0.006489355393789003 -5.9733471431731176e-05 0.00010728813243967474 -5.9733471431731176e-05 -0.0008584545804065417" free_energy=-252.087500241033 DFT_energy=-257.24149269 pbc="T T T"
Cu       0.00033949      -0.00174187      12.59832408        7       0.00000000       0.00000000       0.00000000       0.00000000      -0.00070913       0.00998676       0.41835467      -0.00057689       0.03994761       0.68349462
Cu       3.62961954      -0.00066879      12.59861168        7       0.00000000       0.00000000       0.00000000       0.00000000       0.00090900       0.00364844       0.41590338       0.00081993      -0.01179099       0.66424779
Cu       0.00101862       2.56771771      12.59716078        7       0.00000000       0.00000000       0.00000000       0.00000000      -0.00267556      -0.00613596       0.41962782      -0.00168006      -0.00755945       0.68264542
Cu       3.62969450       2.56712490      12.59897555        7       0.00000000       0.00000000       0.00000000       0.00000000       0.00042427      -0.00121001       0.41446946      -0.00118224       0.01018378       0.65754290
Cu      -0.00047342       5.13341180      12.59689367        7       0.00000000       0.00000000       0.00000000       0.00000000       0.00153747       0.00294579       0.42343874       0.00178586      -0.04724352       0.71438527
Cu       3.62881816       5.13439800      12.59935624        7       0.00000000       0.00000000       0.00000000       0.00000000       0.00315459      -0.00237382       0.41353843       0.00306136      -0.00852481       0.68109729
Cu      -0.00007115       7.70138433      12.59836164        7       0.00000000       0.00000000       0.00000000       0.00000000       0.00019302      -0.00676376       0.41725205      -0.00024838       0.01279869       0.70338656
Cu       3.62936263       7.70074990      12.59953804        7       0.00000000       0.00000000       0.00000000       0.00000000       0.00153043      -0.00113798       0.41318645       0.00179861       0.01037158       0.66824939
Cu       1.81500000       1.28339881      13.89700000        6       0.00000000       0.00000000       0.00000000       0.00000000      -0.00246142      -0.00126101      -0.17829908      -0.00268536      -0.00609979      -0.17154517
Cu       5.44500000       1.28339881      13.89700000        6       0.00000000       0.00000000       0.00000000       0.00000000       0.00331907      -0.00088895      -0.18028805       0.00136029      -0.00829055      -0.17226880
Cu       1.81500000       3.85019642      13.89700000        6       0.00000000       0.00000000       0.00000000       0.00000000      -0.00313913       0.00194142      -0.17643421      -0.02275199      -0.01177212      -0.17560892
Cu       5.44500000       3.85019642      13.89700000        6       0.00000000       0.00000000       0.00000000       0.00000000       0.00203186       0.00138981      -0.17817199       0.02089036      -0.01277271      -0.17473973
Cu       1.81500000       6.41699404      13.89700000        6       0.00000000       0.00000000       0.00000000       0.00000000      -0.00581862      -0.00059563      -0.17377469       0.01351895       0.00517410      -0.17047118
Cu       5.44500000       6.41699404      13.89700000        6       0.00000000       0.00000000       0.00000000       0.00000000       0.00297185      -0.00069911      -0.17500980      -0.01343288       0.01022380      -0.16951613
Cu       1.81500000       8.98379165      13.89700000        6       0.00000000       0.00000000       0.00000000       0.00000000      -0.00154084       0.00053551      -0.17360904      -0.02467816       0.00835559      -0.16712737
Cu       5.44500000       8.98379165      13.89700000        6       0.00000000       0.00000000       0.00000000       0.00000000       0.00066255       0.00081423      -0.17500788       0.02530817       0.01108774      -0.16814993
Cu       0.00000000       0.00000000      15.19600000        5       0.00000000       0.00000000       0.00000000       0.00000000       0.00021243       0.00059097      -0.19187055      -0.00258777      -0.00157653      -0.01310132
Cu       3.63000000       0.00000000      15.19600000        5       0.00000000       0.00000000       0.00000000       0.00000000      -0.00011050      -0.00014670      -0.25461776       0.00145051       0.01314273      -0.12103652
Cu       0.00000000       2.56679762      15.19600000        5       0.00000000       0.00000000       0.00000000       0.00000000       0.00004872       0.00014753      -0.29541027       0.00069830      -0.01597486      -0.02398405
Cu       3.63000000       2.56679762      15.19600000        5       0.00000000       0.00000000       0.00000000       0.00000000       0.00017466       0.00025569      -0.25507050      -0.00221109      -0.00271939      -0.16020855
Cu       0.00000000       5.13359523      15.19600000        5       0.00000000       0.00000000       0.00000000       0.00000000      -0.00014161       0.00110793      -0.17818187       0.00159974      -0.00333133      -0.19319348
Cu       3.63000000       5.13359523      15.19600000        5       0.00000000       0.00000000       0.00000000       0.00000000       0.00023213       0.00097673      -0.24605226      -0.00282300      -0.01195340      -0.16009632
Cu       0.00000000       7.70039285      15.19600000        5       0.00000000       0.00000000       0.00000000       0.00000000       0.00009970      -0.00048701      -0.23835327      -0.00068072       0.00827383      -0.27685377
Cu       3.63000000       7.70039285      15.19600000        5       0.00000000       0.00000000       0.00000000       0.00000000       0.00008192      -0.00093302      -0.24174196       0.00086901       0.00218435      -0.13994334
Cu       1.81500000       1.28339881      16.49500000        4       0.00000000       0.00000000       0.00000000       0.00000000      -0.00133813      -0.02138125      -0.37622213      -0.10138740       0.02063094      -0.32326136
Cu       5.44500000       1.28339881      16.49500000        4       0.00000000       0.00000000       0.00000000       0.00000000       0.01010472      -0.02531666      -0.37865269       0.11165002       0.01782906      -0.30079316
Cu       1.81500000       3.85019642      16.49500000        4       0.00000000       0.00000000       0.00000000       0.00000000      -0.00567597       0.02575148      -0.38429260      -0.03484942      -0.08523423      -0.48981111
Cu       5.44500000       3.85019642      16.49500000        4       0.00000000       0.00000000       0.00000000       0.00000000       0.01670741       0.02755879      -0.36921811       0.03684993      -0.07995777      -0.45239658
Cu       1.81500000       6.41699404      16.49500000        4       0.00000000       0.00000000       0.00000000       0.00000000      -0.02339864      -0.01711700      -0.35815562       0.03313193       0.00189619      -0.53810537
Cu       5.44500000       6.41699404      16.49500000        4       0.00000000       0.00000000       0.00000000       0.00000000       0.03455620      -0.01750500      -0.34866026      -0.03926771       0.00101204      -0.55327559
Cu       1.81500000       8.98379165      16.49500000        4       0.00000000       0.00000000       0.00000000       0.00000000      -0.01901416       0.00243212      -0.37367758      -0.00683177       0.08661203      -0.42726617
Cu       5.44500000       8.98379165      16.49500000        4       0.00000000       0.00000000       0.00000000       0.00000000       0.02800231       0.00537876      -0.37882485      -0.00157521       0.08847353      -0.42936205
Cu      -0.00088401       0.00277761      17.74590926        3       0.00000000       0.00020983       0.00600136       0.07129587      -0.00010231       0.00503394       0.07309809      -0.00304692       0.01994272       0.14274435
Cu       3.63074504       0.01926349      17.70022205        3       0.00000000       0.00002628       0.00648548       0.07665605      -0.00000088       0.00981996       0.07368551      -0.00559841       0.03590636       0.09440480
Cu       0.00012225       2.57456876      17.74308409        3       0.00000000      -0.00009879       0.00257763       0.08330100       0.00022094       0.00741686       0.06788930       0.00111324      -0.03654765       0.11195586
Cu       3.63272496       2.55232833      17.69669223        3       0.00000000      -0.00053626      -0.00000814       0.07636113      -0.00022450      -0.00386054       0.08323682      -0.00121551      -0.02047917       0.08399960
Cu      -0.00133652       5.13454571      17.68519700        3       0.00000000       0.00020711       0.00226036       0.06151517      -0.00004810       0.00054276       0.06794487      -0.00042723       0.08912545       0.06796954
Cu       3.63114452       5.12801034      17.67907808        3       0.00000000      -0.00054715       0.00068967       0.07073920       0.00042705      -0.00088652       0.07532795      -0.00128038      -0.00427952       0.07025749
Cu      -0.00141950       7.70521141      17.65708339        3       0.00000000       0.00000400       0.00388241       0.05695835       0.00040345       0.00131056       0.05151725      -0.00862369      -0.02608724       0.09800713
Cu       3.62905317       7.71703203      17.68371846        3       0.00000000      -0.00003658       0.00725160       0.07227545      -0.00011202       0.00449470       0.06832870      -0.00279551      -0.00067537       0.07505135
Cu       1.76730075       1.30309643      19.04077908        2       0.00000000      -0.00465209       0.01647261       0.13735446       0.00353755       0.00049239       0.13416602      -0.01481348       0.04470790      -0.03605447
Cu       5.49861953       1.30579758      19.05436786        2       0.00000000       0.00293303       0.01346648       0.13481805      -0.00390571       0.00180217       0.13225739       0.01503594       0.04080835      -0.02571646
Cu       1.82971358       3.85401121      18.96478088        2       0.00000000       0.00588089       0.00347703       0.12107161       0.00266902      -0.00525274       0.12782357       0.04076876      -0.01035100       0.00368661
Cu       5.43475436       3.84343307      18.97720128        2       0.00000000      -0.00719744       0.00599958       0.11786298      -0.00206751      -0.00569652       0.12701125      -0.03741369      -0.01549456       0.03762597
Cu       1.84528755       6.41803724      18.96548833        2       0.00000000       0.01681985       0.00736165       0.11201465       0.02046726      -0.00372950       0.11040127       0.01397349       0.03830723      -0.04972971
Cu       5.40664621       6.41810199      18.96233724        2       0.00000000      -0.01740509       0.00949548       0.11090217      -0.02034143      -0.00276807       0.10916709      -0.02527306       0.05200149      -0.04948408
Cu       1.81446961       9.00842825      18.98663526        2       0.00000000       0.00723519       0.01638364       0.12139840       0.00851408      -0.00058847       0.11826583       0.08264208      -0.01282211      -0.06910148
Cu       5.44245078       9.01517019      18.98928042        2       0.00000000      -0.00679432       0.01596524       0.12190690      -0.00849401      -0.00173539       0.11645568      -0.07751793      -0.01983885      -0.06811376
Cu       0.00837626       0.05993070      20.30244596        1       0.00000000       0.00099967       0.00369227       0.18643691      -0.00121756      -0.01747399       0.14026274      -0.01827247      -0.04657535       0.02020859
Cu       3.62543231       0.01393554      20.14529518        1       0.00000000       0.00097647       0.01994810       0.15053942      -0.00028584       0.01481363       0.14096840       0.01760813       0.04552408      -0.08641809
Cu       0.03549621       2.70120815      20.34006935        1       0.00000000      -0.00503161       0.03130175       0.22061299       0.00126239      -0.01583875       0.14775614       0.01918371      -0.05016605      -0.02306446
Cu       3.62173372       2.56460441      20.14382572        1       0.00000000      -0.00038944       0.00693456       0.15499605      -0.00085552      -0.00122332       0.15095710       0.01603293       0.02126610      -0.04655213
Cu      -0.01717751       5.20144542      20.09319013        1       0.00000000       0.00206190       0.02609897       0.14208205      -0.00106420      -0.02322139       0.13647589       0.07643501      -0.02047308      -0.05515323
Cu       3.62922795       5.12912350      20.14414330        1       0.00000000      -0.00077111       0.00516989       0.15016567      -0.00073784       0.00237801       0.15095227      -0.00066586      -0.00410380      -0.13395081
Cu      -0.00964082       7.65714535      20.03980099        1       0.00000000       0.00083871       0.02185078       0.14921647       0.00107813      -0.00824042       0.14191859       0.02008488       0.17985014       0.10605291
Cu       3.62830781       7.71575071      20.14220851        1       0.00000000       0.00119604       0.01285756       0.14655063      -0.00247488       0.01017545       0.13957748       0.01177368       0.00341238      -0.13111467
O        0.06014902       9.35361814      22.15208532        0       0.00000000       0.00725286      -0.00921927       0.03614680      -0.01425968       0.00745505       0.09225323       0.01321960       0.22338878       0.45217192
C        0.07677734       8.13559918      21.88600132        0       0.00000000       0.01037737      -0.00015598       0.06311576      -0.00531185       0.03312714       0.05630851       0.04057042      -0.16647480       0.22162918
O        0.14673178       7.22558835      22.86479487        0       0.00000000       0.01962418      -0.01153142       0.03495884      -0.01051393       0.00795903       0.04083524      -0.13916196      -0.26316659       0.12914412
H        0.17553054       6.27921415      22.50658720        0       0.00000000       0.02500642       0.00283313       0.01661835       0.02874298      -0.00785534       0.01051588       0.00564419      -0.72401752      -0.46955448
O        0.08016396       4.36786336      21.79918109        0       0.50000000      -0.02940612      -0.21285661      -0.04290128      -0.00020488      -0.01686346       0.03976009       0.03110854       0.71111929      -0.03117182
H       -0.82317936       4.31901921      22.16335468        0       0.50000000      -0.02823876      -0.04578472      -0.00961165      -0.03603079       0.02690367       0.01870782      -0.06443145      -0.11720375       0.07733691
62
Lattice="7.26 0.0 0.0 0.0 10.26719046282867 0.0 0.0 0.0 30.392" Properties=species:S:1:pos:R:3:tags:I:1:initial_magmoms:R:1:MACE_forces:R:3:forces:R:3:DFT_forces:R:3 MACE_energy=-251.34626198856444 energy=-252.087500241033 stress="0.0044975561111709125 8.810443933857045e-07 0.00010728813243967474 8.810443933857045e-07 0.006489355393789003 -5.9733471431731176e-05 0.00010728813243967474 -5.9733471431731176e-05 -0.0008584545804065417" free_energy=-252.087500241033 DFT_energy=-257.21775223 pbc="T T T"
Cu       0.00033949      -0.00174187      12.59832408        7       0.00000000       0.00000000       0.00000000       0.00000000      -0.00070913       0.00998676       0.41835467      -0.00019650       0.03918831       0.68440522
Cu       3.62961954      -0.00066879      12.59861168        7       0.00000000       0.00000000       0.00000000       0.00000000       0.00090900       0.00364844       0.41590338       0.00073423      -0.01203797       0.66519118
Cu       0.00101862       2.56771771      12.59716078        7       0.00000000       0.00000000       0.00000000       0.00000000      -0.00267556      -0.00613596       0.41962782      -0.00229891      -0.00977177       0.68301019
Cu       3.62969450       2.56712490      12.59897555        7       0.00000000       0.00000000       0.00000000       0.00000000       0.00042427      -0.00121001       0.41446946      -0.00084921       0.01019256       0.65753199
Cu      -0.00047342       5.13341180      12.59689367        7       0.00000000       0.00000000       0.00000000       0.00000000       0.00153747       0.00294579       0.42343874       0.00045338      -0.04348315       0.71371018
Cu       3.62881816       5.13439800      12.59935624        7       0.00000000       0.00000000       0.00000000       0.00000000       0.00315459      -0.00237382       0.41353843       0.00383918      -0.00776839       0.68154874
Cu      -0.00007115       7.70138433      12.59836164        7       0.00000000       0.00000000       0.00000000       0.00000000       0.00019302      -0.00676376       0.41725205      -0.00012457       0.01278156       0.70319943
Cu       3.62936263       7.70074990      12.59953804        7       0.00000000       0.00000000       0.00000000       0.00000000       0.00153043      -0.00113798       0.41318645       0.00136146       0.01041911       0.66680601
Cu       1.81500000       1.28339881      13.89700000        6       0.00000000       0.00000000       0.00000000       0.00000000      -0.00246142      -0.00126101      -0.17829908      -0.00405009      -0.00305874      -0.17132813
Cu       5.44500000       1.28339881      13.89700000        6       0.00000000       0.00000000       0.00000000       0.00000000       0.00331907      -0.00088895      -0.18028805       0.00122218      -0.00638802      -0.17243286
Cu       1.81500000       3.85019642      13.89700000        6       0.00000000       0.00000000       0.00000000       0.00000000      -0.00313913       0.00194142      -0.17643421      -0.02152156      -0.01113244      -0.17514851
Cu       5.44500000       3.85019642      13.89700000        6       0.00000000       0.00000000       0.00000000       0.00000000       0.00203186       0.00138981      -0.17817199       0.02039347      -0.01350247      -0.17574481
Cu       1.81500000       6.41699404      13.89700000        6       0.00000000       0.00000000       0.00000000       0.00000000      -0.00581862      -0.00059563      -0.17377469       0.01421811       0.00328949      -0.17099634
Cu       5.44500000       6.41699404      13.89700000        6       0.00000000       0.00000000       0.00000000       0.00000000       0.00297185      -0.00069911      -0.17500980      -0.01425434       0.00932950      -0.17046779
Cu       1.81500000       8.98379165      13.89700000        6       0.00000000       0.00000000       0.00000000       0.00000000      -0.00154084       0.00053551      -0.17360904      -0.02343647       0.00745783      -0.16710522
Cu       5.44500000       8.98379165      13.89700000        6       0.00000000       0.00000000       0.00000000       0.00000000       0.00066255       0.00081423      -0.17500788       0.02277088       0.01146028      -0.16752859
Cu       0.00000000       0.00000000      15.19600000        5       0.00000000       0.00000000       0.00000000       0.00000000       0.00021243       0.00059097      -0.19187055      -0.00371277      -0.00030486      -0.01716203
Cu       3.63000000       0.00000000      15.19600000        5       0.00000000       0.00000000       0.00000000       0.00000000      -0.00011050      -0.00014670      -0.25461776       0.00192845       0.01281311      -0.12229972
Cu       0.00000000       2.56679762      15.19600000        5       0.00000000       0.00000000       0.00000000       0.00000000       0.00004872       0.00014753      -0.29541027       0.00072136      -0.01460593      -0.02536427
Cu       3.63000000       2.56679762      15.19600000        5       0.00000000       0.00000000       0.00000000       0.00000000       0.00017466       0.00025569      -0.25507050      -0.00207179      -0.00250961      -0.16000832
Cu       0.00000000       5.13359523      15.19600000        5       0.00000000       0.00000000       0.00000000       0.00000000      -0.00014161       0.00110793      -0.17818187       0.00289093      -0.00527607      -0.19051814
Cu       3.63000000       5.13359523      15.19600000        5       0.00000000       0.00000000       0.00000000       0.00000000       0.00023213       0.00097673      -0.24605226      -0.00372671      -0.01010885      -0.15729555
Cu       0.00000000       7.70039285      15.19600000        5       0.00000000       0.00000000       0.00000000       0.00000000       0.00009970      -0.00048701      -0.23835327      -0.00056507       0.01008399      -0.27345137
Cu       3.63000000       7.70039285      15.19600000        5       0.00000000       0.00000000       0.00000000       0.00000000       0.00008192      -0.00093302      -0.24174196       0.00076555       0.00187706      -0.14048102
Cu       1.81500000       1.28339881      16.49500000        4       0.00000000       0.00000000       0.00000000       0.00000000      -0.00133813      -0.02138125      -0.37622213      -0.09975377       0.01750497      -0.32954162
Cu       5.44500000       1.28339881      16.49500000        4       0.00000000       0.00000000       0.00000000       0.00000000       0.01010472      -0.02531666      -0.37865269       0.10864481       0.01563867      -0.30559344
Cu       1.81500000       3.85019642      16.49500000        4       0.00000000       0.00000000       0.00000000       0.00000000      -0.00567597       0.02575148      -0.38429260      -0.03406690      -0.08566894      -0.48791952
Cu       5.44500000       3.85019642      16.49500000        4       0.00000000       0.00000000       0.00000000       0.00000000       0.01670741       0.02755879      -0.36921811       0.03414318      -0.07980240      -0.45098891
Cu       1.81500000       6.41699404      16.49500000        4       0.00000000       0.00000000       0.00000000       0.00000000      -0.02339864      -0.01711700      -0.35815562       0.02987444       0.00240570      -0.53700196
Cu       5.44500000       6.41699404      16.49500000        4       0.00000000       0.00000000       0.00000000       0.00000000       0.03455620      -0.01750500      -0.34866026      -0.03954096       0.00079521      -0.55203562
Cu       1.81500000       8.98379165      16.49500000        4       0.00000000       0.00000000       0.00000000       0.00000000      -0.01901416       0.00243212      -0.37367758      -0.00676166       0.08102068      -0.42698931
Cu       5.44500000       8.98379165      16.49500000        4       0.00000000       0.00000000       0.00000000       0.00000000       0.02800231       0.00537876      -0.37882485      -0.00055165       0.08232493      -0.43036946
Cu      -0.00092133       0.00122569      17.74542688        3       0.00000000       0.00012531       0.00535334       0.07108420      -0.00010231       0.00503394       0.07309809      -0.00189839       0.01560459       0.13991587
Cu       3.63080588       0.01735203      17.69993565        3       0.00000000       0.00027400       0.00582211       0.07678354      -0.00000088       0.00981996       0.07368551      -0.00576562       0.03925708       0.09633994
Cu       0.00021329       2.57301727      17.74018477        3       0.00000000       0.00001255       0.00244129       0.08446690       0.00022094       0.00741686       0.06788930      -0.00052343      -0.03439763       0.09868185
Cu       3.63259720       2.55173774      17.69642513        3       0.00000000      -0.00033226       0.00038766       0.07636211      -0.00022450      -0.00386054       0.08323682      -0.00203895      -0.02040656       0.08166331
Cu      -0.00143743       5.13356592      17.68634816        3       0.00000000       0.00028932       0.00230530       0.06230143      -0.00004810       0.00054276       0.06794487      -0.00206610       0.08337136       0.06738352
Cu       3.63100787       5.12654212      17.67930310        3       0.00000000      -0.00031016       0.00094418       0.07138871       0.00042705      -0.00088652       0.07532795      -0.00079219      -0.00755213       0.07191604
Cu      -0.00145220       7.70363378      17.65837101        3       0.00000000      -0.00001660       0.00425289       0.05399046       0.00040345       0.00131056       0.05151725      -0.00732981      -0.02583844       0.08970103
Cu       3.62892192       7.71516865      17.68377372        3       0.00000000       0.00016537       0.00565754       0.07266485      -0.00011202       0.00449470       0.06832870      -0.00199423      -0.00168891       0.07451086
Cu       1.77035734       1.29798306      19.03810769        2       0.00000000      -0.00443027       0.01554651       0.13658977       0.00353755       0.00049239       0.13416602      -0.00834391       0.03960808      -0.03679388
Cu       5.49590373       1.30116028      19.05207768        2       0.00000000       0.00349011       0.01286532       0.13487482      -0.00390571       0.00180217       0.13225739       0.01835867       0.04322446      -0.01861386
Cu       1.82935754       3.85141273      18.96683393        2       0.00000000       0.00638681       0.00245734       0.12119752       0.00266902      -0.00525274       0.12782357       0.04385811      -0.01352178      -0.00267817
Cu       5.43485199       3.83986274      18.97914940        2       0.00000000      -0.00717522       0.00411253       0.11879129      -0.00206751      -0.00569652       0.12701125      -0.04153908      -0.02268567       0.02934250
Cu       1.84350922       6.41415950      18.96603576        2       0.00000000       0.01720892       0.00516152       0.11183763       0.02046726      -0.00372950       0.11040127       0.01904562       0.04160074      -0.04999356
Cu       5.40780059       6.41431373      18.96257821        2       0.00000000      -0.01808866       0.00715346       0.11064077      -0.02034143      -0.00276807       0.10916709      -0.02803421       0.05279265      -0.05166695
Cu       1.81404889       9.00414880      18.98654331        2       0.00000000       0.00829349       0.01527332       0.12092674       0.00851408      -0.00058847       0.11826583       0.08054831      -0.01492858      -0.06700954
Cu       5.44272063       9.01097562      18.98911727        2       0.00000000      -0.00761966       0.01508604       0.12169450      -0.00849401      -0.00173539       0.11645568      -0.07665195      -0.01960029      -0.06626829
Cu       0.00831881       0.05372610      20.30114999        1       0.00000000       0.00167631      -0.00259009       0.18925789      -0.00121756      -0.01747399       0.14026274      -0.02018525      -0.04384312       0.02087542
Cu       3.62551933       0.00910528      20.14550116        1       0.00000000       0.00091240       0.01896539       0.15079872      -0.00028584       0.01481363       0.14096840       0.01697890       0.04542794      -0.08713863
Cu       0.03748572       2.68948754      20.31637563        1       0.00000000      -0.00032347       0.04313820       0.21861785       0.00126239      -0.01583875       0.14775614       0.01666217      -0.05132200      -0.02517146
Cu       3.62120851       2.56049915      20.14393774        1       0.00000000      -0.00071994       0.00648063       0.15480931      -0.00085552      -0.00122332       0.15095710       0.01874546       0.01969810      -0.04524988
Cu      -0.01967842       5.18723233      20.09355259        1       0.00000000      -0.00152670       0.02139198       0.13563710      -0.00106420      -0.02322139       0.13647589       0.07888023      -0.02482873      -0.03497758
Cu       3.62943703       5.12571696      20.14370444        1       0.00000000      -0.00056167       0.00551383       0.14923878      -0.00073784       0.00237801       0.15095227      -0.00074074      -0.00332387      -0.12907357
Cu      -0.01003318       7.65249709      20.04247725        1       0.00000000       0.00116046       0.02000610       0.15225741       0.00107813      -0.00824042       0.14191859       0.01809510       0.16782390       0.10174759
Cu       3.62824777       7.71157262      20.14155116        1       0.00000000       0.00130553       0.01196496       0.14635689      -0.00247488       0.01017545       0.13957748       0.01095208       0.00055521      -0.13108696
O        0.05908518       9.35462064      22.14715251        0       0.00000000       0.00762775      -0.03174071       0.02753225      -0.01425968       0.00745505       0.09225323       0.01535275       0.18584929       0.42950136
C        0.07481050       8.13262310      21.88973118        0       0.00000000       0.00958950       0.02286910       0.05443761      -0.00531185       0.03312714       0.05630851       0.03883818      -0.19406447       0.21168137
O        0.14324750       7.22786554      22.86559754        0       0.00000000       0.02179234      -0.04896921       0.03596526      -0.01051393       0.00795903       0.04083524      -0.13798317      -0.18946170       0.15963424
H        0.16666952       6.27311560      22.51110150        0       0.00000000       0.02299367      -0.00707569       0.01639139       0.02874298      -0.00785534       0.01051588       0.00652487      -0.66303917      -0.46077944
O        0.09000247       4.45662459      21.83766703        0       0.50000000      -0.02341726      -0.16639821      -0.02361033      -0.00020488      -0.01686346       0.03976009       0.02875534       0.64596150      -0.03634583
H       -0.81624982       4.33634685      22.17688849        0       0.50000000      -0.03667494      -0.01755550      -0.00030144      -0.03603079       0.02690367       0.01870782      -0.06218745      -0.07343515       0.09232227
62
Lattice="7.26 0.0 0.0 0.0 10.26719046282867 0.0 0.0 0.0 30.392" Properties=species:S:1:pos:R:3:tags:I:1:initial_magmoms:R:1:MACE_forces:R:3:forces:R:3:DFT_forces:R:3 MACE_energy=-251.33049742480887 energy=-252.087500241033 stress="0.0044975561111709125 8.810443933857045e-07 0.00010728813243967474 8.810443933857045e-07 0.006489355393789003 -5.9733471431731176e-05 0.00010728813243967474 -5.9733471431731176e-05 -0.0008584545804065417" free_energy=-252.087500241033 DFT_energy=-257.20748656 pbc="T T T"
Cu       0.00033949      -0.00174187      12.59832408        7       0.00000000       0.00000000       0.00000000       0.00000000      -0.00070913       0.00998676       0.41835467      -0.00123989       0.03727959       0.68436373
Cu       3.62961954      -0.00066879      12.59861168        7       0.00000000       0.00000000       0.00000000       0.00000000       0.00090900       0.00364844       0.41590338       0.00094562      -0.01195673       0.66646752
Cu       0.00101862       2.56771771      12.59716078        7       0.00000000       0.00000000       0.00000000       0.00000000      -0.00267556      -0.00613596       0.41962782      -0.00318268      -0.01143348       0.68287959
Cu       3.62969450       2.56712490      12.59897555        7       0.00000000       0.00000000       0.00000000       0.00000000       0.00042427      -0.00121001       0.41446946      -0.00048470       0.01010689       0.65769074
Cu      -0.00047342       5.13341180      12.59689367        7       0.00000000       0.00000000       0.00000000       0.00000000       0.00153747       0.00294579       0.42343874       0.00068952      -0.03847238       0.71118845
Cu       3.62881816       5.13439800      12.59935624        7       0.00000000       0.00000000       0.00000000       0.00000000       0.00315459      -0.00237382       0.41353843       0.00431389      -0.00651460       0.68235695
Cu      -0.00007115       7.70138433      12.59836164        7       0.00000000       0.00000000       0.00000000       0.00000000       0.00019302      -0.00676376       0.41725205       0.00015339       0.01333399       0.70250236
Cu       3.62936263       7.70074990      12.59953804        7       0.00000000       0.00000000       0.00000000       0.00000000       0.00153043      -0.00113798       0.41318645       0.00125818       0.01072417       0.66549426
Cu       1.81500000       1.28339881      13.89700000        6       0.00000000       0.00000000       0.00000000       0.00000000      -0.00246142      -0.00126101      -0.17829908      -0.00447050      -0.00035294      -0.17033998
Cu       5.44500000       1.28339881      13.89700000        6       0.00000000       0.00000000       0.00000000       0.00000000       0.00331907      -0.00088895      -0.18028805       0.00194223      -0.00306788      -0.17326022
Cu       1.81500000       3.85019642      13.89700000        6       0.00000000       0.00000000       0.00000000       0.00000000      -0.00313913       0.00194142      -0.17643421      -0.02074935      -0.01134476      -0.17556002
Cu       5.44500000       3.85019642      13.89700000        6       0.00000000       0.00000000       0.00000000       0.00000000       0.00203186       0.00138981      -0.17817199       0.01948544      -0.01221138      -0.17614974
Cu       1.81500000       6.41699404      13.89700000        6       0.00000000       0.00000000       0.00000000       0.00000000      -0.00581862      -0.00059563      -0.17377469       0.01402887       0.00265199      -0.17196709
Cu       5.44500000       6.41699404      13.89700000        6       0.00000000       0.00000000       0.00000000       0.00000000       0.00297185      -0.00069911      -0.17500980      -0.01620575       0.00590922      -0.17095839
Cu       1.81500000       8.98379165      13.89700000        6       0.00000000       0.00000000       0.00000000       0.00000000      -0.00154084       0.00053551      -0.17360904      -0.02123865       0.00817380      -0.16679419
Cu       5.44500000       8.98379165      13.89700000        6       0.00000000       0.00000000       0.00000000       0.00000000       0.00066255       0.00081423      -0.17500788       0.02017289       0.01117819      -0.16774550
Cu       0.00000000       0.00000000      15.19600000        5       0.00000000       0.00000000       0.00000000       0.00000000       0.00021243       0.00059097      -0.19187055      -0.00215649       0.00254635      -0.02165901
Cu       3.63000000       0.00000000      15.19600000        5       0.00000000       0.00000000       0.00000000       0.00000000      -0.00011050      -0.00014670      -0.25461776       0.00078947       0.01186471      -0.12315899
Cu       0.00000000       2.56679762      15.19600000        5       0.00000000       0.00000000       0.00000000       0.00000000       0.00004872       0.00014753      -0.29541027       0.00093479      -0.01226520      -0.02870620
Cu       3.63000000       2.56679762      15.19600000        5       0.00000000       0.00000000       0.00000000       0.00000000       0.00017466       0.00025569      -0.25507050      -0.00184545      -0.00206020      -0.16022864
Cu       0.00000000       5.13359523      15.19600000        5       0.00000000       0.00000000       0.00000000       0.00000000      -0.00014161       0.00110793      -0.17818187       0.00158243      -0.00775492      -0.18510267
Cu       3.63000000       5.13359523      15.19600000        5       0.00000000       0.00000000       0.00000000       0.00000000       0.00023213       0.00097673      -0.24605226      -0.00271660      -0.00735132      -0.15413561
Cu       0.00000000       7.70039285      15.19600000        5       0.00000000       0.00000000       0.00000000       0.00000000       0.00009970      -0.00048701      -0.23835327      -0.00039728       0.01148407      -0.26905030
Cu       3.63000000       7.70039285      15.19600000        5       0.00000000       0.00000000       0.00000000       0.00000000       0.00008192      -0.00093302      -0.24174196       0.00030219       0.00202006      -0.14156996
Cu       1.81500000       1.28339881      16.49500000        4       0.00000000       0.00000000       0.00000000       0.00000000      -0.00133813      -0.02138125      -0.37622213      -0.09792368       0.01392841      -0.33915815
Cu       5.44500000       1.28339881      16.49500000        4       0.00000000       0.00000000       0.00000000       0.00000000       0.01010472      -0.02531666      -0.37865269       0.10213975       0.01159197      -0.31240801
Cu       1.81500000       3.85019642      16.49500000        4       0.00000000       0.00000000       0.00000000       0.00000000      -0.00567597       0.02575148      -0.38429260      -0.03200809      -0.08272492      -0.48375778
Cu       5.44500000       3.85019642      16.49500000        4       0.00000000       0.00000000       0.00000000       0.00000000       0.01670741       0.02755879      -0.36921811       0.03116759      -0.08001916      -0.44994533
Cu       1.81500000       6.41699404      16.49500000        4       0.00000000       0.00000000       0.00000000       0.00000000      -0.02339864      -0.01711700      -0.35815562       0.02723666       0.00163390      -0.53403545
Cu       5.44500000       6.41699404      16.49500000        4       0.00000000       0.00000000       0.00000000       0.00000000       0.03455620      -0.01750500      -0.34866026      -0.03795027       0.00127536      -0.54947325
Cu       1.81500000       8.98379165      16.49500000        4       0.00000000       0.00000000       0.00000000       0.00000000      -0.01901416       0.00243212      -0.37367758      -0.00800609       0.07498006      -0.42607853
Cu       5.44500000       8.98379165      16.49500000        4       0.00000000       0.00000000       0.00000000       0.00000000       0.02800231       0.00537876      -0.37882485       0.00036028       0.07519405      -0.43007893
Cu      -0.00096785      -0.00049522      17.74463012        3       0.00000000      -0.00000605       0.00516419       0.07159218      -0.00010231       0.00503394       0.07309809      -0.00304412       0.00972538       0.13798404
Cu       3.63084783       0.01511182      17.69957842        3       0.00000000       0.00060241       0.00424322       0.07543280      -0.00000088       0.00981996       0.07368551      -0.00351780       0.04166915       0.09719209
Cu       0.00027250       2.57104362      17.73595812        3       0.00000000      -0.00007456       0.00145075       0.07471503       0.00022094       0.00741686       0.06788930      -0.00213167      -0.03020850       0.07876556
Cu       3.63236767       2.55112663      17.69617119        3       0.00000000      -0.00011034       0.00179255       0.07574474      -0.00022450      -0.00386054       0.08323682      -0.00271313      -0.01885969       0.07897114
Cu      -0.00158128       5.13228318      17.68817384        3       0.00000000       0.00046564       0.00358375       0.06653390      -0.00004810       0.00054276       0.06794487      -0.00096807       0.07702046       0.07341483
Cu       3.63079839       5.12489253      17.67960581        3       0.00000000       0.00000083       0.00178506       0.07288354       0.00042705      -0.00088652       0.07532795      -0.00298415      -0.01106720       0.07497851
Cu      -0.00147385       7.70174528      17.65996094        3       0.00000000      -0.00013360       0.00463305       0.05807977       0.00040345       0.00131056       0.05151725      -0.00607795      -0.02601942       0.09065356
Cu       3.62875177       7.71319330      17.68384252        3       0.00000000       0.00076191       0.00323534       0.07344892      -0.00011202       0.00449470       0.06832870      -0.00071836      -0.00304023       0.07503859
Cu       1.77459847       1.29196518      19.03448443        2       0.00000000       0.00176449       0.00877381       0.13020066       0.00353755       0.00049239       0.13416602       0.00377848       0.03010211      -0.04191363
Cu       5.49181988       1.29573159      19.04865347        2       0.00000000      -0.00182860       0.00675104       0.12945656      -0.00390571       0.00180217       0.13225739       0.01389899       0.03969992      -0.01660982
Cu       1.82854091       3.84852350      18.96956727        2       0.00000000       0.00588334       0.00071504       0.12465492       0.00266902      -0.00525274       0.12782357       0.04705748      -0.01979733      -0.01110251
Cu       5.43514443       3.83640530      18.98134617        2       0.00000000      -0.00648076       0.00318475       0.12181361      -0.00206751      -0.00569652       0.12701125      -0.04717102      -0.02986740       0.02103273
Cu       1.84164549       6.40983119      18.96668089        2       0.00000000       0.01374436       0.00340810       0.11356952       0.02046726      -0.00372950       0.11040127       0.01940691       0.04702625      -0.04692011
Cu       5.40924131       6.40991703      18.96307663        2       0.00000000      -0.01278543       0.00406101       0.11380354      -0.02034143      -0.00276807       0.10916709      -0.02174896       0.05269364      -0.04683936
Cu       1.81329015       8.99954099      18.98669418        2       0.00000000       0.00931658       0.01134371       0.11989908       0.00851408      -0.00058847       0.11826583       0.07869617      -0.01954448      -0.06546438
Cu       5.44320978       9.00636903      18.98903790        2       0.00000000      -0.00806747       0.01105615       0.12118885      -0.00849401      -0.00173539       0.11645568      -0.07502465      -0.02519056      -0.06412132
Cu       0.00792273       0.04795973      20.29894687        1       0.00000000       0.00196660      -0.01592181       0.18594410      -0.00121756      -0.01747399       0.14026274      -0.01794110      -0.04430156       0.01793525
Cu       3.62567598       0.00348113      20.14569669        1       0.00000000       0.00074674       0.01767558       0.15291832      -0.00028584       0.01481363       0.14096840       0.01439117       0.04263930      -0.08535829
Cu       0.03711100       2.66745452      20.28512263        1       0.00000000      -0.00450304       0.00081649       0.15711482       0.00126239      -0.01583875       0.14775614       0.00628390      -0.07046782      -0.06798138
Cu       3.62074179       2.55580832      20.14424125        1       0.00000000      -0.00051203       0.00688708       0.15442632      -0.00085552      -0.00122332       0.15095710       0.02147486       0.02011243      -0.04473425
Cu      -0.02059570       5.17046729      20.09718451        1       0.00000000       0.00257311      -0.00894844       0.14361315      -0.00106420      -0.02322139       0.13647589       0.08553664      -0.04341835       0.01477105
Cu       3.62959323       5.12156514      20.14343510        1       0.00000000      -0.00098511       0.00686721       0.14851666      -0.00073784       0.00237801       0.15095227       0.00112316      -0.00004796      -0.12177820
Cu      -0.01042145       7.64817965      20.04818475        1       0.00000000       0.00063557       0.00831222       0.13508141       0.00107813      -0.00824042       0.14191859       0.01580341       0.14272572       0.07711377
Cu       3.62816536       7.70668994      20.14077119        1       0.00000000       0.00191201       0.01103409       0.14646970      -0.00247488       0.01017545       0.13957748       0.00965726      -0.00123069      -0.12803314
O        0.05713485       9.36084411      22.14081456        0       0.00000000       0.00776626      -0.01533213       0.03010170      -0.01425968       0.00745505       0.09225323       0.01763330       0.18414298       0.41880676
C        0.07197641       8.13480737      21.89494269        0       0.00000000       0.01104599      -0.01479037       0.07797262      -0.00531185       0.03312714       0.05630851       0.03590590      -0.17861789       0.18282733
O        0.13865329       7.23687579      22.86930309        0       0.00000000       0.02135575      -0.03129816       0.02284919      -0.01051393       0.00795903       0.04083524      -0.15696588      -0.04565194       0.19937780
H        0.15540027       6.27192000      22.51903076        0       0.00000000       0.01119383      -0.03773732       0.00958122       0.02874298      -0.00785534       0.01051588       0.00548351      -0.65335422      -0.42911948
O        0.09903992       4.55085540      21.87924021        0       0.50000000      -0.03525291      -0.02472124       0.04242804      -0.00020488      -0.01686346       0.03976009       0.01838782       0.53688021      -0.05004681
H       -0.80243147       4.34331422      22.18900990        0       0.50000000      -0.01616025       0.01668502       0.01321712      -0.03603079       0.02690367       0.01870782      -0.03043979      -0.02209920       0.10953803
62
Lattice="7.26 0.0 0.0 0.0 10.26719046282867 0.0 0.0 0.0 30.392" Properties=species:S:1:pos:R:3:tags:I:1:initial_magmoms:R:1:MACE_forces:R:3:forces:R:3:DFT_forces:R:3 MACE_energy=-251.3379597590712 energy=-252.087500241033 stress="0.0044975561111709125 8.810443933857045e-07 0.00010728813243967474 8.810443933857045e-07 0.006489355393789003 -5.9733471431731176e-05 0.00010728813243967474 -5.9733471431731176e-05 -0.0008584545804065417" free_energy=-252.087500241033 DFT_energy=-257.22015933 pbc="T T T"
Cu       0.00033949      -0.00174187      12.59832408        7       0.00000000       0.00000000       0.00000000       0.00000000      -0.00070913       0.00998676       0.41835467      -0.00073192       0.03503044       0.68408178
Cu       3.62961954      -0.00066879      12.59861168        7       0.00000000       0.00000000       0.00000000       0.00000000       0.00090900       0.00364844       0.41590338       0.00139673      -0.01191090       0.66819611
Cu       0.00101862       2.56771771      12.59716078        7       0.00000000       0.00000000       0.00000000       0.00000000      -0.00267556      -0.00613596       0.41962782      -0.00368949      -0.01346191       0.68285721
Cu       3.62969450       2.56712490      12.59897555        7       0.00000000       0.00000000       0.00000000       0.00000000       0.00042427      -0.00121001       0.41446946       0.00027067       0.00891710       0.65797236
Cu      -0.00047342       5.13341180      12.59689367        7       0.00000000       0.00000000       0.00000000       0.00000000       0.00153747       0.00294579       0.42343874       0.00038067      -0.03380988       0.70903788
Cu       3.62881816       5.13439800      12.59935624        7       0.00000000       0.00000000       0.00000000       0.00000000       0.00315459      -0.00237382       0.41353843       0.00506248      -0.00509331       0.68322062
Cu      -0.00007115       7.70138433      12.59836164        7       0.00000000       0.00000000       0.00000000       0.00000000       0.00019302      -0.00676376       0.41725205       0.00066699       0.01349329       0.70069404
Cu       3.62936263       7.70074990      12.59953804        7       0.00000000       0.00000000       0.00000000       0.00000000       0.00153043      -0.00113798       0.41318645       0.00134395       0.01049139       0.66380677
Cu       1.81500000       1.28339881      13.89700000        6       0.00000000       0.00000000       0.00000000       0.00000000      -0.00246142      -0.00126101      -0.17829908      -0.00500897       0.00285834      -0.17073721
Cu       5.44500000       1.28339881      13.89700000        6       0.00000000       0.00000000       0.00000000       0.00000000       0.00331907      -0.00088895      -0.18028805       0.00240936      -0.00011539      -0.17400809
Cu       1.81500000       3.85019642      13.89700000        6       0.00000000       0.00000000       0.00000000       0.00000000      -0.00313913       0.00194142      -0.17643421      -0.01858540      -0.01112006      -0.17602264
Cu       5.44500000       3.85019642      13.89700000        6       0.00000000       0.00000000       0.00000000       0.00000000       0.00203186       0.00138981      -0.17817199       0.01859048      -0.01228582      -0.17699304
Cu       1.81500000       6.41699404      13.89700000        6       0.00000000       0.00000000       0.00000000       0.00000000      -0.00581862      -0.00059563      -0.17377469       0.01449859       0.00057186      -0.17240176
Cu       5.44500000       6.41699404      13.89700000        6       0.00000000       0.00000000       0.00000000       0.00000000       0.00297185      -0.00069911      -0.17500980      -0.01693562       0.00373670      -0.17152177
Cu       1.81500000       8.98379165      13.89700000        6       0.00000000       0.00000000       0.00000000       0.00000000      -0.00154084       0.00053551      -0.17360904      -0.01795548       0.00735096      -0.16675610
Cu       5.44500000       8.98379165      13.89700000        6       0.00000000       0.00000000       0.00000000       0.00000000       0.00066255       0.00081423      -0.17500788       0.01637408       0.01045300      -0.16754220
Cu       0.00000000       0.00000000      15.19600000        5       0.00000000       0.00000000       0.00000000       0.00000000       0.00021243       0.00059097      -0.19187055      -0.00162003       0.00548344      -0.02591671
Cu       3.63000000       0.00000000      15.19600000        5       0.00000000       0.00000000       0.00000000       0.00000000      -0.00011050      -0.00014670      -0.25461776       0.00100644       0.00994927      -0.12559926
Cu       0.00000000       2.56679762      15.19600000        5       0.00000000       0.00000000       0.00000000       0.00000000       0.00004872       0.00014753      -0.29541027       0.00140289      -0.00975652      -0.04041036
Cu       3.63000000       2.56679762      15.19600000        5       0.00000000       0.00000000       0.00000000       0.00000000       0.00017466       0.00025569      -0.25507050      -0.00139957      -0.00260726      -0.16224710
Cu       0.00000000       5.13359523      15.19600000        5       0.00000000       0.00000000       0.00000000       0.00000000      -0.00014161       0.00110793      -0.17818187       0.00240652      -0.01044567      -0.17766807
Cu       3.63000000       5.13359523      15.19600000        5       0.00000000       0.00000000       0.00000000       0.00000000       0.00023213       0.00097673      -0.24605226      -0.00251527      -0.00498848      -0.15183157
Cu       0.00000000       7.70039285      15.19600000        5       0.00000000       0.00000000       0.00000000       0.00000000       0.00009970      -0.00048701      -0.23835327      -0.00004753       0.01140859      -0.26864439
Cu       3.63000000       7.70039285      15.19600000        5       0.00000000       0.00000000       0.00000000       0.00000000       0.00008192      -0.00093302      -0.24174196       0.00037311       0.00203680      -0.14270188
Cu       1.81500000       1.28339881      16.49500000        4       0.00000000       0.00000000       0.00000000       0.00000000      -0.00133813      -0.02138125      -0.37622213      -0.09176266       0.01009567      -0.35221799
Cu       5.44500000       1.28339881      16.49500000        4       0.00000000       0.00000000       0.00000000       0.00000000       0.01010472      -0.02531666      -0.37865269       0.09467057       0.00773488      -0.32534648
Cu       1.81500000       3.85019642      16.49500000        4       0.00000000       0.00000000       0.00000000       0.00000000      -0.00567597       0.02575148      -0.38429260      -0.02824592      -0.07748986      -0.48119941
Cu       5.44500000       3.85019642      16.49500000        4       0.00000000       0.00000000       0.00000000       0.00000000       0.01670741       0.02755879      -0.36921811       0.02651987      -0.07527478      -0.45133085
Cu       1.81500000       6.41699404      16.49500000        4       0.00000000       0.00000000       0.00000000       0.00000000      -0.02339864      -0.01711700      -0.35815562       0.02453083       0.00241855      -0.53132723
Cu       5.44500000       6.41699404      16.49500000        4       0.00000000       0.00000000       0.00000000       0.00000000       0.03455620      -0.01750500      -0.34866026      -0.03600001       0.00115738      -0.54402510
Cu       1.81500000       8.98379165      16.49500000        4       0.00000000       0.00000000       0.00000000       0.00000000      -0.01901416       0.00243212      -0.37367758      -0.00702169       0.06962515      -0.42677907
Cu       5.44500000       8.98379165      16.49500000        4       0.00000000       0.00000000       0.00000000       0.00000000       0.02800231       0.00537876      -0.37882485       0.00249263       0.06984426      -0.43213306
Cu      -0.00096149      -0.00126907      17.74413105        3       0.00000000       0.00003916       0.00386365       0.07116121      -0.00010231       0.00503394       0.07309809      -0.00197102       0.00255337       0.13483022
Cu       3.63097175       0.01335574      17.69883481        3       0.00000000       0.00068793       0.00076813       0.07425899      -0.00000088       0.00981996       0.07368551      -0.00255007       0.04043948       0.09589526
Cu       0.00016633       2.56979798      17.72819964        3       0.00000000      -0.00021303      -0.00058843       0.06246746       0.00022094       0.00741686       0.06788930      -0.00207367      -0.02500055       0.06401693
Cu       3.63221970       2.55137990      17.69554899        3       0.00000000      -0.00035903       0.00234875       0.07505921      -0.00022450      -0.00386054       0.08323682      -0.00338194      -0.01817383       0.07782263
Cu      -0.00150231       5.13235502      17.69079621        3       0.00000000       0.00053490       0.00300270       0.07067719      -0.00004810       0.00054276       0.06794487      -0.00131872       0.06628547       0.08220755
Cu       3.63068563       5.12423580      17.68012634        3       0.00000000      -0.00019899       0.00070972       0.07357234       0.00042705      -0.00088652       0.07532795      -0.00292671      -0.01622021       0.07666143
Cu      -0.00148379       7.70119758      17.66079857        3       0.00000000      -0.00009776       0.00329768       0.05863375       0.00040345       0.00131056       0.05151725      -0.00440354      -0.02686351       0.08615038
Cu       3.62901695       7.71153905      17.68403984        3       0.00000000       0.00102021      -0.00000060       0.07395134      -0.00011202       0.00449470       0.06832870       0.00091250      -0.00555757       0.07577657
Cu       1.77996356       1.28599934      19.02977045        2       0.00000000       0.01037168      -0.00098911       0.12281627       0.00353755       0.00049239       0.13416602       0.01848948       0.02022811      -0.04594057
Cu       5.48628048       1.28986741      19.04362839        2       0.00000000      -0.01067303      -0.00272002       0.12158075      -0.00390571       0.00180217       0.13225739       0.00358523       0.03069872      -0.02028344
Cu       1.82770107       3.84608578      18.97251900        2       0.00000000       0.00458933      -0.00348908       0.12976596       0.00266902      -0.00525274       0.12782357       0.04619363      -0.03137843      -0.01866158
Cu       5.43540944       3.83519854      18.98301221        2       0.00000000      -0.00577784       0.00043724       0.12528833      -0.00206751      -0.00569652       0.12701125      -0.05199659      -0.04128702       0.01250091
Cu       1.84031071       6.40697848      18.96727283        2       0.00000000       0.01180675      -0.00178479       0.11484583       0.02046726      -0.00372950       0.11040127       0.02026038       0.05033799      -0.04363316
Cu       5.41166200       6.40614446      18.96445853        2       0.00000000      -0.00941904      -0.00237580       0.11605713      -0.02034143      -0.00276807       0.10916709      -0.01650855       0.05013080      -0.04104252
Cu       1.81366756       8.99601472      18.98629080        2       0.00000000       0.00958134       0.00556846       0.11943765       0.00851408      -0.00058847       0.11826583       0.07454578      -0.02613831      -0.06209831
Cu       5.44306581       9.00269267      18.98874649        2       0.00000000      -0.00809396       0.00503650       0.12081965      -0.00849401      -0.00173539       0.11645568      -0.07166158      -0.03299689      -0.06130001
Cu       0.00770874       0.03805744      20.29673970        1       0.00000000       0.00153493      -0.03026729       0.18150257      -0.00121756      -0.01747399       0.14026274      -0.01919994      -0.03751424       0.01159486
Cu       3.62575885       0.00081276      20.14655716        1       0.00000000       0.00086614       0.01254510       0.15435162      -0.00028584       0.01481363       0.14096840       0.01422328       0.03530833      -0.08562886
Cu       0.03174601       2.63610875      20.24644476        1       0.00000000      -0.01144611      -0.04855103       0.09542769       0.00126239      -0.01583875       0.14775614      -0.00861260      -0.08322179      -0.08951538
Cu       3.62113558       2.55427583      20.14421316        1       0.00000000       0.00004435       0.00408825       0.15471697      -0.00085552      -0.00122332       0.15095710       0.02339172       0.01588434      -0.04566317
Cu      -0.01696220       5.14992603      20.10305652        1       0.00000000       0.00782364      -0.04191475       0.15503089      -0.00106420      -0.02322139       0.13647589       0.08938106      -0.05870747       0.06648400
Cu       3.62921008       5.12059393      20.14352297        1       0.00000000      -0.00143952       0.00415767       0.14875143      -0.00073784       0.00237801       0.15095227       0.00219410      -0.00153904      -0.11640831
Cu      -0.01041218       7.64334586      20.05128606        1       0.00000000       0.00053660       0.00061878       0.14042349       0.00107813      -0.00824042       0.14191859       0.01477311       0.11880149       0.07436286
Cu       3.62855106       7.70457362      20.14065801        1       0.00000000       0.00233603       0.00654250       0.14605777      -0.00247488       0.01017545       0.13957748       0.00937040      -0.00841834      -0.12724700
O        0.05767432       9.36399044      22.13437486        0       0.00000000       0.00808495       0.00489399       0.02288491      -0.01425968       0.00745505       0.09225323       0.02069249       0.17102080       0.38633671
C        0.07144065       8.13333615      21.90001896        0       0.00000000       0.01004218      -0.03093627       0.08745037      -0.00531185       0.03312714       0.05630851       0.02872692      -0.21479646       0.13756461
O        0.13786260       7.24130063      22.86877778        0       0.00000000       0.01964294      -0.02646585       0.01911402      -0.01051393       0.00795903       0.04083524      -0.16995403       0.15144596       0.23371561
H        0.14363552       6.25892720      22.51923397        0       0.00000000      -0.01079237      -0.06334882       0.00927434       0.02874298      -0.00785534       0.01051588       0.00295361      -0.60880861      -0.38357975
O        0.09912768       4.65277552      21.92266759        0       0.50000000      -0.03154800       0.14593631       0.11307017      -0.00020488      -0.01686346       0.03976009       0.00190061       0.45181151      -0.04225448
H       -0.78882161       4.36046232      22.20254263        0       0.50000000       0.00503177       0.04805496       0.03751681      -0.03603079       0.02690367       0.01870782       0.00208736       0.01737867       0.13283052
62
Lattice="7.26 0.0 0.0 0.0 10.26719046282867 0.0 0.0 0.0 30.392" Properties=species:S:1:pos:R:3:tags:I:1:initial_magmoms:R:1:MACE_forces:R:3:forces:R:3:DFT_forces:R:3 MACE_energy=-251.37317113579272 energy=-252.087500241033 stress="0.0044975561111709125 8.810443933857045e-07 0.00010728813243967474 8.810443933857045e-07 0.006489355393789003 -5.9733471431731176e-05 0.00010728813243967474 -5.9733471431731176e-05 -0.0008584545804065417" free_energy=-252.087500241033 DFT_energy=-257.24685531 pbc="T T T"
Cu       0.00033949      -0.00174187      12.59832408        7       0.00000000       0.00000000       0.00000000       0.00000000      -0.00070913       0.00998676       0.41835467      -0.00027579       0.03283035       0.68235156
Cu       3.62961954      -0.00066879      12.59861168        7       0.00000000       0.00000000       0.00000000       0.00000000       0.00090900       0.00364844       0.41590338       0.00143498      -0.01193112       0.67035981
Cu       0.00101862       2.56771771      12.59716078        7       0.00000000       0.00000000       0.00000000       0.00000000      -0.00267556      -0.00613596       0.41962782      -0.00412507      -0.01489889       0.68199129
Cu       3.62969450       2.56712490      12.59897555        7       0.00000000       0.00000000       0.00000000       0.00000000       0.00042427      -0.00121001       0.41446946       0.00073723       0.00725080       0.65889157
Cu      -0.00047342       5.13341180      12.59689367        7       0.00000000       0.00000000       0.00000000       0.00000000       0.00153747       0.00294579       0.42343874       0.00016746      -0.02986644       0.70436205
Cu       3.62881816       5.13439800      12.59935624        7       0.00000000       0.00000000       0.00000000       0.00000000       0.00315459      -0.00237382       0.41353843       0.00539773      -0.00299438       0.68419911
Cu      -0.00007115       7.70138433      12.59836164        7       0.00000000       0.00000000       0.00000000       0.00000000       0.00019302      -0.00676376       0.41725205       0.00076693       0.01311998       0.69702234
Cu       3.62936263       7.70074990      12.59953804        7       0.00000000       0.00000000       0.00000000       0.00000000       0.00153043      -0.00113798       0.41318645       0.00145804       0.00995970       0.66182303
Cu       1.81500000       1.28339881      13.89700000        6       0.00000000       0.00000000       0.00000000       0.00000000      -0.00246142      -0.00126101      -0.17829908      -0.00567601       0.00568213      -0.17221556
Cu       5.44500000       1.28339881      13.89700000        6       0.00000000       0.00000000       0.00000000       0.00000000       0.00331907      -0.00088895      -0.18028805       0.00278870       0.00272328      -0.17430191
Cu       1.81500000       3.85019642      13.89700000        6       0.00000000       0.00000000       0.00000000       0.00000000      -0.00313913       0.00194142      -0.17643421      -0.01655297      -0.01054055      -0.17661657
Cu       5.44500000       3.85019642      13.89700000        6       0.00000000       0.00000000       0.00000000       0.00000000       0.00203186       0.00138981      -0.17817199       0.01705345      -0.01262337      -0.17821399
Cu       1.81500000       6.41699404      13.89700000        6       0.00000000       0.00000000       0.00000000       0.00000000      -0.00581862      -0.00059563      -0.17377469       0.01459244      -0.00210740      -0.17225748
Cu       5.44500000       6.41699404      13.89700000        6       0.00000000       0.00000000       0.00000000       0.00000000       0.00297185      -0.00069911      -0.17500980      -0.01735875       0.00151879      -0.17209778
Cu       1.81500000       8.98379165      13.89700000        6       0.00000000       0.00000000       0.00000000       0.00000000      -0.00154084       0.00053551      -0.17360904      -0.01410919       0.00690361      -0.16667581
Cu       5.44500000       8.98379165      13.89700000        6       0.00000000       0.00000000       0.00000000       0.00000000       0.00066255       0.00081423      -0.17500788       0.01208157       0.00982181      -0.16686491
Cu       0.00000000       0.00000000      15.19600000        5       0.00000000       0.00000000       0.00000000       0.00000000       0.00021243       0.00059097      -0.19187055      -0.00166319       0.00873375      -0.02953353
Cu       3.63000000       0.00000000      15.19600000        5       0.00000000       0.00000000       0.00000000       0.00000000      -0.00011050      -0.00014670      -0.25461776       0.00157902       0.00719917      -0.12715283
Cu       0.00000000       2.56679762      15.19600000        5       0.00000000       0.00000000       0.00000000       0.00000000       0.00004872       0.00014753      -0.29541027       0.00134372      -0.00740727      -0.05165451
Cu       3.63000000       2.56679762      15.19600000        5       0.00000000       0.00000000       0.00000000       0.00000000       0.00017466       0.00025569      -0.25507050      -0.00119796      -0.00335925      -0.16599542
Cu       0.00000000       5.13359523      15.19600000        5       0.00000000       0.00000000       0.00000000       0.00000000      -0.00014161       0.00110793      -0.17818187       0.00310055      -0.01291308      -0.17054258
Cu       3.63000000       5.13359523      15.19600000        5       0.00000000       0.00000000       0.00000000       0.00000000       0.00023213       0.00097673      -0.24605226      -0.00271801      -0.00264349      -0.14987669
Cu       0.00000000       7.70039285      15.19600000        5       0.00000000       0.00000000       0.00000000       0.00000000       0.00009970      -0.00048701      -0.23835327       0.00009011       0.01036817      -0.27198744
Cu       3.63000000       7.70039285      15.19600000        5       0.00000000       0.00000000       0.00000000       0.00000000       0.00008192      -0.00093302      -0.24174196       0.00027048       0.00238493      -0.14540471
Cu       1.81500000       1.28339881      16.49500000        4       0.00000000       0.00000000       0.00000000       0.00000000      -0.00133813      -0.02138125      -0.37622213      -0.08617831       0.00862084      -0.36099538
Cu       5.44500000       1.28339881      16.49500000        4       0.00000000       0.00000000       0.00000000       0.00000000       0.01010472      -0.02531666      -0.37865269       0.08854394       0.00590317      -0.33547080
Cu       1.81500000       3.85019642      16.49500000        4       0.00000000       0.00000000       0.00000000       0.00000000      -0.00567597       0.02575148      -0.38429260      -0.02366181      -0.07153133      -0.48051580
Cu       5.44500000       3.85019642      16.49500000        4       0.00000000       0.00000000       0.00000000       0.00000000       0.01670741       0.02755879      -0.36921811       0.02219660      -0.06947837      -0.45330498
Cu       1.81500000       6.41699404      16.49500000        4       0.00000000       0.00000000       0.00000000       0.00000000      -0.02339864      -0.01711700      -0.35815562       0.02335528       0.00388824      -0.52846797
Cu       5.44500000       6.41699404      16.49500000        4       0.00000000       0.00000000       0.00000000       0.00000000       0.03455620      -0.01750500      -0.34866026      -0.03401743       0.00106558      -0.53817658
Cu       1.81500000       8.98379165      16.49500000        4       0.00000000       0.00000000       0.00000000       0.00000000      -0.01901416       0.00243212      -0.37367758      -0.00611797       0.06729995      -0.42762053
Cu       5.44500000       8.98379165      16.49500000        4       0.00000000       0.00000000       0.00000000       0.00000000       0.02800231       0.00537876      -0.37882485       0.00403429       0.06720667      -0.43375444
Cu      -0.00092041      -0.00104312      17.74423804        3       0.00000000       0.00012544       0.00244427       0.07103005      -0.00010231       0.00503394       0.07309809      -0.00151801      -0.00290766       0.13220141
Cu       3.63112005       0.01263931      17.69811615        3       0.00000000       0.00060775      -0.00277397       0.07323974      -0.00000088       0.00981996       0.07368551      -0.00283606       0.03864408       0.09549180
Cu       0.00004035       2.56960761      17.72083706        3       0.00000000      -0.00033975      -0.00266196       0.05104361       0.00022094       0.00741686       0.06788930      -0.00169693      -0.01904502       0.05715707
Cu       3.63226421       2.55215951      17.69493580        3       0.00000000      -0.00067305       0.00240333       0.07447791      -0.00022450      -0.00386054       0.08323682      -0.00396080      -0.01849285       0.07659157
Cu      -0.00133917       5.13332141      17.69319856        3       0.00000000       0.00057886       0.00144576       0.07531907      -0.00004810       0.00054276       0.06794487      -0.00129928       0.05430475       0.09621202
Cu       3.63073316       5.12441112      17.68055907        3       0.00000000      -0.00049207      -0.00103873       0.07361181       0.00042705      -0.00088652       0.07532795      -0.00270083      -0.02111485       0.07868882
Cu      -0.00147618       7.70168773      17.66063684        3       0.00000000       0.00004761       0.00124054       0.05752939       0.00040345       0.00131056       0.05151725      -0.00374611      -0.02545277       0.07850098
Cu       3.62940961       7.71079532      17.68422885        3       0.00000000       0.00108328      -0.00309429       0.07405050      -0.00011202       0.00449470       0.06832870       0.00140424      -0.00759903       0.07578146
Cu       1.78439216       1.28212069      19.02613427        2       0.00000000       0.01772887      -0.00992633       0.11700532       0.00353755       0.00049239       0.13416602       0.02969742       0.01352156      -0.04703860
Cu       5.48174404       1.28581959      19.03970934        2       0.00000000      -0.01885353      -0.01174790       0.11449447      -0.00390571       0.00180217       0.13225739      -0.00774155       0.02332202      -0.02559072
Cu       1.82723034       3.84500899      18.97455746        2       0.00000000       0.00337871      -0.00814916       0.13381299       0.00266902      -0.00525274       0.12782357       0.04171421      -0.04290583      -0.02192793
Cu       5.43586947       3.83573938      18.98420573        2       0.00000000      -0.00451613      -0.00224383       0.12819178      -0.00206751      -0.00569652       0.12701125      -0.05112107      -0.05155121       0.00953059
Cu       1.83974455       6.40618222      18.96765996        2       0.00000000       0.01145620      -0.00704871       0.11508232       0.02046726      -0.00372950       0.11040127       0.01997508       0.05223119      -0.03901576
Cu       5.41373617       6.40436517      18.96581418        2       0.00000000      -0.00780711      -0.00881190       0.11706838      -0.02034143      -0.00276807       0.10916709      -0.01246461       0.04744671      -0.03331801
Cu       1.81485299       8.99464617      18.98560662        2       0.00000000       0.00991812       0.00064530       0.11868065       0.00851408      -0.00058847       0.11826583       0.06931219      -0.03407169      -0.05712766
Cu       5.44233491       9.00120413      18.98837820        2       0.00000000      -0.00842097      -0.00012619       0.11996507      -0.00849401      -0.00173539       0.11645568      -0.06769609      -0.04199884      -0.05704619
Cu       0.00785133       0.02838125      20.29659199        1       0.00000000       0.00093042      -0.04145012       0.17664559      -0.00121756      -0.01747399       0.14026274      -0.02027494      -0.02353521       0.00150052
Cu       3.62579354       0.00105941      20.14768950        1       0.00000000       0.00114231       0.00677685       0.15539936      -0.00028584       0.01481363       0.14096840       0.01432214       0.02848224      -0.08438259
Cu       0.02664950       2.61014043      20.21616732        1       0.00000000      -0.01785889      -0.08876128       0.05386700       0.00126239      -0.01583875       0.14775614      -0.01792007      -0.09402993      -0.11510606
Cu       3.62182487       2.55543498      20.14407283        1       0.00000000       0.00085755       0.00065193       0.15555503      -0.00085552      -0.00122332       0.15095710       0.02340254       0.01014497      -0.04520125
Cu      -0.01165706       5.13385464      20.10931980        1       0.00000000       0.01575549      -0.06486243       0.16315354      -0.00106420      -0.02322139       0.13647589       0.09038462      -0.06683453       0.07441394
Cu       3.62881170       5.12199397      20.14370575        1       0.00000000      -0.00161306       0.00014101       0.14948316      -0.00073784       0.00237801       0.15095227       0.00247916      -0.00510286      -0.11235428
Cu      -0.01019511       7.64168895      20.05128043        1       0.00000000       0.00049409       0.00009579       0.15502826       0.00107813      -0.00824042       0.14191859       0.01372921       0.10012093       0.07959688
Cu       3.62902338       7.70497198      20.14103770        1       0.00000000       0.00251692       0.00112258       0.14577724      -0.00247488       0.01017545       0.13957748       0.00950198      -0.01526383      -0.12548118
O        0.05942211       9.36382398      22.13001369        0       0.00000000       0.00935862       0.01183136       0.01628759      -0.01425968       0.00745505       0.09225323       0.02462600       0.12507955       0.34045729
C        0.07248330       8.12848594      21.90453776        0       0.00000000       0.00898677      -0.03320317       0.10470899      -0.00531185       0.03312714       0.05630851       0.01964254      -0.29047345       0.05437472
O        0.13944088       7.23547758      22.85965344        0       0.00000000       0.01495873      -0.01172148      -0.00512394      -0.01051393       0.00795903       0.04083524      -0.17636275       0.33124457       0.28703221
H        0.13239163       6.21928312      22.50636040        0       0.00000000      -0.04341893      -0.13955419      -0.00420417       0.02874298      -0.00785534       0.01051588       0.00182300      -0.58271619      -0.29371580
O        0.09330629       4.74368762      21.95905625        0       0.50000000      -0.03118173       0.31347231       0.17794995      -0.00020488      -0.01686346       0.03976009      -0.02093124       0.44054056      -0.02938416
H       -0.77842217       4.38789635      22.21715397        0       0.50000000       0.03705986       0.08856530       0.07130667      -0.03603079       0.02690367       0.01870782       0.04291598       0.05782663       0.15785636
62
Lattice="7.26 0.0 0.0 0.0 10.26719046282867 0.0 0.0 0.0 30.392" Properties=species:S:1:pos:R:3:tags:I:1:initial_magmoms:R:1:MACE_forces:R:3:forces:R:3:DFT_forces:R:3 MACE_energy=-251.42500764248337 energy=-252.087500241033 stress="0.0044975561111709125 8.810443933857045e-07 0.00010728813243967474 8.810443933857045e-07 0.006489355393789003 -5.9733471431731176e-05 0.00010728813243967474 -5.9733471431731176e-05 -0.0008584545804065417" free_energy=-252.087500241033 DFT_energy=-257.27066755 pbc="T T T"
Cu       0.00033949      -0.00174187      12.59832408        7       0.00000000       0.00000000       0.00000000       0.00000000      -0.00070913       0.00998676       0.41835467      -0.00037082       0.03063764       0.68165032
Cu       3.62961954      -0.00066879      12.59861168        7       0.00000000       0.00000000       0.00000000       0.00000000       0.00090900       0.00364844       0.41590338       0.00141579      -0.01174866       0.67291646
Cu       0.00101862       2.56771771      12.59716078        7       0.00000000       0.00000000       0.00000000       0.00000000      -0.00267556      -0.00613596       0.41962782      -0.00428817      -0.01512938       0.68221976
Cu       3.62969450       2.56712490      12.59897555        7       0.00000000       0.00000000       0.00000000       0.00000000       0.00042427      -0.00121001       0.41446946       0.00104548       0.00541091       0.66067365
Cu      -0.00047342       5.13341180      12.59689367        7       0.00000000       0.00000000       0.00000000       0.00000000       0.00153747       0.00294579       0.42343874       0.00052402      -0.02657745       0.70081787
Cu       3.62881816       5.13439800      12.59935624        7       0.00000000       0.00000000       0.00000000       0.00000000       0.00315459      -0.00237382       0.41353843       0.00546391      -0.00070526       0.68511352
Cu      -0.00007115       7.70138433      12.59836164        7       0.00000000       0.00000000       0.00000000       0.00000000       0.00019302      -0.00676376       0.41725205       0.00081239       0.01200511       0.69421452
Cu       3.62936263       7.70074990      12.59953804        7       0.00000000       0.00000000       0.00000000       0.00000000       0.00153043      -0.00113798       0.41318645       0.00169295       0.00908128       0.66090822
Cu       1.81500000       1.28339881      13.89700000        6       0.00000000       0.00000000       0.00000000       0.00000000      -0.00246142      -0.00126101      -0.17829908      -0.00553338       0.00759072      -0.17286601
Cu       5.44500000       1.28339881      13.89700000        6       0.00000000       0.00000000       0.00000000       0.00000000       0.00331907      -0.00088895      -0.18028805       0.00359958       0.00640598      -0.17468110
Cu       1.81500000       3.85019642      13.89700000        6       0.00000000       0.00000000       0.00000000       0.00000000      -0.00313913       0.00194142      -0.17643421      -0.01517463      -0.01154592      -0.17685429
Cu       5.44500000       3.85019642      13.89700000        6       0.00000000       0.00000000       0.00000000       0.00000000       0.00203186       0.00138981      -0.17817199       0.01540640      -0.01262497      -0.17823152
Cu       1.81500000       6.41699404      13.89700000        6       0.00000000       0.00000000       0.00000000       0.00000000      -0.00581862      -0.00059563      -0.17377469       0.01414698      -0.00346485      -0.17189760
Cu       5.44500000       6.41699404      13.89700000        6       0.00000000       0.00000000       0.00000000       0.00000000       0.00297185      -0.00069911      -0.17500980      -0.01780321      -0.00058957      -0.17158847
Cu       1.81500000       8.98379165      13.89700000        6       0.00000000       0.00000000       0.00000000       0.00000000      -0.00154084       0.00053551      -0.17360904      -0.01008117       0.00688461      -0.16541232
Cu       5.44500000       8.98379165      13.89700000        6       0.00000000       0.00000000       0.00000000       0.00000000       0.00066255       0.00081423      -0.17500788       0.00841269       0.00818712      -0.16580738
Cu       0.00000000       0.00000000      15.19600000        5       0.00000000       0.00000000       0.00000000       0.00000000       0.00021243       0.00059097      -0.19187055      -0.00041417       0.01209711      -0.03364106
Cu       3.63000000       0.00000000      15.19600000        5       0.00000000       0.00000000       0.00000000       0.00000000      -0.00011050      -0.00014670      -0.25461776       0.00098342       0.00453492      -0.12794680
Cu       0.00000000       2.56679762      15.19600000        5       0.00000000       0.00000000       0.00000000       0.00000000       0.00004872       0.00014753      -0.29541027       0.00141684      -0.00567883      -0.05872355
Cu       3.63000000       2.56679762      15.19600000        5       0.00000000       0.00000000       0.00000000       0.00000000       0.00017466       0.00025569      -0.25507050      -0.00123169      -0.00392939      -0.16909681
Cu       0.00000000       5.13359523      15.19600000        5       0.00000000       0.00000000       0.00000000       0.00000000      -0.00014161       0.00110793      -0.17818187       0.00239147      -0.01536399      -0.16519203
Cu       3.63000000       5.13359523      15.19600000        5       0.00000000       0.00000000       0.00000000       0.00000000       0.00023213       0.00097673      -0.24605226      -0.00186754      -0.00002251      -0.15018118
Cu       0.00000000       7.70039285      15.19600000        5       0.00000000       0.00000000       0.00000000       0.00000000       0.00009970      -0.00048701      -0.23835327       0.00011078       0.00845366      -0.27483600
Cu       3.63000000       7.70039285      15.19600000        5       0.00000000       0.00000000       0.00000000       0.00000000       0.00008192      -0.00093302      -0.24174196       0.00025176       0.00271739      -0.14837212
Cu       1.81500000       1.28339881      16.49500000        4       0.00000000       0.00000000       0.00000000       0.00000000      -0.00133813      -0.02138125      -0.37622213      -0.08270192       0.00919699      -0.36597022
Cu       5.44500000       1.28339881      16.49500000        4       0.00000000       0.00000000       0.00000000       0.00000000       0.01010472      -0.02531666      -0.37865269       0.08351256       0.00655044      -0.34081498
Cu       1.81500000       3.85019642      16.49500000        4       0.00000000       0.00000000       0.00000000       0.00000000      -0.00567597       0.02575148      -0.38429260      -0.01987856      -0.06842453      -0.48043939
Cu       5.44500000       3.85019642      16.49500000        4       0.00000000       0.00000000       0.00000000       0.00000000       0.01670741       0.02755879      -0.36921811       0.01946066      -0.06753708      -0.45495531
Cu       1.81500000       6.41699404      16.49500000        4       0.00000000       0.00000000       0.00000000       0.00000000      -0.02339864      -0.01711700      -0.35815562       0.02302062       0.00412727      -0.52507080
Cu       5.44500000       6.41699404      16.49500000        4       0.00000000       0.00000000       0.00000000       0.00000000       0.03455620      -0.01750500      -0.34866026      -0.03133197       0.00162375      -0.53371026
Cu       1.81500000       8.98379165      16.49500000        4       0.00000000       0.00000000       0.00000000       0.00000000      -0.01901416       0.00243212      -0.37367758      -0.00682243       0.06411828      -0.42841164
Cu       5.44500000       8.98379165      16.49500000        4       0.00000000       0.00000000       0.00000000       0.00000000       0.02800231       0.00537876      -0.37882485       0.00528905       0.06412971      -0.43400455
Cu      -0.00089475      -0.00096758      17.74433951        3       0.00000000       0.00014456       0.00178621       0.07102974      -0.00010231       0.00503394       0.07309809      -0.00209178      -0.00501573       0.12979433
Cu       3.63121249       0.01200973      17.69759339        3       0.00000000       0.00051714      -0.00443327       0.07241451      -0.00000088       0.00981996       0.07368551      -0.00214671       0.03726490       0.09539260
Cu      -0.00002716       2.56936200      17.71605746        3       0.00000000      -0.00044707      -0.00327453       0.04268398       0.00022094       0.00741686       0.06788930      -0.00130490      -0.01523572       0.05547645
Cu       3.63230544       2.55266344      17.69455811        3       0.00000000      -0.00061589       0.00176423       0.07349555      -0.00022450      -0.00386054       0.08323682      -0.00340488      -0.01884064       0.07417270
Cu      -0.00124735       5.13367802      17.69474165        3       0.00000000       0.00077768       0.00026999       0.07678064      -0.00004810       0.00054276       0.06794487       0.00059371       0.04479574       0.11035252
Cu       3.63077753       5.12442495      17.68074991        3       0.00000000      -0.00045665      -0.00206005       0.07346020       0.00042705      -0.00088652       0.07532795      -0.00384240      -0.02346619       0.07984953
Cu      -0.00145404       7.70182063      17.66048909        3       0.00000000       0.00007645      -0.00054674       0.06263329       0.00040345       0.00131056       0.05151725      -0.00310907      -0.02408870       0.07761722
Cu       3.62962586       7.71019079      17.68432604        3       0.00000000       0.00133201      -0.00448422       0.07369048      -0.00011202       0.00449470       0.06832870       0.00162374      -0.00862175       0.07508891
Cu       1.78736867       1.27945959      19.02373874        2       0.00000000       0.02322702      -0.01561761       0.11357887       0.00353755       0.00049239       0.13416602       0.03630582       0.01314591      -0.04514759
Cu       5.47869485       1.28308733      19.03711083        2       0.00000000      -0.02477914      -0.01757244       0.11031412      -0.00390571       0.00180217       0.13225739      -0.01658146       0.02030716      -0.02973252
Cu       1.82708250       3.84407785      18.97569658        2       0.00000000       0.00334010      -0.01176304       0.13472440       0.00266902      -0.00525274       0.12782357       0.03521620      -0.05210283      -0.02079677
Cu       5.43624467       3.83584015      18.98505069        2       0.00000000      -0.00385119      -0.00424030       0.12911004      -0.00206751      -0.00569652       0.12701125      -0.04545191      -0.05807327       0.01226758
Cu       1.83954806       6.40558947      18.96786567        2       0.00000000       0.01058701      -0.00826005       0.11491274       0.02046726      -0.00372950       0.11040127       0.01559695       0.05690905      -0.03247194
Cu       5.41490527       6.40316613      18.96665202        2       0.00000000      -0.00541230      -0.01066491       0.11799038      -0.02034143      -0.00276807       0.10916709      -0.00586854       0.04958128      -0.02464639
Cu       1.81568323       8.99379139      18.98504625        2       0.00000000       0.01081965      -0.00303186       0.11741514       0.00851408      -0.00058847       0.11826583       0.06489867      -0.04333508      -0.05112617
Cu       5.44176720       9.00026408      18.98799531        2       0.00000000      -0.00910922      -0.00409578       0.11890350      -0.00849401      -0.00173539       0.11645568      -0.06355833      -0.05201744      -0.05214333
Cu       0.00791345       0.02235332      20.29658319        1       0.00000000       0.00053673      -0.05092251       0.17521032      -0.00121756      -0.01747399       0.14026274      -0.01928940      -0.01336273      -0.01194725
Cu       3.62586271       0.00080326      20.14850531        1       0.00000000       0.00133684       0.00386528       0.15634562      -0.00028584       0.01481363       0.14096840       0.01318186       0.02525575      -0.08427527
Cu       0.02376702       2.59424830      20.19832497        1       0.00000000      -0.02203464      -0.11336900       0.03027693       0.00126239      -0.01583875       0.14775614      -0.02435041      -0.10346049      -0.13790971
Cu       3.62226272       2.55599244      20.14413471        1       0.00000000       0.00183593      -0.00114525       0.15649856      -0.00085552      -0.00122332       0.15095710       0.02388718       0.00689890      -0.04442863
Cu      -0.00767381       5.12427555      20.11382898        1       0.00000000       0.02717620      -0.07776172       0.17853749      -0.00106420      -0.02322139       0.13647589       0.09340192      -0.06554112       0.04697597
Cu       3.62870490       5.12251501      20.14382001        1       0.00000000      -0.00149057      -0.00219731       0.15011838      -0.00073784       0.00237801       0.15095227       0.00345642      -0.00772083      -0.11052784
Cu      -0.01001226       7.64199525      20.05311654        1       0.00000000       0.00046726       0.00608232       0.15887120       0.00107813      -0.00824042       0.14191859       0.01429246       0.09191053       0.07769497
Cu       3.62926943       7.70474258      20.14124632        1       0.00000000       0.00269790      -0.00195525       0.14625400      -0.00247488       0.01017545       0.13957748       0.00948231      -0.01893513      -0.12352020
O        0.06008277       9.36985597      22.12472338        0       0.00000000       0.00900841       0.01412844      -0.01494794      -0.01425968       0.00745505       0.09225323       0.02290051       0.04727834       0.26911140
C        0.07298930       8.12812794      21.91129585        0       0.00000000       0.00821603       0.03878262       0.13841254      -0.00531185       0.03312714       0.05630851       0.00811209      -0.38620706      -0.03517136
O        0.13950785       7.23656332      22.85218259        0       0.00000000       0.01083213       0.00524105      -0.00719644      -0.01051393       0.00795903       0.04083524      -0.16950589       0.52590178       0.36851737
H        0.12185683       6.16713942      22.49090491        0       0.00000000      -0.07965147      -0.37601029      -0.07342321       0.02874298      -0.00785534       0.01051588       0.00264099      -0.48552327      -0.18404240
O        0.08905679       4.81023095      21.98646331        0       0.50000000      -0.03057045       0.49746351       0.24584330      -0.00020488      -0.01686346       0.03976009      -0.05373892       0.32595829      -0.04395199
H       -0.76805858       4.41014526      22.23023245        0       0.50000000       0.06552409       0.13607610       0.11181582      -0.03603079       0.02690367       0.01870782       0.07719608       0.11592985       0.18971884
62
Lattice="7.26 0.0 0.0 0.0 10.26719046282867 0.0 0.0 0.0 30.392" Properties=species:S:1:pos:R:3:tags:I:1:initial_magmoms:R:1:MACE_forces:R:3:forces:R:3:DFT_forces:R:3 MACE_energy=-251.49948706964608 energy=-252.087500241033 stress="0.0044975561111709125 8.810443933857045e-07 0.00010728813243967474 8.810443933857045e-07 0.006489355393789003 -5.9733471431731176e-05 0.00010728813243967474 -5.9733471431731176e-05 -0.0008584545804065417" free_energy=-252.087500241033 DFT_energy=-257.30513363 pbc="T T T"
Cu       0.00033949      -0.00174187      12.59832408        7       0.00000000       0.00000000       0.00000000       0.00000000      -0.00070913       0.00998676       0.41835467      -0.00030795       0.02815508       0.68114627
Cu       3.62961954      -0.00066879      12.59861168        7       0.00000000       0.00000000       0.00000000       0.00000000       0.00090900       0.00364844       0.41590338       0.00130868      -0.01162277       0.67529427
Cu       0.00101862       2.56771771      12.59716078        7       0.00000000       0.00000000       0.00000000       0.00000000      -0.00267556      -0.00613596       0.41962782      -0.00426250      -0.01467218       0.68241941
Cu       3.62969450       2.56712490      12.59897555        7       0.00000000       0.00000000       0.00000000       0.00000000       0.00042427      -0.00121001       0.41446946       0.00126498       0.00353998       0.66255711
Cu      -0.00047342       5.13341180      12.59689367        7       0.00000000       0.00000000       0.00000000       0.00000000       0.00153747       0.00294579       0.42343874       0.00087016      -0.02375173       0.69814220
Cu       3.62881816       5.13439800      12.59935624        7       0.00000000       0.00000000       0.00000000       0.00000000       0.00315459      -0.00237382       0.41353843       0.00547518       0.00126367       0.68518387
Cu      -0.00007115       7.70138433      12.59836164        7       0.00000000       0.00000000       0.00000000       0.00000000       0.00019302      -0.00676376       0.41725205       0.00078330       0.01032625       0.69186679
Cu       3.62936263       7.70074990      12.59953804        7       0.00000000       0.00000000       0.00000000       0.00000000       0.00153043      -0.00113798       0.41318645       0.00193008       0.00770410       0.66023031
Cu       1.81500000       1.28339881      13.89700000        6       0.00000000       0.00000000       0.00000000       0.00000000      -0.00246142      -0.00126101      -0.17829908      -0.00560833       0.00901814      -0.17353471
Cu       5.44500000       1.28339881      13.89700000        6       0.00000000       0.00000000       0.00000000       0.00000000       0.00331907      -0.00088895      -0.18028805       0.00419456       0.00918817      -0.17452387
Cu       1.81500000       3.85019642      13.89700000        6       0.00000000       0.00000000       0.00000000       0.00000000      -0.00313913       0.00194142      -0.17643421      -0.01428822      -0.01270106      -0.17676776
Cu       5.44500000       3.85019642      13.89700000        6       0.00000000       0.00000000       0.00000000       0.00000000       0.00203186       0.00138981      -0.17817199       0.01434844      -0.01340096      -0.17818295
Cu       1.81500000       6.41699404      13.89700000        6       0.00000000       0.00000000       0.00000000       0.00000000      -0.00581862      -0.00059563      -0.17377469       0.01394793      -0.00493979      -0.17164982
Cu       5.44500000       6.41699404      13.89700000        6       0.00000000       0.00000000       0.00000000       0.00000000       0.00297185      -0.00069911      -0.17500980      -0.01777643      -0.00236882      -0.17139502
Cu       1.81500000       8.98379165      13.89700000        6       0.00000000       0.00000000       0.00000000       0.00000000      -0.00154084       0.00053551      -0.17360904      -0.00665421       0.00688223      -0.16416172
Cu       5.44500000       8.98379165      13.89700000        6       0.00000000       0.00000000       0.00000000       0.00000000       0.00066255       0.00081423      -0.17500788       0.00526619       0.00695755      -0.16440214
Cu       0.00000000       0.00000000      15.19600000        5       0.00000000       0.00000000       0.00000000       0.00000000       0.00021243       0.00059097      -0.19187055       0.00033779       0.01505457      -0.03770030
Cu       3.63000000       0.00000000      15.19600000        5       0.00000000       0.00000000       0.00000000       0.00000000      -0.00011050      -0.00014670      -0.25461776       0.00079384       0.00172452      -0.12861409
Cu       0.00000000       2.56679762      15.19600000        5       0.00000000       0.00000000       0.00000000       0.00000000       0.00004872       0.00014753      -0.29541027       0.00152088      -0.00494339      -0.06435998
Cu       3.63000000       2.56679762      15.19600000        5       0.00000000       0.00000000       0.00000000       0.00000000       0.00017466       0.00025569      -0.25507050      -0.00131747      -0.00447297      -0.17158702
Cu       0.00000000       5.13359523      15.19600000        5       0.00000000       0.00000000       0.00000000       0.00000000      -0.00014161       0.00110793      -0.17818187       0.00209102      -0.01798590      -0.16145968
Cu       3.63000000       5.13359523      15.19600000        5       0.00000000       0.00000000       0.00000000       0.00000000       0.00023213       0.00097673      -0.24605226      -0.00140460       0.00250051      -0.15139089
Cu       0.00000000       7.70039285      15.19600000        5       0.00000000       0.00000000       0.00000000       0.00000000       0.00009970      -0.00048701      -0.23835327       0.00022554       0.00616853      -0.27678390
Cu       3.63000000       7.70039285      15.19600000        5       0.00000000       0.00000000       0.00000000       0.00000000       0.00008192      -0.00093302      -0.24174196       0.00025392       0.00295140      -0.15140128
Cu       1.81500000       1.28339881      16.49500000        4       0.00000000       0.00000000       0.00000000       0.00000000      -0.00133813      -0.02138125      -0.37622213      -0.07956428       0.00969407      -0.36859871
Cu       5.44500000       1.28339881      16.49500000        4       0.00000000       0.00000000       0.00000000       0.00000000       0.01010472      -0.02531666      -0.37865269       0.07992776       0.00757604      -0.34399328
Cu       1.81500000       3.85019642      16.49500000        4       0.00000000       0.00000000       0.00000000       0.00000000      -0.00567597       0.02575148      -0.38429260      -0.01683655      -0.06685268      -0.48087380
Cu       5.44500000       3.85019642      16.49500000        4       0.00000000       0.00000000       0.00000000       0.00000000       0.01670741       0.02755879      -0.36921811       0.01697154      -0.06659474      -0.45583021
Cu       1.81500000       6.41699404      16.49500000        4       0.00000000       0.00000000       0.00000000       0.00000000      -0.02339864      -0.01711700      -0.35815562       0.02254076       0.00392733      -0.52230564
Cu       5.44500000       6.41699404      16.49500000        4       0.00000000       0.00000000       0.00000000       0.00000000       0.03455620      -0.01750500      -0.34866026      -0.02928633       0.00177762      -0.52978251
Cu       1.81500000       8.98379165      16.49500000        4       0.00000000       0.00000000       0.00000000       0.00000000      -0.01901416       0.00243212      -0.37367758      -0.00785846       0.06106344      -0.42899631
Cu       5.44500000       8.98379165      16.49500000        4       0.00000000       0.00000000       0.00000000       0.00000000       0.02800231       0.00537876      -0.37882485       0.00670799       0.06099068      -0.43411728
Cu      -0.00088865      -0.00098047      17.74448318        3       0.00000000       0.00009547       0.00133784       0.07097947      -0.00010231       0.00503394       0.07309809      -0.00213627      -0.00601818       0.12782462
Cu       3.63127277       0.01145128      17.69713568        3       0.00000000       0.00041846      -0.00486162       0.07235215      -0.00000088       0.00981996       0.07368551      -0.00186426       0.03563402       0.09570665
Cu      -0.00006965       2.56909168      17.71263741        3       0.00000000      -0.00058159      -0.00294726       0.03668390       0.00022094       0.00741686       0.06788930      -0.00086035      -0.01321253       0.05220846
Cu       3.63233280       2.55305787      17.69433858        3       0.00000000      -0.00029547       0.00053191       0.07224551      -0.00022450      -0.00386054       0.08323682      -0.00289800      -0.01920114       0.07106959
Cu      -0.00120144       5.13373281      17.69569672        3       0.00000000       0.00118545      -0.00098072       0.07422227      -0.00004810       0.00054276       0.06794487       0.00143162       0.03680646       0.11898812
Cu       3.63082041       5.12439898      17.68085569        3       0.00000000      -0.00019152      -0.00249634       0.07315248       0.00042705      -0.00088652       0.07532795      -0.00420062      -0.02418392       0.08048368
Cu      -0.00143563       7.70175238      17.66049976        3       0.00000000       0.00006147      -0.00156294       0.06744314       0.00040345       0.00131056       0.05151725      -0.00285792      -0.02195218       0.07626921
Cu       3.62975817       7.70968763      17.68440420        3       0.00000000       0.00174150      -0.00512999       0.07301310      -0.00011202       0.00449470       0.06832870       0.00200502      -0.00892929       0.07336637
Cu       1.78939209       1.27748060      19.02204982        2       0.00000000       0.02802192      -0.01957490       0.11152838       0.00353755       0.00049239       0.13416602       0.04220868       0.01421983      -0.04478346
Cu       5.47658196       1.28111559      19.03529312        2       0.00000000      -0.02974205      -0.02168678       0.10770755      -0.00390571       0.00180217       0.13225739      -0.02344162       0.01980336      -0.03164726
Cu       1.82711734       3.84327187      18.97640842        2       0.00000000       0.00429682      -0.01479168       0.13334724       0.00266902      -0.00525274       0.12782357       0.03038983      -0.05956585      -0.01816264
Cu       5.43656291       3.83582377      18.98576847        2       0.00000000      -0.00414038      -0.00618404       0.12869127      -0.00206751      -0.00569652       0.12701125      -0.03871320      -0.06272053       0.01693649
Cu       1.83945009       6.40528430      18.96804122        2       0.00000000       0.01115994      -0.00817364       0.11372989       0.02046726      -0.00372950       0.11040127       0.01225694       0.06104244      -0.02625396
Cu       5.41576576       6.40236099      18.96736439        2       0.00000000      -0.00483569      -0.01093847       0.11798843      -0.02034143      -0.00276807       0.10916709      -0.00120448       0.05296648      -0.01690139
Cu       1.81627905       8.99322660      18.98456204        2       0.00000000       0.01234288      -0.00554174       0.11598463       0.00851408      -0.00058847       0.11826583       0.06091165      -0.05192815      -0.04394854
Cu       5.44128529       8.99962985      18.98760282        2       0.00000000      -0.01029494      -0.00687314       0.11779001      -0.00849401      -0.00173539       0.11645568      -0.05946067      -0.06099541      -0.04600521
Cu       0.00791621       0.01815171      20.29694614        1       0.00000000       0.00009650      -0.05893212       0.17382991      -0.00121756      -0.01747399       0.14026274      -0.01920598      -0.00079421      -0.03463131
Cu       3.62591620       0.00031307      20.14910801        1       0.00000000       0.00151491       0.00266771       0.15683618      -0.00028584       0.01481363       0.14096840       0.01243583       0.02296608      -0.08503245
Cu       0.02188677       2.58359614      20.18649603        1       0.00000000      -0.02429019      -0.12927488       0.01662758       0.00126239      -0.01583875       0.14775614      -0.02988899      -0.10711118      -0.15537507
Cu       3.62253492       2.55624117      20.14424935        1       0.00000000       0.00289293      -0.00232547       0.15783112      -0.00085552      -0.00122332       0.15095710       0.02480017       0.00462971      -0.04298670
Cu      -0.00441492       5.11857458      20.11630080        1       0.00000000       0.03658205      -0.08051860       0.18331145      -0.00106420      -0.02322139       0.13647589       0.09260414      -0.05667042      -0.00200365
Cu       3.62872463       5.12259419      20.14392753        1       0.00000000      -0.00087360      -0.00338428       0.15094903      -0.00073784       0.00237801       0.15095227       0.00367327      -0.00899523      -0.10968674
Cu      -0.00991955       7.64303967      20.05487905        1       0.00000000       0.00161260       0.01608076       0.17427080       0.00107813      -0.00824042       0.14191859       0.01645641       0.08957472       0.09354926
Cu       3.62939171       7.70420772      20.14137324        1       0.00000000       0.00293735      -0.00366838       0.14718806      -0.00247488       0.01017545       0.13957748       0.01002127      -0.02131558      -0.12080403
O        0.06007492       9.37767497      22.11845663        0       0.00000000       0.00653477       0.08859706      -0.05672400      -0.01425968       0.00745505       0.09225323       0.02020064       0.04211481       0.19820125
C        0.07329391       8.13039134      21.91973689        0       0.00000000       0.00719267       0.09171174       0.14864474      -0.00531185       0.03312714       0.05630851      -0.00036086      -0.32510015      -0.04945751
O        0.13908553       7.24316713      22.84819566        0       0.00000000       0.00789301       0.02442870       0.03311234      -0.01051393       0.00795903       0.04083524      -0.15143143       0.70498963       0.45980850
H        0.11206323       6.11610282      22.47599469        0       0.00000000      -0.11459717      -0.65925206      -0.15902591       0.02874298      -0.00785534       0.01051588       0.00496454      -0.37713879      -0.09718505
O        0.08661517       4.85728859      22.00631068        0       0.50000000      -0.02342142       0.62683777       0.30692218      -0.00020488      -0.01686346       0.03976009      -0.08875013      -0.04906453      -0.11601659
H       -0.75872845       4.42727171      22.24159727        0       0.50000000       0.08559352       0.18896067       0.15325585      -0.03603079       0.02690367       0.01870782       0.09731956       0.17799281       0.22204204
62
Lattice="7.26 0.0 0.0 0.0 10.26719046282867 0.0 0.0 0.0 30.392" Properties=species:S:1:pos:R:3:tags:I:1:initial_magmoms:R:1:MACE_forces:R:3:forces:R:3:DFT_forces:R:3 MACE_energy=-251.62448000505876 energy=-252.087500241033 stress="0.0044975561111709125 8.810443933857045e-07 0.00010728813243967474 8.810443933857045e-07 0.006489355393789003 -5.9733471431731176e-05 0.00010728813243967474 -5.9733471431731176e-05 -0.0008584545804065417" free_energy=-252.087500241033 DFT_energy=-257.37972427 pbc="T T T"
Cu       0.00033949      -0.00174187      12.59832408        7       0.00000000       0.00000000       0.00000000       0.00000000      -0.00070913       0.00998676       0.41835467      -0.00017291       0.02517799       0.68078131
Cu       3.62961954      -0.00066879      12.59861168        7       0.00000000       0.00000000       0.00000000       0.00000000       0.00090900       0.00364844       0.41590338       0.00102583      -0.01084345       0.67736125
Cu       0.00101862       2.56771771      12.59716078        7       0.00000000       0.00000000       0.00000000       0.00000000      -0.00267556      -0.00613596       0.41962782      -0.00406221      -0.01258128       0.68258039
Cu       3.62969450       2.56712490      12.59897555        7       0.00000000       0.00000000       0.00000000       0.00000000       0.00042427      -0.00121001       0.41446946       0.00145160       0.00236744       0.66415178
Cu      -0.00047342       5.13341180      12.59689367        7       0.00000000       0.00000000       0.00000000       0.00000000       0.00153747       0.00294579       0.42343874       0.00127308      -0.01970798       0.69497213
Cu       3.62881816       5.13439800      12.59935624        7       0.00000000       0.00000000       0.00000000       0.00000000       0.00315459      -0.00237382       0.41353843       0.00537806       0.00391416       0.68372376
Cu      -0.00007115       7.70138433      12.59836164        7       0.00000000       0.00000000       0.00000000       0.00000000       0.00019302      -0.00676376       0.41725205       0.00064556       0.00829919       0.68953725
Cu       3.62936263       7.70074990      12.59953804        7       0.00000000       0.00000000       0.00000000       0.00000000       0.00153043      -0.00113798       0.41318645       0.00216141       0.00629133       0.65951997
Cu       1.81500000       1.28339881      13.89700000        6       0.00000000       0.00000000       0.00000000       0.00000000      -0.00246142      -0.00126101      -0.17829908      -0.00571847       0.01092571      -0.17381240
Cu       5.44500000       1.28339881      13.89700000        6       0.00000000       0.00000000       0.00000000       0.00000000       0.00331907      -0.00088895      -0.18028805       0.00469233       0.01260975      -0.17392035
Cu       1.81500000       3.85019642      13.89700000        6       0.00000000       0.00000000       0.00000000       0.00000000      -0.00313913       0.00194142      -0.17643421      -0.01393178      -0.01348239      -0.17639415
Cu       5.44500000       3.85019642      13.89700000        6       0.00000000       0.00000000       0.00000000       0.00000000       0.00203186       0.00138981      -0.17817199       0.01369669      -0.01406363      -0.17786675
Cu       1.81500000       6.41699404      13.89700000        6       0.00000000       0.00000000       0.00000000       0.00000000      -0.00581862      -0.00059563      -0.17377469       0.01389031      -0.00627658      -0.17146004
Cu       5.44500000       6.41699404      13.89700000        6       0.00000000       0.00000000       0.00000000       0.00000000       0.00297185      -0.00069911      -0.17500980      -0.01760591      -0.00397290      -0.17134021
Cu       1.81500000       8.98379165      13.89700000        6       0.00000000       0.00000000       0.00000000       0.00000000      -0.00154084       0.00053551      -0.17360904      -0.00303297       0.00779568      -0.16272888
Cu       5.44500000       8.98379165      13.89700000        6       0.00000000       0.00000000       0.00000000       0.00000000       0.00066255       0.00081423      -0.17500788       0.00198500       0.00654539      -0.16261611
Cu       0.00000000       0.00000000      15.19600000        5       0.00000000       0.00000000       0.00000000       0.00000000       0.00021243       0.00059097      -0.19187055       0.00092962       0.01923894      -0.04208143
Cu       3.63000000       0.00000000      15.19600000        5       0.00000000       0.00000000       0.00000000       0.00000000      -0.00011050      -0.00014670      -0.25461776       0.00069569      -0.00115465      -0.12857460
Cu       0.00000000       2.56679762      15.19600000        5       0.00000000       0.00000000       0.00000000       0.00000000       0.00004872       0.00014753      -0.29541027       0.00161588      -0.00401120      -0.06869595
Cu       3.63000000       2.56679762      15.19600000        5       0.00000000       0.00000000       0.00000000       0.00000000       0.00017466       0.00025569      -0.25507050      -0.00143363      -0.00421878      -0.17314102
Cu       0.00000000       5.13359523      15.19600000        5       0.00000000       0.00000000       0.00000000       0.00000000      -0.00014161       0.00110793      -0.17818187       0.00179867      -0.02076857      -0.15784588
Cu       3.63000000       5.13359523      15.19600000        5       0.00000000       0.00000000       0.00000000       0.00000000       0.00023213       0.00097673      -0.24605226      -0.00097082       0.00636109      -0.15342910
Cu       0.00000000       7.70039285      15.19600000        5       0.00000000       0.00000000       0.00000000       0.00000000       0.00009970      -0.00048701      -0.23835327       0.00042231       0.00372123      -0.27723420
Cu       3.63000000       7.70039285      15.19600000        5       0.00000000       0.00000000       0.00000000       0.00000000       0.00008192      -0.00093302      -0.24174196       0.00026460       0.00361665      -0.15495158
Cu       1.81500000       1.28339881      16.49500000        4       0.00000000       0.00000000       0.00000000       0.00000000      -0.00133813      -0.02138125      -0.37622213      -0.07659494       0.01133153      -0.36951016
Cu       5.44500000       1.28339881      16.49500000        4       0.00000000       0.00000000       0.00000000       0.00000000       0.01010472      -0.02531666      -0.37865269       0.07674215       0.01005609      -0.34502005
Cu       1.81500000       3.85019642      16.49500000        4       0.00000000       0.00000000       0.00000000       0.00000000      -0.00567597       0.02575148      -0.38429260      -0.01395659      -0.06541543      -0.48127990
Cu       5.44500000       3.85019642      16.49500000        4       0.00000000       0.00000000       0.00000000       0.00000000       0.01670741       0.02755879      -0.36921811       0.01423848      -0.06588647      -0.45563195
Cu       1.81500000       6.41699404      16.49500000        4       0.00000000       0.00000000       0.00000000       0.00000000      -0.02339864      -0.01711700      -0.35815562       0.02176617       0.00415417      -0.51958666
Cu       5.44500000       6.41699404      16.49500000        4       0.00000000       0.00000000       0.00000000       0.00000000       0.03455620      -0.01750500      -0.34866026      -0.02733007       0.00267966      -0.52577286
Cu       1.81500000       8.98379165      16.49500000        4       0.00000000       0.00000000       0.00000000       0.00000000      -0.01901416       0.00243212      -0.37367758      -0.00969294       0.05811425      -0.42935493
Cu       5.44500000       8.98379165      16.49500000        4       0.00000000       0.00000000       0.00000000       0.00000000       0.02800231       0.00537876      -0.37882485       0.00863793       0.05764679      -0.43379198
Cu      -0.00089264      -0.00099981      17.74476705        3       0.00000000      -0.00014119       0.00140789       0.07117113      -0.00010231       0.00503394       0.07309809      -0.00211166      -0.00496115       0.12537709
Cu       3.63132947       0.01096607      17.69670882        3       0.00000000       0.00033367      -0.00432144       0.07290236      -0.00000088       0.00981996       0.07368551      -0.00172499       0.03469308       0.09695607
Cu      -0.00008831       2.56884739      17.70992416        3       0.00000000      -0.00081667      -0.00170242       0.02998912       0.00022094       0.00741686       0.06788930      -0.00040303      -0.01242753       0.04876628
Cu       3.63233824       2.55348704      17.69429021        3       0.00000000       0.00049497      -0.00140355       0.07022968      -0.00022450      -0.00386054       0.08323682      -0.00150398      -0.01947659       0.06597699
Cu      -0.00123316       5.13360655      17.69617129        3       0.00000000       0.00198644      -0.00244495       0.06673183      -0.00004810       0.00054276       0.06794487       0.00241362       0.02989201       0.12584632
Cu       3.63085830       5.12437363      17.68082776        3       0.00000000       0.00049062      -0.00217861       0.07355963       0.00042705      -0.00088652       0.07532795      -0.00413704      -0.02275502       0.08125745
Cu      -0.00141304       7.70155393      17.66070092        3       0.00000000      -0.00005617      -0.00223718       0.07229679       0.00040345       0.00131056       0.05151725      -0.00276119      -0.01880083       0.07262431
Cu       3.62980860       7.70931786      17.68450602        3       0.00000000       0.00259505      -0.00535187       0.07209899      -0.00011202       0.00449470       0.06832870       0.00279805      -0.00851884       0.07055576
Cu       1.79085658       1.27590368      19.02076035        2       0.00000000       0.03423739      -0.02361847       0.10918922       0.00353755       0.00049239       0.13416602       0.04934525       0.01830293      -0.04500202
Cu       5.47506946       1.27967767      19.03403002        2       0.00000000      -0.03589878      -0.02592783       0.10488428      -0.00390571       0.00180217       0.13225739      -0.03327315       0.02123406      -0.03479396
Cu       1.82734733       3.84267070      18.97696101        2       0.00000000       0.00635145      -0.01797918       0.12987590       0.00266902      -0.00525274       0.12782357       0.02438773      -0.06583044      -0.01383655
Cu       5.43690221       3.83585769      18.98662525        2       0.00000000      -0.00561239      -0.00830925       0.12712513      -0.00206751      -0.00569652       0.12701125      -0.03023963      -0.06604260       0.02490003
Cu       1.83947827       6.40545976      18.96822252        2       0.00000000       0.01446419      -0.00711140       0.11042645       0.02046726      -0.00372950       0.11040127       0.00910761       0.06587738      -0.01850282
Cu       5.41645993       6.40204594      18.96808005        2       0.00000000      -0.00688133      -0.01024730       0.11645591      -0.02034143      -0.00276807       0.10916709       0.00187424       0.05778034      -0.00851110
Cu       1.81669169       8.99305067      18.98408616        2       0.00000000       0.01548190      -0.00771713       0.11404845       0.00851408      -0.00058847       0.11826583       0.05800827      -0.06255139      -0.03516757
Cu       5.44086915       8.99940007      18.98717388        2       0.00000000      -0.01296173      -0.00937024       0.11627003      -0.00849401      -0.00173539       0.11645568      -0.05598702      -0.07161100      -0.03819351
Cu       0.00792012       0.01480199      20.29820057        1       0.00000000      -0.00085993      -0.06674210       0.17101783      -0.00121756      -0.01747399       0.14026274      -0.01967374       0.02122304      -0.07773283
Cu       3.62596829      -0.00022363      20.14960039        1       0.00000000       0.00171356       0.00282798       0.15697196      -0.00028584       0.01481363       0.14096840       0.01172520       0.02238818      -0.08579440
Cu       0.02063820       2.57517670      20.17712095        1       0.00000000      -0.02700562      -0.14712085       0.00022228       0.00126239      -0.01583875       0.14775614      -0.03313936      -0.11549623      -0.18558572
Cu       3.62263475       2.55650033      20.14446831        1       0.00000000       0.00451216      -0.00286312       0.16073969      -0.00085552      -0.00122332       0.15095710       0.02619211       0.00300235      -0.04021990
Cu      -0.00113939       5.11553594      20.11695060        1       0.00000000       0.04695582      -0.07747698       0.18448543      -0.00106420      -0.02322139       0.13647589       0.08942710      -0.04566572      -0.10252315
Cu       3.62892424       5.12242770      20.14412363        1       0.00000000       0.00029125      -0.00362195       0.15223340      -0.00073784       0.00237801       0.15095227       0.00391132      -0.00866701      -0.11010039
Cu      -0.00990534       7.64518932      20.05657720        1       0.00000000       0.00385459       0.02567629       0.19649472       0.00107813      -0.00824042       0.14191859       0.02098099       0.08996502       0.13284896
Cu       3.62938892       7.70347848      20.14146020        1       0.00000000       0.00345236      -0.00459150       0.14880758      -0.00247488       0.01017545       0.13957748       0.01084634      -0.02122664      -0.11597805
O        0.05917684       9.39144473      22.10854043        0       0.00000000      -0.00025139       0.23076085      -0.15302739      -0.01425968       0.00745505       0.09225323       0.01168261       0.06553779       0.08520260
C        0.07365596       8.13716662      21.93100815        0       0.00000000       0.01700814       0.09907169       0.32385007      -0.00531185       0.03312714       0.05630851      -0.01385252      -0.09971475      -0.13879111
O        0.13918267       7.26037104      22.85051616        0       0.00000000      -0.00141739       0.25329381       0.00367736      -0.01051393       0.00795903       0.04083524      -0.16865201       0.79309648       0.58948065
H        0.10132173       6.04229716      22.45493495        0       0.00000000      -0.14805016      -1.16872598      -0.29154352       0.02874298      -0.00785534       0.01051588       0.01630019      -0.25286726       0.13013706
O        0.08534917       4.89876765      22.02440458        0       0.50000000      -0.06627913       0.70958186       0.38959969      -0.00020488      -0.01686346       0.03976009      -0.14083402      -0.64120308      -0.19322360
H       -0.74983355       4.44159062      22.25264306        0       0.50000000       0.15041213       0.27127045       0.18533332      -0.03603079       0.02690367       0.01870782       0.17048459       0.29635967       0.24744037
62
Lattice="7.26 0.0 0.0 0.0 10.26719046282867 0.0 0.0 0.0 30.392" Properties=species:S:1:pos:R:3:tags:I:1:initial_magmoms:R:1:MACE_forces:R:3:forces:R:3:DFT_forces:R:3 MACE_energy=-251.80617953203614 energy=-252.087500241033 stress="0.0044975561111709125 8.810443933857045e-07 0.00010728813243967474 8.810443933857045e-07 0.006489355393789003 -5.9733471431731176e-05 0.00010728813243967474 -5.9733471431731176e-05 -0.0008584545804065417" free_energy=-252.087500241033 DFT_energy=-257.49515059 pbc="T T T"
Cu       0.00033949      -0.00174187      12.59832408        7       0.00000000       0.00000000       0.00000000       0.00000000      -0.00070913       0.00998676       0.41835467      -0.00002246       0.02200273       0.68000601
Cu       3.62961954      -0.00066879      12.59861168        7       0.00000000       0.00000000       0.00000000       0.00000000       0.00090900       0.00364844       0.41590338       0.00058074      -0.01053109       0.67784288
Cu       0.00101862       2.56771771      12.59716078        7       0.00000000       0.00000000       0.00000000       0.00000000      -0.00267556      -0.00613596       0.41962782      -0.00381146      -0.00945998       0.68187237
Cu       3.62969450       2.56712490      12.59897555        7       0.00000000       0.00000000       0.00000000       0.00000000       0.00042427      -0.00121001       0.41446946       0.00150977       0.00137230       0.66446009
Cu      -0.00047342       5.13341180      12.59689367        7       0.00000000       0.00000000       0.00000000       0.00000000       0.00153747       0.00294579       0.42343874       0.00159868      -0.01591688       0.69127994
Cu       3.62881816       5.13439800      12.59935624        7       0.00000000       0.00000000       0.00000000       0.00000000       0.00315459      -0.00237382       0.41353843       0.00514056       0.00610879       0.68028301
Cu      -0.00007115       7.70138433      12.59836164        7       0.00000000       0.00000000       0.00000000       0.00000000       0.00019302      -0.00676376       0.41725205       0.00022386       0.00612789       0.68776981
Cu       3.62936263       7.70074990      12.59953804        7       0.00000000       0.00000000       0.00000000       0.00000000       0.00153043      -0.00113798       0.41318645       0.00223358       0.00472407       0.65842313
Cu       1.81500000       1.28339881      13.89700000        6       0.00000000       0.00000000       0.00000000       0.00000000      -0.00246142      -0.00126101      -0.17829908      -0.00581831       0.01217697      -0.17378093
Cu       5.44500000       1.28339881      13.89700000        6       0.00000000       0.00000000       0.00000000       0.00000000       0.00331907      -0.00088895      -0.18028805       0.00470518       0.01515392      -0.17278435
Cu       1.81500000       3.85019642      13.89700000        6       0.00000000       0.00000000       0.00000000       0.00000000      -0.00313913       0.00194142      -0.17643421      -0.01411682      -0.01407548      -0.17558392
Cu       5.44500000       3.85019642      13.89700000        6       0.00000000       0.00000000       0.00000000       0.00000000       0.00203186       0.00138981      -0.17817199       0.01331008      -0.01499462      -0.17700902
Cu       1.81500000       6.41699404      13.89700000        6       0.00000000       0.00000000       0.00000000       0.00000000      -0.00581862      -0.00059563      -0.17377469       0.01373340      -0.00791037      -0.17066533
Cu       5.44500000       6.41699404      13.89700000        6       0.00000000       0.00000000       0.00000000       0.00000000       0.00297185      -0.00069911      -0.17500980      -0.01728909      -0.00565806      -0.17078521
Cu       1.81500000       8.98379165      13.89700000        6       0.00000000       0.00000000       0.00000000       0.00000000      -0.00154084       0.00053551      -0.17360904      -0.00009707       0.00874491      -0.16110469
Cu       5.44500000       8.98379165      13.89700000        6       0.00000000       0.00000000       0.00000000       0.00000000       0.00066255       0.00081423      -0.17500788      -0.00075997       0.00650725      -0.16056259
Cu       0.00000000       0.00000000      15.19600000        5       0.00000000       0.00000000       0.00000000       0.00000000       0.00021243       0.00059097      -0.19187055       0.00111546       0.02403485      -0.04819541
Cu       3.63000000       0.00000000      15.19600000        5       0.00000000       0.00000000       0.00000000       0.00000000      -0.00011050      -0.00014670      -0.25461776       0.00070954      -0.00459614      -0.12871386
Cu       0.00000000       2.56679762      15.19600000        5       0.00000000       0.00000000       0.00000000       0.00000000       0.00004872       0.00014753      -0.29541027       0.00150904      -0.00261690      -0.07452004
Cu       3.63000000       2.56679762      15.19600000        5       0.00000000       0.00000000       0.00000000       0.00000000       0.00017466       0.00025569      -0.25507050      -0.00147764      -0.00373408      -0.17418430
Cu       0.00000000       5.13359523      15.19600000        5       0.00000000       0.00000000       0.00000000       0.00000000      -0.00014161       0.00110793      -0.17818187       0.00172455      -0.02200082      -0.15391283
Cu       3.63000000       5.13359523      15.19600000        5       0.00000000       0.00000000       0.00000000       0.00000000       0.00023213       0.00097673      -0.24605226      -0.00091863       0.00937551      -0.15655010
Cu       0.00000000       7.70039285      15.19600000        5       0.00000000       0.00000000       0.00000000       0.00000000       0.00009970      -0.00048701      -0.23835327       0.00046012       0.00217117      -0.27262709
Cu       3.63000000       7.70039285      15.19600000        5       0.00000000       0.00000000       0.00000000       0.00000000       0.00008192      -0.00093302      -0.24174196       0.00014167       0.00321164      -0.15905378
Cu       1.81500000       1.28339881      16.49500000        4       0.00000000       0.00000000       0.00000000       0.00000000      -0.00133813      -0.02138125      -0.37622213      -0.07224516       0.01218740      -0.37211013
Cu       5.44500000       1.28339881      16.49500000        4       0.00000000       0.00000000       0.00000000       0.00000000       0.01010472      -0.02531666      -0.37865269       0.07229202       0.01199201      -0.34725142
Cu       1.81500000       3.85019642      16.49500000        4       0.00000000       0.00000000       0.00000000       0.00000000      -0.00567597       0.02575148      -0.38429260      -0.01166826      -0.06405435      -0.48142934
Cu       5.44500000       3.85019642      16.49500000        4       0.00000000       0.00000000       0.00000000       0.00000000       0.01670741       0.02755879      -0.36921811       0.01088575      -0.06519087      -0.45409112
Cu       1.81500000       6.41699404      16.49500000        4       0.00000000       0.00000000       0.00000000       0.00000000      -0.02339864      -0.01711700      -0.35815562       0.01962042       0.00448949      -0.51638898
Cu       5.44500000       6.41699404      16.49500000        4       0.00000000       0.00000000       0.00000000       0.00000000       0.03455620      -0.01750500      -0.34866026      -0.02496942       0.00384798      -0.52055074
Cu       1.81500000       8.98379165      16.49500000        4       0.00000000       0.00000000       0.00000000       0.00000000      -0.01901416       0.00243212      -0.37367758      -0.01247042       0.05374063      -0.42899998
Cu       5.44500000       8.98379165      16.49500000        4       0.00000000       0.00000000       0.00000000       0.00000000       0.02800231       0.00537876      -0.37882485       0.01149212       0.05258391      -0.43246627
Cu      -0.00084526      -0.00081360      17.74420449        3       0.00000000      -0.00068481       0.00101023       0.07529749      -0.00010231       0.00503394       0.07309809      -0.00262995      -0.00071218       0.12858584
Cu       3.63146794       0.01035373      17.69641023        3       0.00000000       0.00014348      -0.00381025       0.07171051      -0.00000088       0.00981996       0.07368551      -0.00194690       0.03183292       0.09596103
Cu      -0.00008355       2.56872178      17.70726845        3       0.00000000      -0.00117268      -0.00041267       0.02077614       0.00022094       0.00741686       0.06788930      -0.00018782      -0.01324743       0.04021405
Cu       3.63221944       2.55378033      17.69419569        3       0.00000000       0.00250770      -0.00136039       0.06957386      -0.00022450      -0.00386054       0.08323682       0.00130404      -0.01877352       0.06149022
Cu      -0.00146991       5.13331073      17.69666754        3       0.00000000       0.00355280      -0.00364759       0.05273274      -0.00004810       0.00054276       0.06794487       0.00452473       0.02597206       0.12746793
Cu       3.63082088       5.12433500      17.68061451        3       0.00000000       0.00236563      -0.00067790       0.07570408       0.00042705      -0.00088652       0.07532795      -0.00239182      -0.01886948       0.08189882
Cu      -0.00136781       7.70114988      17.66201227        3       0.00000000      -0.00017083      -0.00185722       0.07980381       0.00040345       0.00131056       0.05151725      -0.00336034      -0.01243811       0.07099557
Cu       3.62974381       7.70927265      17.68459697        3       0.00000000       0.00442591      -0.00754143       0.07182079      -0.00011202       0.00449470       0.06832870       0.00462919      -0.01160952       0.06521871
Cu       1.79301877       1.27459797      19.01917877        2       0.00000000       0.03919428      -0.02770710       0.10598307       0.00353755       0.00049239       0.13416602       0.05510828       0.02112143      -0.04685260
Cu       5.47303585       1.27851892      19.03267720        2       0.00000000      -0.04156241      -0.02980014       0.10047310      -0.00390571       0.00180217       0.13225739      -0.04115634       0.02331520      -0.03999725
Cu       1.82767524       3.84249045      18.97744886        2       0.00000000       0.01271686      -0.02451538       0.12241680       0.00266902      -0.00525274       0.12782357       0.02289076      -0.07538034      -0.01016783
Cu       5.43734145       3.83619195      18.98760078        2       0.00000000      -0.00854600      -0.01116267       0.12425398      -0.00206751      -0.00569652       0.12701125      -0.02257822      -0.06863648       0.03483684
Cu       1.83960585       6.40588946      18.96850123        2       0.00000000       0.01621922      -0.00091619       0.10891337       0.02046726      -0.00372950       0.11040127       0.00140858       0.07373328      -0.00622767
Cu       5.41720429       6.40212896      18.96890291        2       0.00000000      -0.00454198      -0.00620976       0.11873918      -0.02034143      -0.00276807       0.10916709       0.01138845       0.06399510       0.00735776
Cu       1.81716781       8.99289477      18.98367876        2       0.00000000       0.01849545      -0.01056851       0.11054617       0.00851408      -0.00058847       0.11826583       0.05408766      -0.07503012      -0.02604237
Cu       5.44053379       8.99919508      18.98693910        2       0.00000000      -0.01583286      -0.01331201       0.11279852      -0.00849401      -0.00173539       0.11645568      -0.05209772      -0.08462423      -0.03026026
Cu       0.00800188       0.01161952      20.29811269        1       0.00000000      -0.00290743      -0.06199761       0.14193369      -0.00121756      -0.01747399       0.14026274      -0.02178213       0.07971490      -0.19472835
Cu       3.62613488      -0.00074190      20.15002642        1       0.00000000       0.00158095       0.00229193       0.15856821      -0.00028584       0.01481363       0.14096840       0.01066361       0.02194394      -0.08539381
Cu       0.01950207       2.56602418      20.16671462        1       0.00000000      -0.02903872      -0.14917281      -0.00289141       0.00126239      -0.01583875       0.14775614      -0.03540568      -0.11034975      -0.19740503
Cu       3.62258106       2.55713231      20.14517413        1       0.00000000       0.00704213      -0.00242143       0.16293629      -0.00085552      -0.00122332       0.15095710       0.02759726       0.00092667      -0.03855807
Cu       0.00361105       5.11385408      20.11666461        1       0.00000000       0.04387609      -0.07277203       0.16015232      -0.00106420      -0.02322139       0.13647589       0.07479763      -0.03513100      -0.25608353
Cu       3.62954271       5.12227982      20.14434703        1       0.00000000       0.00038458      -0.00237944       0.15285194      -0.00073784       0.00237801       0.15095227       0.00246848      -0.00760313      -0.11024191
Cu      -0.00963738       7.64952027      20.06138466        1       0.00000000       0.00812645       0.02703165       0.23380376       0.00107813      -0.00824042       0.14191859       0.02627023       0.08528930       0.19144192
Cu       3.62920509       7.70276225      20.14165339        1       0.00000000       0.00464458      -0.00588039       0.15129945      -0.00247488       0.01017545       0.13957748       0.01252788      -0.02202444      -0.10897488
O        0.05721083       9.41755766      22.09072864        0       0.00000000      -0.00406075       0.31436752      -0.17735921      -0.01425968       0.00745505       0.09225323       0.00852064       0.03076790       0.11055876
C        0.07467215       8.15491180      21.95140449        0       0.00000000       0.01172350       0.27736457       0.27484557      -0.00531185       0.03312714       0.05630851      -0.01874909      -0.01497690      -0.00333463
O        0.13941234       7.28934181      22.85455666        0       0.00000000      -0.00808443       0.31550354       0.10048520      -0.01051393       0.00795903       0.04083524      -0.07040036       0.50776273       0.56187093
H        0.08851759       5.94557963      22.43206231        0       0.00000000      -0.11461328      -1.01003704      -0.15672372       0.02874298      -0.00785534       0.01051588       0.00856464       0.00039186       0.04818595
O        0.08602600       4.91998078      22.03901494        0       0.50000000       0.00479782       0.29342832       0.24579651      -0.00020488      -0.01686346       0.03976009      -0.12765634      -0.67871749      -0.08787616
H       -0.74323617       4.45772688      22.26767825        0       0.50000000       0.04850557       0.21132275       0.22702939      -0.03603079       0.02690367       0.01870782       0.07626881       0.26154301       0.27744418
62
Lattice="7.26 0.0 0.0 0.0 10.26719046282867 0.0 0.0 0.0 30.392" Properties=species:S:1:pos:R:3:tags:I:1:initial_magmoms:R:1:MACE_forces:R:3:forces:R:3:DFT_forces:R:3 MACE_energy=-251.95615283166657 energy=-252.087500241033 stress="0.0044975561111709125 8.810443933857045e-07 0.00010728813243967474 8.810443933857045e-07 0.006489355393789003 -5.9733471431731176e-05 0.00010728813243967474 -5.9733471431731176e-05 -0.0008584545804065417" free_energy=-252.087500241033 DFT_energy=-257.55352612 pbc="T T T"
Cu       0.00033949      -0.00174187      12.59832408        7       0.00000000       0.00000000       0.00000000       0.00000000      -0.00070913       0.00998676       0.41835467       0.00034139       0.02024609       0.67830853
Cu       3.62961954      -0.00066879      12.59861168        7       0.00000000       0.00000000       0.00000000       0.00000000       0.00090900       0.00364844       0.41590338       0.00039886      -0.01012133       0.67622193
Cu       0.00101862       2.56771771      12.59716078        7       0.00000000       0.00000000       0.00000000       0.00000000      -0.00267556      -0.00613596       0.41962782      -0.00342063      -0.00670904       0.68050516
Cu       3.62969450       2.56712490      12.59897555        7       0.00000000       0.00000000       0.00000000       0.00000000       0.00042427      -0.00121001       0.41446946       0.00184875       0.00086838       0.66349489
Cu      -0.00047342       5.13341180      12.59689367        7       0.00000000       0.00000000       0.00000000       0.00000000       0.00153747       0.00294579       0.42343874       0.00233931      -0.01428101       0.68677605
Cu       3.62881816       5.13439800      12.59935624        7       0.00000000       0.00000000       0.00000000       0.00000000       0.00315459      -0.00237382       0.41353843       0.00505965       0.00779732       0.67737609
Cu      -0.00007115       7.70138433      12.59836164        7       0.00000000       0.00000000       0.00000000       0.00000000       0.00019302      -0.00676376       0.41725205       0.00010885       0.00514714       0.68633388
Cu       3.62936263       7.70074990      12.59953804        7       0.00000000       0.00000000       0.00000000       0.00000000       0.00153043      -0.00113798       0.41318645       0.00227891       0.00421806       0.65699761
Cu       1.81500000       1.28339881      13.89700000        6       0.00000000       0.00000000       0.00000000       0.00000000      -0.00246142      -0.00126101      -0.17829908      -0.00453369       0.01268434      -0.17517073
Cu       5.44500000       1.28339881      13.89700000        6       0.00000000       0.00000000       0.00000000       0.00000000       0.00331907      -0.00088895      -0.18028805       0.00379134       0.01650205      -0.17385244
Cu       1.81500000       3.85019642      13.89700000        6       0.00000000       0.00000000       0.00000000       0.00000000      -0.00313913       0.00194142      -0.17643421      -0.01438818      -0.01333297      -0.17551214
Cu       5.44500000       3.85019642      13.89700000        6       0.00000000       0.00000000       0.00000000       0.00000000       0.00203186       0.00138981      -0.17817199       0.01361334      -0.01478292      -0.17674978
Cu       1.81500000       6.41699404      13.89700000        6       0.00000000       0.00000000       0.00000000       0.00000000      -0.00581862      -0.00059563      -0.17377469       0.01210964      -0.00813430      -0.16864669
Cu       5.44500000       6.41699404      13.89700000        6       0.00000000       0.00000000       0.00000000       0.00000000       0.00297185      -0.00069911      -0.17500980      -0.01526290      -0.00581024      -0.16858127
Cu       1.81500000       8.98379165      13.89700000        6       0.00000000       0.00000000       0.00000000       0.00000000      -0.00154084       0.00053551      -0.17360904       0.00248629       0.00920772      -0.16088210
Cu       5.44500000       8.98379165      13.89700000        6       0.00000000       0.00000000       0.00000000       0.00000000       0.00066255       0.00081423      -0.17500788      -0.00274547       0.00657048      -0.15992519
Cu       0.00000000       0.00000000      15.19600000        5       0.00000000       0.00000000       0.00000000       0.00000000       0.00021243       0.00059097      -0.19187055       0.00129014       0.02736079      -0.06156667
Cu       3.63000000       0.00000000      15.19600000        5       0.00000000       0.00000000       0.00000000       0.00000000      -0.00011050      -0.00014670      -0.25461776       0.00103985      -0.00602531      -0.13255759
Cu       0.00000000       2.56679762      15.19600000        5       0.00000000       0.00000000       0.00000000       0.00000000       0.00004872       0.00014753      -0.29541027       0.00164160      -0.00203412      -0.09051404
Cu       3.63000000       2.56679762      15.19600000        5       0.00000000       0.00000000       0.00000000       0.00000000       0.00017466       0.00025569      -0.25507050      -0.00122909      -0.00152006      -0.17871408
Cu       0.00000000       5.13359523      15.19600000        5       0.00000000       0.00000000       0.00000000       0.00000000      -0.00014161       0.00110793      -0.17818187       0.00188637      -0.02099817      -0.13905763
Cu       3.63000000       5.13359523      15.19600000        5       0.00000000       0.00000000       0.00000000       0.00000000       0.00023213       0.00097673      -0.24605226      -0.00062862       0.01147441      -0.15718112
Cu       0.00000000       7.70039285      15.19600000        5       0.00000000       0.00000000       0.00000000       0.00000000       0.00009970      -0.00048701      -0.23835327       0.00041912       0.00083685      -0.24614039
Cu       3.63000000       7.70039285      15.19600000        5       0.00000000       0.00000000       0.00000000       0.00000000       0.00008192      -0.00093302      -0.24174196       0.00014015       0.00201792      -0.16233120
Cu       1.81500000       1.28339881      16.49500000        4       0.00000000       0.00000000       0.00000000       0.00000000      -0.00133813      -0.02138125      -0.37622213      -0.05763598       0.00806353      -0.39364064
Cu       5.44500000       1.28339881      16.49500000        4       0.00000000       0.00000000       0.00000000       0.00000000       0.01010472      -0.02531666      -0.37865269       0.05778130       0.00907306      -0.36893355
Cu       1.81500000       3.85019642      16.49500000        4       0.00000000       0.00000000       0.00000000       0.00000000      -0.00567597       0.02575148      -0.38429260      -0.01264771      -0.05792664      -0.48225043
Cu       5.44500000       3.85019642      16.49500000        4       0.00000000       0.00000000       0.00000000       0.00000000       0.01670741       0.02755879      -0.36921811       0.00918912      -0.05985241      -0.45633942
Cu       1.81500000       6.41699404      16.49500000        4       0.00000000       0.00000000       0.00000000       0.00000000      -0.02339864      -0.01711700      -0.35815562       0.00892343       0.00456094      -0.50218867
Cu       5.44500000       6.41699404      16.49500000        4       0.00000000       0.00000000       0.00000000       0.00000000       0.03455620      -0.01750500      -0.34866026      -0.01479250       0.00425919      -0.50337945
Cu       1.81500000       8.98379165      16.49500000        4       0.00000000       0.00000000       0.00000000       0.00000000      -0.01901416       0.00243212      -0.37367758      -0.01855619       0.03945726      -0.42906290
Cu       5.44500000       8.98379165      16.49500000        4       0.00000000       0.00000000       0.00000000       0.00000000       0.02800231       0.00537876      -0.37882485       0.01937247       0.03776175      -0.43009947
Cu      -0.00043899      -0.00146459      17.73809771        3       0.00000000      -0.00147100      -0.00476852       0.08556723      -0.00010231       0.00503394       0.07309809      -0.00319884      -0.00235388       0.14201977
Cu       3.63177119       0.00577420      17.69567135        3       0.00000000      -0.00058518      -0.00307590       0.06853552      -0.00000088       0.00981996       0.07368551      -0.00195294       0.02759894       0.09314322
Cu      -0.00013429       2.56688411      17.70054929        3       0.00000000      -0.00125440       0.00102789       0.01492718       0.00022094       0.00741686       0.06788930       0.00042114      -0.01653098       0.03938627
Cu       3.63159133       2.55269063      17.69268085        3       0.00000000       0.00610013       0.00419768       0.07436188      -0.00022450      -0.00386054       0.08323682       0.00609214      -0.01059461       0.06273519
Cu      -0.00185069       5.13151452      17.70145090        3       0.00000000       0.00582216      -0.00560289       0.03514720      -0.00004810       0.00054276       0.06794487       0.00864210       0.02268216       0.12247058
Cu       3.63038384       5.12300890      17.68083157        3       0.00000000       0.00579284       0.00300291       0.07691374       0.00042705      -0.00088652       0.07532795       0.00172932      -0.01226048       0.07900528
Cu      -0.00121330       7.69918226      17.66955701        3       0.00000000       0.00008383      -0.00360624       0.08880614       0.00040345       0.00131056       0.05151725      -0.00262503      -0.01269727       0.07054172
Cu       3.62973497       7.70694049      17.68482924        3       0.00000000       0.00688824      -0.01848628       0.07528926      -0.00011202       0.00449470       0.06832870       0.00758844      -0.02850938       0.06066940
Cu       1.80167707       1.26965684      19.01290263        2       0.00000000       0.03389233      -0.02666575       0.10553649       0.00353755       0.00049239       0.13416602       0.04843572       0.02824208      -0.04743426
Cu       5.46430801       1.27230397      19.02534148        2       0.00000000      -0.03992775      -0.02540313       0.09730049      -0.00390571       0.00180217       0.13225739      -0.04126848       0.03146754      -0.04439362
Cu       1.82721655       3.83892818      18.97828319        2       0.00000000       0.02438509      -0.03316351       0.11465386       0.00266902      -0.00525274       0.12782357       0.03032570      -0.08690469      -0.00835625
Cu       5.43737500       3.83378907      18.98735419        2       0.00000000      -0.00927048      -0.01253548       0.12690950      -0.00206751      -0.00569652       0.12701125      -0.01781375      -0.07001156       0.04688959
Cu       1.83714742       6.40043514      18.97097877        2       0.00000000       0.01032968       0.01681123       0.11510468       0.02046726      -0.00372950       0.11040127      -0.01240027       0.09130247       0.01267648
Cu       5.42095843       6.39733608      18.97198294        2       0.00000000       0.01032244       0.00586090       0.13217745      -0.02034143      -0.00276807       0.10916709       0.03358263       0.07618261       0.03354570
Cu       1.81871078       8.98544419      18.98357317        2       0.00000000       0.01461523      -0.00927698       0.10362409       0.00851408      -0.00058847       0.11826583       0.04592421      -0.08443559      -0.02227061
Cu       5.44058965       8.99135207      18.98759295        2       0.00000000      -0.01434160      -0.01514899       0.10392326      -0.00849401      -0.00173539       0.11645568      -0.04809749      -0.09099443      -0.02919997
Cu       0.00774060       0.00638621      20.27462318        1       0.00000000      -0.00406422      -0.01776058       0.08471727      -0.00121756      -0.01747399       0.14026274      -0.02654188       0.18484539      -0.39803695
Cu       3.62687303      -0.00661557      20.15158900        1       0.00000000       0.00035722       0.00068738       0.15747071      -0.00028584       0.01481363       0.14096840       0.00924709       0.01735215      -0.09180186
Cu       0.01509824       2.54766715      20.14488095        1       0.00000000      -0.02308112      -0.10699064       0.03492100       0.00126239      -0.01583875       0.14775614      -0.03103303      -0.06625472      -0.15556160
Cu       3.62351654       2.55528771      20.14679599        1       0.00000000       0.00867327      -0.00281128       0.15869602      -0.00085552      -0.00122332       0.15095710       0.02824037      -0.00184701      -0.04475114
Cu       0.00928288       5.10280107      20.12662064        1       0.00000000       0.02366770      -0.06506440       0.16357778      -0.00106420      -0.02322139       0.13647589       0.04329198      -0.01692824      -0.34828669
Cu       3.63051265       5.11972178      20.14396694        1       0.00000000      -0.00120177      -0.00443462       0.15650518      -0.00073784       0.00237801       0.15095227       0.00117076      -0.01116285      -0.10290468
Cu      -0.00758630       7.65005411      20.08378495        1       0.00000000       0.00940061       0.01541082       0.21968093       0.00107813      -0.00824042       0.14191859       0.02645386       0.08153440       0.17486089
Cu       3.62930813       7.69789198      20.14246999        1       0.00000000       0.00546578      -0.01507707       0.15258948      -0.00247488       0.01017545       0.13957748       0.01282661      -0.03054195      -0.10241811
O        0.05705536       9.49047276      22.06231456        0       0.00000000      -0.00100207       0.21718460       0.00658003      -0.01425968       0.00745505       0.09225323       0.01679083      -0.15677626       0.46644784
C        0.07100640       8.22321508      21.97815265        0       0.00000000      -0.00134206       0.22951950       0.14312822      -0.00531185       0.03312714       0.05630851      -0.01521647       0.02496160       0.13393422
O        0.12284047       7.35509483      22.86204386        0       0.00000000      -0.02113216       0.18052231       0.05650166      -0.01051393       0.00795903       0.04083524      -0.10097212       0.10082302       0.46169155
H        0.08624063       5.85509350      22.43742700        0       0.00000000       0.04456507      -0.23810616       0.06043840       0.02874298      -0.00785534       0.01051588      -0.00620031       0.00130712      -0.23330043
O        0.09968090       4.89712957      22.06714050        0       0.50000000      -0.04409808      -0.05709179       0.12257393      -0.00020488      -0.01686346       0.03976009       0.01895921      -0.03514621       0.09851782
H       -0.74580484       4.47713999      22.30570817        0       0.50000000      -0.04613273       0.00113500       0.17452835      -0.03603079       0.02690367       0.01870782      -0.03262041       0.03907186       0.21744411
62
Lattice="7.26 0.0 0.0 0.0 10.26719046282867 0.0 0.0 0.0 30.392" Properties=species:S:1:pos:R:3:tags:I:1:initial_magmoms:R:1:MACE_forces:R:3:forces:R:3:DFT_forces:R:3 MACE_energy=-252.02660407363607 energy=-252.087500241033 stress="0.0044975561111709125 8.810443933857045e-07 0.00010728813243967474 8.810443933857045e-07 0.006489355393789003 -5.9733471431731176e-05 0.00010728813243967474 -5.9733471431731176e-05 -0.0008584545804065417" free_energy=-252.087500241033 DFT_energy=-257.58030724 pbc="T T T"
Cu       0.00033949      -0.00174187      12.59832408        7       0.00000000       0.00000000       0.00000000       0.00000000      -0.00070913       0.00998676       0.41835467       0.00052647       0.01956867       0.67610265
Cu       3.62961954      -0.00066879      12.59861168        7       0.00000000       0.00000000       0.00000000       0.00000000       0.00090900       0.00364844       0.41590338       0.00015951      -0.00920476       0.67362464
Cu       0.00101862       2.56771771      12.59716078        7       0.00000000       0.00000000       0.00000000       0.00000000      -0.00267556      -0.00613596       0.41962782      -0.00355474      -0.00612501       0.68003380
Cu       3.62969450       2.56712490      12.59897555        7       0.00000000       0.00000000       0.00000000       0.00000000       0.00042427      -0.00121001       0.41446946       0.00178828      -0.00069482       0.66291314
Cu      -0.00047342       5.13341180      12.59689367        7       0.00000000       0.00000000       0.00000000       0.00000000       0.00153747       0.00294579       0.42343874       0.00260232      -0.01366183       0.68393407
Cu       3.62881816       5.13439800      12.59935624        7       0.00000000       0.00000000       0.00000000       0.00000000       0.00315459      -0.00237382       0.41353843       0.00465410       0.00858815       0.67731643
Cu      -0.00007115       7.70138433      12.59836164        7       0.00000000       0.00000000       0.00000000       0.00000000       0.00019302      -0.00676376       0.41725205       0.00035430       0.00519605       0.68421409
Cu       3.62936263       7.70074990      12.59953804        7       0.00000000       0.00000000       0.00000000       0.00000000       0.00153043      -0.00113798       0.41318645       0.00193756       0.00465178       0.65544019
Cu       1.81500000       1.28339881      13.89700000        6       0.00000000       0.00000000       0.00000000       0.00000000      -0.00246142      -0.00126101      -0.17829908      -0.00318431       0.01328045      -0.17824049
Cu       5.44500000       1.28339881      13.89700000        6       0.00000000       0.00000000       0.00000000       0.00000000       0.00331907      -0.00088895      -0.18028805       0.00287818       0.01579247      -0.17878348
Cu       1.81500000       3.85019642      13.89700000        6       0.00000000       0.00000000       0.00000000       0.00000000      -0.00313913       0.00194142      -0.17643421      -0.01327458      -0.01224595      -0.17834032
Cu       5.44500000       3.85019642      13.89700000        6       0.00000000       0.00000000       0.00000000       0.00000000       0.00203186       0.00138981      -0.17817199       0.01272892      -0.01414423      -0.17927172
Cu       1.81500000       6.41699404      13.89700000        6       0.00000000       0.00000000       0.00000000       0.00000000      -0.00581862      -0.00059563      -0.17377469       0.00859181      -0.00689011      -0.16697768
Cu       5.44500000       6.41699404      13.89700000        6       0.00000000       0.00000000       0.00000000       0.00000000       0.00297185      -0.00069911      -0.17500980      -0.01174827      -0.00452483      -0.16635789
Cu       1.81500000       8.98379165      13.89700000        6       0.00000000       0.00000000       0.00000000       0.00000000      -0.00154084       0.00053551      -0.17360904       0.00532131       0.00790019      -0.16276668
Cu       5.44500000       8.98379165      13.89700000        6       0.00000000       0.00000000       0.00000000       0.00000000       0.00066255       0.00081423      -0.17500788      -0.00536582       0.00652160      -0.16185189
Cu       0.00000000       0.00000000      15.19600000        5       0.00000000       0.00000000       0.00000000       0.00000000       0.00021243       0.00059097      -0.19187055       0.00083664       0.02867527      -0.06164859
Cu       3.63000000       0.00000000      15.19600000        5       0.00000000       0.00000000       0.00000000       0.00000000      -0.00011050      -0.00014670      -0.25461776       0.00123970      -0.00690622      -0.14777675
Cu       0.00000000       2.56679762      15.19600000        5       0.00000000       0.00000000       0.00000000       0.00000000       0.00004872       0.00014753      -0.29541027       0.00173455      -0.00259601      -0.14185739
Cu       3.63000000       2.56679762      15.19600000        5       0.00000000       0.00000000       0.00000000       0.00000000       0.00017466       0.00025569      -0.25507050      -0.00149797       0.00127037      -0.18702591
Cu       0.00000000       5.13359523      15.19600000        5       0.00000000       0.00000000       0.00000000       0.00000000      -0.00014161       0.00110793      -0.17818187       0.00186213      -0.01733037      -0.13276970
Cu       3.63000000       5.13359523      15.19600000        5       0.00000000       0.00000000       0.00000000       0.00000000       0.00023213       0.00097673      -0.24605226      -0.00110485       0.01305899      -0.14520561
Cu       0.00000000       7.70039285      15.19600000        5       0.00000000       0.00000000       0.00000000       0.00000000       0.00009970      -0.00048701      -0.23835327       0.00031619       0.00095889      -0.21107741
Cu       3.63000000       7.70039285      15.19600000        5       0.00000000       0.00000000       0.00000000       0.00000000       0.00008192      -0.00093302      -0.24174196      -0.00021047       0.00077834      -0.16187860
Cu       1.81500000       1.28339881      16.49500000        4       0.00000000       0.00000000       0.00000000       0.00000000      -0.00133813      -0.02138125      -0.37622213      -0.03763398      -0.00700312      -0.42838263
Cu       5.44500000       1.28339881      16.49500000        4       0.00000000       0.00000000       0.00000000       0.00000000       0.01010472      -0.02531666      -0.37865269       0.03962563      -0.01173062      -0.41825471
Cu       1.81500000       3.85019642      16.49500000        4       0.00000000       0.00000000       0.00000000       0.00000000      -0.00567597       0.02575148      -0.38429260       0.00956166      -0.04737340      -0.49634064
Cu       5.44500000       3.85019642      16.49500000        4       0.00000000       0.00000000       0.00000000       0.00000000       0.01670741       0.02755879      -0.36921811       0.00153649      -0.04531640      -0.46786651
Cu       1.81500000       6.41699404      16.49500000        4       0.00000000       0.00000000       0.00000000       0.00000000      -0.02339864      -0.01711700      -0.35815562       0.00444506       0.00227197      -0.48534341
Cu       5.44500000       6.41699404      16.49500000        4       0.00000000       0.00000000       0.00000000       0.00000000       0.03455620      -0.01750500      -0.34866026       0.00463604      -0.00260027      -0.47391469
Cu       1.81500000       8.98379165      16.49500000        4       0.00000000       0.00000000       0.00000000       0.00000000      -0.01901416       0.00243212      -0.37367758      -0.02692631       0.01297052      -0.43447254
Cu       5.44500000       8.98379165      16.49500000        4       0.00000000       0.00000000       0.00000000       0.00000000       0.02800231       0.00537876      -0.37882485       0.03046215       0.01570016      -0.44016082
Cu      -0.00095396      -0.00778391      17.73693406        3       0.00000000       0.00250841       0.00347145       0.04966133      -0.00010231       0.00503394       0.07309809       0.00185372       0.00691524       0.10038969
Cu       3.63078483      -0.00092958      17.69158214        3       0.00000000       0.00185085      -0.01900696       0.06915331      -0.00000088       0.00981996       0.07368551       0.00093250       0.00018443       0.09104470
Cu      -0.00076811       2.56232244      17.68056768        3       0.00000000       0.00063933      -0.00652143       0.06402427       0.00022094       0.00741686       0.06788930       0.00332079      -0.03088174       0.09416103
Cu       3.63388798       2.55200589      17.68982348        3       0.00000000      -0.00456341       0.00414055       0.07353770      -0.00022450      -0.00386054       0.08323682      -0.00894259      -0.00594013       0.06151837
Cu       0.00080555       5.12611304      17.70276108        3       0.00000000      -0.00331496      -0.00572643       0.07787086      -0.00004810       0.00054276       0.06794487      -0.00390486       0.01602755       0.18105199
Cu       3.63283084       5.12187694      17.68512526        3       0.00000000      -0.00316379      -0.00005210       0.06802466       0.00042705      -0.00088652       0.07532795      -0.00834696      -0.01978629       0.06585841
Cu      -0.00132119       7.69363266      17.68051480        3       0.00000000       0.00165885      -0.00523736       0.08253451       0.00040345       0.00131056       0.05151725       0.00065118      -0.01393511       0.06275468
Cu       3.63232635       7.69641261      17.68597600        3       0.00000000      -0.00181158      -0.00860542       0.07647712      -0.00011202       0.00449470       0.06832870      -0.00268159      -0.02632275       0.05790168
Cu       1.81524981       1.25390223      19.00235816        2       0.00000000       0.01617049      -0.00102888       0.11245287       0.00353755       0.00049239       0.13416602       0.01553505       0.06494922      -0.03683489
Cu       5.44745935       1.25564728      19.00947758        2       0.00000000      -0.01505620      -0.00418828       0.10954433      -0.00390571       0.00180217       0.13225739      -0.00561036       0.05908936      -0.03107064
Cu       1.82969012       3.82371654      18.97604695        2       0.00000000       0.00715296      -0.00639348       0.13003566       0.00266902      -0.00525274       0.12782357       0.00755832      -0.05626603       0.00827972
Cu       5.43828257       3.82600486      18.98825123        2       0.00000000      -0.00788150      -0.00565464       0.12245836      -0.00206751      -0.00569652       0.12701125      -0.01734507      -0.06273123       0.03622268
Cu       1.83018530       6.39419908      18.97438448        2       0.00000000       0.00092967      -0.01312360       0.13139707       0.02046726      -0.00372950       0.11040127      -0.01911416       0.05409496       0.03304951
Cu       5.43444372       6.38840942      18.98158683        2       0.00000000       0.00191646      -0.00830130       0.12999999      -0.02034143      -0.00276807       0.10916709       0.01743865       0.05924795       0.02862772
Cu       1.82313717       8.97042548      18.97996136        2       0.00000000       0.00715804      -0.00644459       0.12349111       0.00851408      -0.00058847       0.11826583       0.03605531      -0.08754091       0.00327813
Cu       5.43655702       8.97370990      18.98339030        2       0.00000000      -0.00157187      -0.00818365       0.12553018      -0.00849401      -0.00173539       0.11645568      -0.03279706      -0.09194161       0.00161971
Cu       0.00342241      -0.00146964      20.24155716        1       0.00000000       0.00157961      -0.00840907       0.10225161      -0.00121756      -0.01747399       0.14026274      -0.02003300       0.19702818      -0.43182754
Cu       3.62692393      -0.02240255      20.15321170        1       0.00000000       0.00443161      -0.00792054       0.15798906      -0.00028584       0.01481363       0.14096840       0.01325042       0.00754283      -0.09707704
Cu       0.00716647       2.51686346      20.10705904        1       0.00000000      -0.00690800      -0.02089469       0.11362396       0.00126239      -0.01583875       0.14775614      -0.00837815       0.01936101      -0.05026699
Cu       3.62824667       2.54290405      20.14691580        1       0.00000000      -0.00011109       0.00465297       0.15943255      -0.00085552      -0.00122332       0.15095710       0.01323631       0.00763197      -0.04710178
Cu       0.01353602       5.07509587      20.14543521        1       0.00000000       0.00524510      -0.02287920       0.18966182      -0.00106420      -0.02322139       0.13647589       0.03313406       0.02775426      -0.35487247
Cu       3.62815222       5.10963492      20.14520438        1       0.00000000       0.00336811      -0.00569123       0.14835277      -0.00073784       0.00237801       0.15095227       0.00752147      -0.01238994      -0.10741983
Cu      -0.00317765       7.65406449      20.11330355        1       0.00000000       0.00579399       0.01375482       0.19374694       0.00107813      -0.00824042       0.14191859       0.02048306       0.09063696       0.15802760
Cu       3.63155237       7.68111566      20.14553794        1       0.00000000      -0.00074950      -0.01419780       0.14623434      -0.00247488       0.01017545       0.13957748       0.00223250      -0.02199763      -0.10502584
O        0.05176123       9.58541331      22.05982945        0       0.00000000      -0.00542645       0.12407338       0.05595121      -0.01425968       0.00745505       0.09225323       0.01177571      -0.29259957       0.63379598
C        0.05795837       8.31829266      21.99960588        0       0.00000000      -0.00204121       0.09957459       0.10720230      -0.00531185       0.03312714       0.05630851       0.00311504       0.00835558       0.19935639
O        0.09249532       7.44365910      22.87282341        0       0.00000000      -0.01338097       0.10326355       0.01182315      -0.01051393       0.00795903       0.04083524      -0.04444855       0.04493165       0.42730231
H        0.08968446       5.86270894      22.46891468        0       0.00000000       0.02075132      -0.06483532       0.05430335       0.02874298      -0.00785534       0.01051588      -0.00455770      -0.02457659      -0.41237620
O        0.10009015       4.91909697      22.10215058        0       0.50000000      -0.00542230      -0.06656473       0.11937341      -0.00020488      -0.01686346       0.03976009      -0.01844194       0.09645104       0.08996855
H       -0.72222008       4.48459256      22.38934374        0       0.50000000      -0.03696808       0.01052759       0.09346373      -0.03603079       0.02690367       0.01870782      -0.02678980       0.03787139       0.15265144
62
Lattice="7.26 0.0 0.0 0.0 10.26719046282867 0.0 0.0 0.0 30.392" Properties=species:S:1:pos:R:3:tags:I:1:initial_magmoms:R:1:MACE_forces:R:3:forces:R:3:DFT_forces:R:3 MACE_energy=-252.0593314446368 energy=-252.087500241033 stress="0.0044975561111709125 8.810443933857045e-07 0.00010728813243967474 8.810443933857045e-07 0.006489355393789003 -5.9733471431731176e-05 0.00010728813243967474 -5.9733471431731176e-05 -0.0008584545804065417" free_energy=-252.087500241033 DFT_energy=-257.58587606 pbc="T T T"
Cu       0.00033949      -0.00174187      12.59832408        7       0.00000000       0.00000000       0.00000000       0.00000000      -0.00070913       0.00998676       0.41835467       0.00047211       0.02044533       0.67509735
Cu       3.62961954      -0.00066879      12.59861168        7       0.00000000       0.00000000       0.00000000       0.00000000       0.00090900       0.00364844       0.41590338       0.00009594      -0.00810220       0.67202555
Cu       0.00101862       2.56771771      12.59716078        7       0.00000000       0.00000000       0.00000000       0.00000000      -0.00267556      -0.00613596       0.41962782      -0.00361108      -0.00580589       0.67901403
Cu       3.62969450       2.56712490      12.59897555        7       0.00000000       0.00000000       0.00000000       0.00000000       0.00042427      -0.00121001       0.41446946       0.00176144      -0.00190049       0.66247364
Cu      -0.00047342       5.13341180      12.59689367        7       0.00000000       0.00000000       0.00000000       0.00000000       0.00153747       0.00294579       0.42343874       0.00283030      -0.01360344       0.68113526
Cu       3.62881816       5.13439800      12.59935624        7       0.00000000       0.00000000       0.00000000       0.00000000       0.00315459      -0.00237382       0.41353843       0.00463143       0.00949658       0.67713493
Cu      -0.00007115       7.70138433      12.59836164        7       0.00000000       0.00000000       0.00000000       0.00000000       0.00019302      -0.00676376       0.41725205       0.00054874       0.00433382       0.68357082
Cu       3.62936263       7.70074990      12.59953804        7       0.00000000       0.00000000       0.00000000       0.00000000       0.00153043      -0.00113798       0.41318645       0.00173744       0.00452435       0.65479231
Cu       1.81500000       1.28339881      13.89700000        6       0.00000000       0.00000000       0.00000000       0.00000000      -0.00246142      -0.00126101      -0.17829908      -0.00177251       0.01331454      -0.18022389
Cu       5.44500000       1.28339881      13.89700000        6       0.00000000       0.00000000       0.00000000       0.00000000       0.00331907      -0.00088895      -0.18028805       0.00193371       0.01585787      -0.18037609
Cu       1.81500000       3.85019642      13.89700000        6       0.00000000       0.00000000       0.00000000       0.00000000      -0.00313913       0.00194142      -0.17643421      -0.01301022      -0.01182148      -0.17892757
Cu       5.44500000       3.85019642      13.89700000        6       0.00000000       0.00000000       0.00000000       0.00000000       0.00203186       0.00138981      -0.17817199       0.01240718      -0.01340090      -0.17964301
Cu       1.81500000       6.41699404      13.89700000        6       0.00000000       0.00000000       0.00000000       0.00000000      -0.00581862      -0.00059563      -0.17377469       0.00606328      -0.00580531      -0.16515346
Cu       5.44500000       6.41699404      13.89700000        6       0.00000000       0.00000000       0.00000000       0.00000000       0.00297185      -0.00069911      -0.17500980      -0.00955035      -0.00380689      -0.16411321
Cu       1.81500000       8.98379165      13.89700000        6       0.00000000       0.00000000       0.00000000       0.00000000      -0.00154084       0.00053551      -0.17360904       0.00740638       0.00705341      -0.16454821
Cu       5.44500000       8.98379165      13.89700000        6       0.00000000       0.00000000       0.00000000       0.00000000       0.00066255       0.00081423      -0.17500788      -0.00732042       0.00561159      -0.16372442
Cu       0.00000000       0.00000000      15.19600000        5       0.00000000       0.00000000       0.00000000       0.00000000       0.00021243       0.00059097      -0.19187055       0.00088004       0.02844841      -0.07755244
Cu       3.63000000       0.00000000      15.19600000        5       0.00000000       0.00000000       0.00000000       0.00000000      -0.00011050      -0.00014670      -0.25461776       0.00113678      -0.00556235      -0.15617351
Cu       0.00000000       2.56679762      15.19600000        5       0.00000000       0.00000000       0.00000000       0.00000000       0.00004872       0.00014753      -0.29541027       0.00152358      -0.00260799      -0.15662236
Cu       3.63000000       2.56679762      15.19600000        5       0.00000000       0.00000000       0.00000000       0.00000000       0.00017466       0.00025569      -0.25507050      -0.00127685       0.00400271      -0.18645118
Cu       0.00000000       5.13359523      15.19600000        5       0.00000000       0.00000000       0.00000000       0.00000000      -0.00014161       0.00110793      -0.17818187       0.00165625      -0.01471004      -0.10419343
Cu       3.63000000       5.13359523      15.19600000        5       0.00000000       0.00000000       0.00000000       0.00000000       0.00023213       0.00097673      -0.24605226      -0.00078515       0.01382681      -0.13889307
Cu       0.00000000       7.70039285      15.19600000        5       0.00000000       0.00000000       0.00000000       0.00000000       0.00009970      -0.00048701      -0.23835327       0.00010041       0.00081379      -0.18700402
Cu       3.63000000       7.70039285      15.19600000        5       0.00000000       0.00000000       0.00000000       0.00000000       0.00008192      -0.00093302      -0.24174196      -0.00020498      -0.00083584      -0.15664115
Cu       1.81500000       1.28339881      16.49500000        4       0.00000000       0.00000000       0.00000000       0.00000000      -0.00133813      -0.02138125      -0.37622213      -0.01890149      -0.01374306      -0.44861695
Cu       5.44500000       1.28339881      16.49500000        4       0.00000000       0.00000000       0.00000000       0.00000000       0.01010472      -0.02531666      -0.37865269       0.01992592      -0.01709299      -0.44182448
Cu       1.81500000       3.85019642      16.49500000        4       0.00000000       0.00000000       0.00000000       0.00000000      -0.00567597       0.02575148      -0.38429260       0.00317324      -0.04215261      -0.48360380
Cu       5.44500000       3.85019642      16.49500000        4       0.00000000       0.00000000       0.00000000       0.00000000       0.01670741       0.02755879      -0.36921811       0.00502136      -0.04164161      -0.45710944
Cu       1.81500000       6.41699404      16.49500000        4       0.00000000       0.00000000       0.00000000       0.00000000      -0.02339864      -0.01711700      -0.35815562      -0.01067943      -0.00963881      -0.45469363
Cu       5.44500000       6.41699404      16.49500000        4       0.00000000       0.00000000       0.00000000       0.00000000       0.03455620      -0.01750500      -0.34866026       0.01853062      -0.01323297      -0.44028395
Cu       1.81500000       8.98379165      16.49500000        4       0.00000000       0.00000000       0.00000000       0.00000000      -0.01901416       0.00243212      -0.37367758      -0.02843927      -0.01344857      -0.43754297
Cu       5.44500000       8.98379165      16.49500000        4       0.00000000       0.00000000       0.00000000       0.00000000       0.02800231       0.00537876      -0.37882485       0.03263619      -0.01147104      -0.44129565
Cu      -0.00050536      -0.01289329      17.72799679        3       0.00000000       0.00082872       0.00465721       0.06301113      -0.00010231       0.00503394       0.07309809       0.00052470       0.01049031       0.12190637
Cu       3.63064574      -0.00980275      17.68930464        3       0.00000000       0.00078168      -0.00288357       0.07395979      -0.00000088       0.00981996       0.07368551      -0.00036659       0.00806233       0.09640270
Cu      -0.00060100       2.55729613      17.67543342        3       0.00000000       0.00020931      -0.00048083       0.07044039       0.00022094       0.00741686       0.06788930       0.00244946      -0.02560378       0.10390317
Cu       3.63279201       2.55167380      17.68988950        3       0.00000000       0.00047395       0.00080618       0.07010787      -0.00022450      -0.00386054       0.08323682      -0.00332204      -0.00615889       0.05784554
Cu       0.00049854       5.11995215      17.71373789        3       0.00000000       0.00062576      -0.00085496       0.06533940      -0.00004810       0.00054276       0.06794487       0.00195958       0.02246935       0.16982518
Cu       3.63227137       5.11993282      17.68700552        3       0.00000000       0.00072562       0.00130910       0.07455211       0.00042705      -0.00088652       0.07532795      -0.00364634      -0.02015372       0.06971730
Cu      -0.00079193       7.68675581      17.68788629        3       0.00000000       0.00041816       0.00085849       0.07354279       0.00040345       0.00131056       0.05151725      -0.00060197      -0.00605656       0.05386819
Cu       3.63192153       7.68774449      17.68845672        3       0.00000000       0.00104923      -0.00108597       0.07281686      -0.00011202       0.00449470       0.06832870       0.00041052      -0.02552201       0.05328413
Cu       1.82056475       1.24698271      18.99605875        2       0.00000000       0.01308836       0.00351114       0.12282099       0.00353755       0.00049239       0.13416602       0.00688591       0.07427049      -0.02152085
Cu       5.44082698       1.24788020      19.00061978        2       0.00000000      -0.01055725       0.00197470       0.12152523      -0.00390571       0.00180217       0.13225739       0.00370139       0.07227974      -0.01628558
Cu       1.82711259       3.81855026      18.98087759        2       0.00000000       0.00821795      -0.00578612       0.12360571       0.00266902      -0.00525274       0.12782357       0.01007239      -0.05425718       0.00304547
Cu       5.44090143       3.82230480      18.99173727        2       0.00000000      -0.00886479      -0.00630578       0.12016005      -0.00206751      -0.00569652       0.12701125      -0.02180162      -0.06229449       0.03029001
Cu       1.82282292       6.38535932      18.98332125        2       0.00000000       0.00689981      -0.00693768       0.12002107       0.02046726      -0.00372950       0.11040127      -0.00398874       0.06151548       0.01697183
Cu       5.44330659       6.38003545      18.99097135        2       0.00000000      -0.00544262      -0.00321202       0.12004121      -0.02034143      -0.00276807       0.10916709      -0.00024169       0.06549518       0.01120675
Cu       1.82339642       8.95960516      18.98015239        2       0.00000000       0.01056185       0.00098234       0.12317361       0.00851408      -0.00058847       0.11826583       0.03981710      -0.07885870       0.00136201
Cu       5.43691944       8.96182519      18.98291953        2       0.00000000      -0.00696905      -0.00063380       0.12436429      -0.00849401      -0.00173539       0.11645568      -0.03815087      -0.08296081      -0.00012909
Cu       0.00306341      -0.00304729      20.21709797        1       0.00000000      -0.00082578      -0.00456000       0.15075642      -0.00121756      -0.01747399       0.14026274      -0.01685380       0.18428471      -0.40283773
Cu       3.62788388      -0.03715613      20.15205949        1       0.00000000       0.00241595       0.00573402       0.15520655      -0.00028584       0.01481363       0.14096840       0.00841716       0.02821378      -0.10337739
Cu       0.00325164       2.51076690      20.09576355        1       0.00000000       0.00143948      -0.00458256       0.13863426       0.00126239      -0.01583875       0.14775614       0.00395379       0.01986935      -0.01614906
Cu       3.62880891       2.53445488      20.14677721        1       0.00000000       0.00248700       0.00054756       0.15920397      -0.00085552      -0.00122332       0.15095710       0.01458369       0.00987076      -0.04794907
Cu       0.01697968       5.06866019      20.17364725        1       0.00000000      -0.00572172      -0.02408461       0.17362697      -0.00106420      -0.02322139       0.13647589       0.02175082       0.01721114      -0.36934542
Cu       3.62950231       5.09944632      20.14608490        1       0.00000000      -0.00158761      -0.00129581       0.14888445      -0.00073784       0.00237801       0.15095227       0.00173572      -0.00420749      -0.10034096
Cu      -0.00205081       7.66147749      20.13190317        1       0.00000000       0.00679186       0.01167401       0.17393048       0.00107813      -0.00824042       0.14191859       0.01940634       0.08895116       0.14174997
Cu       3.63112310       7.66517832      20.14639910        1       0.00000000       0.00231173      -0.00108687       0.14732354      -0.00247488       0.01017545       0.13957748       0.00457265       0.00200880      -0.09873749
O        0.04209344       9.65140328      22.06310141        0       0.00000000      -0.00527691       0.02439039       0.04433469      -0.01425968       0.00745505       0.09225323       0.01007204      -0.41413982       0.66632210
C        0.04565396       8.38452642      22.00919164        0       0.00000000      -0.00492839       0.10665439       0.04946256      -0.00531185       0.03312714       0.05630851       0.01375762      -0.04094549       0.30097797
O        0.06986243       7.50036385      22.86883030        0       0.00000000      -0.00649003       0.02550190       0.05533414      -0.01051393       0.00795903       0.04083524      -0.05466699       0.08342701       0.36917285
H        0.09353526       5.87128225      22.49642941        0       0.00000000       0.01465028      -0.01640278       0.04865701       0.02874298      -0.00785534       0.01051588      -0.00774456       0.06347683      -0.53626771
O        0.10712063       4.92741146      22.14438318        0       0.50000000      -0.01762055      -0.01117662       0.08017295      -0.00020488      -0.01686346       0.03976009      -0.02613984       0.09995557       0.07267377
H       -0.71618537       4.49896228      22.43871093        0       0.50000000      -0.02200890       0.01225333       0.07229908      -0.03603079       0.02690367       0.01870782      -0.01546642       0.03196225       0.13238304
62
Lattice="7.26 0.0 0.0 0.0 10.26719046282867 0.0 0.0 0.0 30.392" Properties=species:S:1:pos:R:3:tags:I:1:initial_magmoms:R:1:MACE_forces:R:3:forces:R:3:DFT_forces:R:3 MACE_energy=-252.0787174927469 energy=-252.087500241033 stress="0.0044975561111709125 8.810443933857045e-07 0.00010728813243967474 8.810443933857045e-07 0.006489355393789003 -5.9733471431731176e-05 0.00010728813243967474 -5.9733471431731176e-05 -0.0008584545804065417" free_energy=-252.087500241033 DFT_energy=-257.58546245 pbc="T T T"
Cu       0.00033949      -0.00174187      12.59832408        7       0.00000000       0.00000000       0.00000000       0.00000000      -0.00070913       0.00998676       0.41835467       0.00029218       0.02067544       0.67466113
Cu       3.62961954      -0.00066879      12.59861168        7       0.00000000       0.00000000       0.00000000       0.00000000       0.00090900       0.00364844       0.41590338      -0.00003034      -0.00807298       0.67213810
Cu       0.00101862       2.56771771      12.59716078        7       0.00000000       0.00000000       0.00000000       0.00000000      -0.00267556      -0.00613596       0.41962782      -0.00348162      -0.00577909       0.67850618
Cu       3.62969450       2.56712490      12.59897555        7       0.00000000       0.00000000       0.00000000       0.00000000       0.00042427      -0.00121001       0.41446946       0.00155641      -0.00201005       0.66287494
Cu      -0.00047342       5.13341180      12.59689367        7       0.00000000       0.00000000       0.00000000       0.00000000       0.00153747       0.00294579       0.42343874       0.00287379      -0.01378416       0.68044273
Cu       3.62881816       5.13439800      12.59935624        7       0.00000000       0.00000000       0.00000000       0.00000000       0.00315459      -0.00237382       0.41353843       0.00442690       0.00954599       0.67680457
Cu      -0.00007115       7.70138433      12.59836164        7       0.00000000       0.00000000       0.00000000       0.00000000       0.00019302      -0.00676376       0.41725205       0.00059619       0.00390998       0.68397124
Cu       3.62936263       7.70074990      12.59953804        7       0.00000000       0.00000000       0.00000000       0.00000000       0.00153043      -0.00113798       0.41318645       0.00161234       0.00411298       0.65476989
Cu       1.81500000       1.28339881      13.89700000        6       0.00000000       0.00000000       0.00000000       0.00000000      -0.00246142      -0.00126101      -0.17829908      -0.00166891       0.01278268      -0.17942102
Cu       5.44500000       1.28339881      13.89700000        6       0.00000000       0.00000000       0.00000000       0.00000000       0.00331907      -0.00088895      -0.18028805       0.00190245       0.01605974      -0.17925166
Cu       1.81500000       3.85019642      13.89700000        6       0.00000000       0.00000000       0.00000000       0.00000000      -0.00313913       0.00194142      -0.17643421      -0.01293952      -0.01165870      -0.17756862
Cu       5.44500000       3.85019642      13.89700000        6       0.00000000       0.00000000       0.00000000       0.00000000       0.00203186       0.00138981      -0.17817199       0.01204515      -0.01269059      -0.17822240
Cu       1.81500000       6.41699404      13.89700000        6       0.00000000       0.00000000       0.00000000       0.00000000      -0.00581862      -0.00059563      -0.17377469       0.00561110      -0.00544384      -0.16343036
Cu       5.44500000       6.41699404      13.89700000        6       0.00000000       0.00000000       0.00000000       0.00000000       0.00297185      -0.00069911      -0.17500980      -0.00941472      -0.00421165      -0.16239360
Cu       1.81500000       8.98379165      13.89700000        6       0.00000000       0.00000000       0.00000000       0.00000000      -0.00154084       0.00053551      -0.17360904       0.00751463       0.00690981      -0.16320145
Cu       5.44500000       8.98379165      13.89700000        6       0.00000000       0.00000000       0.00000000       0.00000000       0.00066255       0.00081423      -0.17500788      -0.00756423       0.00493564      -0.16247100
Cu       0.00000000       0.00000000      15.19600000        5       0.00000000       0.00000000       0.00000000       0.00000000       0.00021243       0.00059097      -0.19187055       0.00097579       0.02828161      -0.07355175
Cu       3.63000000       0.00000000      15.19600000        5       0.00000000       0.00000000       0.00000000       0.00000000      -0.00011050      -0.00014670      -0.25461776       0.00058727      -0.00580642      -0.15018581
Cu       0.00000000       2.56679762      15.19600000        5       0.00000000       0.00000000       0.00000000       0.00000000       0.00004872       0.00014753      -0.29541027       0.00136250      -0.00231110      -0.14918237
Cu       3.63000000       2.56679762      15.19600000        5       0.00000000       0.00000000       0.00000000       0.00000000       0.00017466       0.00025569      -0.25507050      -0.00116507       0.00416233      -0.18375796
Cu       0.00000000       5.13359523      15.19600000        5       0.00000000       0.00000000       0.00000000       0.00000000      -0.00014161       0.00110793      -0.17818187       0.00105614      -0.01457346      -0.08697900
Cu       3.63000000       5.13359523      15.19600000        5       0.00000000       0.00000000       0.00000000       0.00000000       0.00023213       0.00097673      -0.24605226      -0.00041147       0.01432023      -0.12937643
Cu       0.00000000       7.70039285      15.19600000        5       0.00000000       0.00000000       0.00000000       0.00000000       0.00009970      -0.00048701      -0.23835327      -0.00001505       0.00091240      -0.15911095
Cu       3.63000000       7.70039285      15.19600000        5       0.00000000       0.00000000       0.00000000       0.00000000       0.00008192      -0.00093302      -0.24174196      -0.00031757      -0.00107924      -0.14741964
Cu       1.81500000       1.28339881      16.49500000        4       0.00000000       0.00000000       0.00000000       0.00000000      -0.00133813      -0.02138125      -0.37622213      -0.01832529      -0.01665023      -0.43767961
Cu       5.44500000       1.28339881      16.49500000        4       0.00000000       0.00000000       0.00000000       0.00000000       0.01010472      -0.02531666      -0.37865269       0.01695662      -0.01840308      -0.43246242
Cu       1.81500000       3.85019642      16.49500000        4       0.00000000       0.00000000       0.00000000       0.00000000      -0.00567597       0.02575148      -0.38429260      -0.00397952      -0.03947847      -0.46234869
Cu       5.44500000       3.85019642      16.49500000        4       0.00000000       0.00000000       0.00000000       0.00000000       0.01670741       0.02755879      -0.36921811       0.00696620      -0.04044456      -0.43970286
Cu       1.81500000       6.41699404      16.49500000        4       0.00000000       0.00000000       0.00000000       0.00000000      -0.02339864      -0.01711700      -0.35815562      -0.02284283      -0.01108781      -0.42417438
Cu       5.44500000       6.41699404      16.49500000        4       0.00000000       0.00000000       0.00000000       0.00000000       0.03455620      -0.01750500      -0.34866026       0.02659930      -0.01305038      -0.41087340
Cu       1.81500000       8.98379165      16.49500000        4       0.00000000       0.00000000       0.00000000       0.00000000      -0.01901416       0.00243212      -0.37367758      -0.03421195      -0.02392552      -0.41700396
Cu       5.44500000       8.98379165      16.49500000        4       0.00000000       0.00000000       0.00000000       0.00000000       0.02800231       0.00537876      -0.37882485       0.03725347      -0.02282069      -0.42024623
Cu      -0.00032004      -0.01465740      17.72898256        3       0.00000000       0.00000014       0.00415940       0.07323485      -0.00010231       0.00503394       0.07309809      -0.00086183       0.00838133       0.13458655
Cu       3.63048267      -0.01300486      17.69125629        3       0.00000000       0.00003283       0.00135437       0.07063746      -0.00000088       0.00981996       0.07368551      -0.00033040       0.01220781       0.09135262
Cu      -0.00047572       2.55553944      17.67877619        3       0.00000000      -0.00017922       0.00181704       0.05978982       0.00022094       0.00741686       0.06788930       0.00201554      -0.02412844       0.08725237
Cu       3.63172289       2.55152778      17.69076037        3       0.00000000       0.00187957      -0.00216444       0.07351198      -0.00022450      -0.00386054       0.08323682      -0.00042008      -0.00911351       0.06244913
Cu      -0.00004260       5.11797998      17.72069436        3       0.00000000       0.00148670      -0.00060552       0.06491345      -0.00004810       0.00054276       0.06794487       0.00211295       0.02505923       0.16615459
Cu       3.63153847       5.11987729      17.69033987        3       0.00000000       0.00184397      -0.00044392       0.07063702       0.00042705      -0.00088652       0.07532795      -0.00249072      -0.02232172       0.06430429
Cu      -0.00055926       7.68461428      17.69830584        3       0.00000000      -0.00016734       0.00156934       0.05387094       0.00040345       0.00131056       0.05151725      -0.00136943      -0.00527662       0.03048113
Cu       3.63118695       7.68528915      17.69180470        3       0.00000000       0.00184846       0.00080306       0.06921458      -0.00011202       0.00449470       0.06832870       0.00164729      -0.02506201       0.04868654
Cu       1.81966652       1.24369457      18.99830198        2       0.00000000       0.00885590      -0.00041037       0.12408223       0.00353755       0.00049239       0.13416602       0.00185480       0.07052150      -0.01884624
Cu       5.44084372       1.24457464      19.00116683        2       0.00000000      -0.00882171      -0.00144587       0.12282355      -0.00390571       0.00180217       0.13225739       0.00613417       0.06739608      -0.01132274
Cu       1.82354272       3.81727833      18.98612703        2       0.00000000       0.01013039      -0.00769465       0.11608871       0.00266902      -0.00525274       0.12782357       0.01402357      -0.05581704      -0.00355734
Cu       5.44163523       3.81996111      18.99493912        2       0.00000000      -0.00515750      -0.00364627       0.11860676      -0.00206751      -0.00569652       0.12701125      -0.01560107      -0.05654494       0.02907398
Cu       1.81773570       6.38089990      18.99127661        2       0.00000000       0.01264484      -0.00297958       0.10866441       0.02046726      -0.00372950       0.11040127       0.00711984       0.06561294      -0.00002619
Cu       5.44649082       6.37738220      18.99812228        2       0.00000000      -0.00712855      -0.00447603       0.11212687      -0.02034143      -0.00276807       0.10916709      -0.00406023       0.06266259      -0.00073659
Cu       1.82004556       8.95514698      18.98536621        2       0.00000000       0.01380479       0.00373754       0.11578821       0.00851408      -0.00058847       0.11826583       0.04585475      -0.07274515      -0.00443522
Cu       5.44001804       8.95629788      18.98724937        2       0.00000000      -0.01252427       0.00241896       0.11637920      -0.00849401      -0.00173539       0.11645568      -0.04605645      -0.07607482      -0.00632991
Cu       0.00109707      -0.01076013      20.22518661        1       0.00000000       0.00065065      -0.00406748       0.15474390      -0.00121756      -0.01747399       0.14026274      -0.01021917       0.17812492      -0.39908642
Cu       3.62875639      -0.04180855      20.15257715        1       0.00000000       0.00072664       0.00749244       0.15417885      -0.00028584       0.01481363       0.14096840       0.00407291       0.03237640      -0.10266984
Cu       0.00172015       2.50615309      20.10054852        1       0.00000000      -0.00038184      -0.01052755       0.13090955       0.00126239      -0.01583875       0.14775614       0.00454943       0.00972907      -0.03402528
Cu       3.62852412       2.53179266      20.14749986        1       0.00000000       0.00200907      -0.00315388       0.15629367      -0.00085552      -0.00122332       0.15095710       0.01336845       0.00472688      -0.04815564
Cu       0.01285587       5.06517748      20.19519933        1       0.00000000       0.00387997      -0.02407950       0.17412314      -0.00106420      -0.02322139       0.13647589       0.02508928       0.01331526      -0.35926865
Cu       3.62951649       5.09627355      20.14863383        1       0.00000000      -0.00165795      -0.00150187       0.14686726      -0.00073784       0.00237801       0.15095227       0.00268167      -0.00296851      -0.09645691
Cu      -0.00100899       7.65508676      20.15353713        1       0.00000000       0.00322157       0.01080934       0.14254550       0.00107813      -0.00824042       0.14191859       0.01408967       0.09760983       0.10246232
Cu       3.63004045       7.66066943      20.14886273        1       0.00000000       0.00251189       0.00100960       0.14485102      -0.00247488       0.01017545       0.13957748       0.00611046       0.00715513      -0.09754793
O        0.02918901       9.64833236      22.07982797        0       0.00000000       0.00434245       0.06937043       0.03379638      -0.01425968       0.00745505       0.09225323       0.01932159      -0.36283213       0.66316050
C        0.04268308       8.38318504      22.03442275        0       0.00000000      -0.01211492       0.03337212       0.03379444      -0.00531185       0.03312714       0.05630851      -0.01504747      -0.01333504       0.31335115
O        0.07387579       7.49515287      22.88810202        0       0.00000000      -0.02872223       0.01574267       0.04446278      -0.01051393       0.00795903       0.04083524      -0.06158373       0.05924290       0.30609329
H        0.05706765       5.83003784      22.55155169        0       0.00000000       0.05786868       0.04348704       0.00268118       0.02874298      -0.00785534       0.01051588      -0.02336900      -0.00825269      -0.57138358
O        0.12528942       4.90249009      22.17509909        0       0.50000000      -0.01928604      -0.00865088       0.04853064      -0.00020488      -0.01686346       0.03976009       0.03847108       0.14251856       0.02213833
H       -0.65731704       4.40574500      22.47095630        0       0.50000000      -0.04378276       0.00406870       0.07360794      -0.03603079       0.02690367       0.01870782      -0.04092818       0.02450541       0.13814851
62
Lattice="7.26 0.0 0.0 0.0 10.26719046282867 0.0 0.0 0.0 30.392" Properties=species:S:1:pos:R:3:tags:I:1:initial_magmoms:R:1:MACE_forces:R:3:forces:R:3:DFT_forces:R:3 MACE_energy=-252.1166110302115 energy=-252.087500241033 stress="0.0044975561111709125 8.810443933857045e-07 0.00010728813243967474 8.810443933857045e-07 0.006489355393789003 -5.9733471431731176e-05 0.00010728813243967474 -5.9733471431731176e-05 -0.0008584545804065417" free_energy=-252.087500241033 DFT_energy=-257.5931924 pbc="T T T"
Cu       0.00033949      -0.00174187      12.59832408        7       0.00000000       0.00000000       0.00000000       0.00000000      -0.00070913       0.00998676       0.41835467       0.00000514       0.02014342       0.67550518
Cu       3.62961954      -0.00066879      12.59861168        7       0.00000000       0.00000000       0.00000000       0.00000000       0.00090900       0.00364844       0.41590338       0.00019587      -0.00805607       0.67311914
Cu       0.00101862       2.56771771      12.59716078        7       0.00000000       0.00000000       0.00000000       0.00000000      -0.00267556      -0.00613596       0.41962782      -0.00345549      -0.00599125       0.67713246
Cu       3.62969450       2.56712490      12.59897555        7       0.00000000       0.00000000       0.00000000       0.00000000       0.00042427      -0.00121001       0.41446946       0.00141269      -0.00245921       0.66337425
Cu      -0.00047342       5.13341180      12.59689367        7       0.00000000       0.00000000       0.00000000       0.00000000       0.00153747       0.00294579       0.42343874       0.00306521      -0.01457609       0.67898598
Cu       3.62881816       5.13439800      12.59935624        7       0.00000000       0.00000000       0.00000000       0.00000000       0.00315459      -0.00237382       0.41353843       0.00427610       0.00930140       0.67606535
Cu      -0.00007115       7.70138433      12.59836164        7       0.00000000       0.00000000       0.00000000       0.00000000       0.00019302      -0.00676376       0.41725205       0.00085201       0.00224269       0.68345401
Cu       3.62936263       7.70074990      12.59953804        7       0.00000000       0.00000000       0.00000000       0.00000000       0.00153043      -0.00113798       0.41318645       0.00144648       0.00238549       0.65519197
Cu       1.81500000       1.28339881      13.89700000        6       0.00000000       0.00000000       0.00000000       0.00000000      -0.00246142      -0.00126101      -0.17829908      -0.00189551       0.01268906      -0.17831614
Cu       5.44500000       1.28339881      13.89700000        6       0.00000000       0.00000000       0.00000000       0.00000000       0.00331907      -0.00088895      -0.18028805       0.00217182       0.01616080      -0.17847260
Cu       1.81500000       3.85019642      13.89700000        6       0.00000000       0.00000000       0.00000000       0.00000000      -0.00313913       0.00194142      -0.17643421      -0.01262778      -0.01134130      -0.17531589
Cu       5.44500000       3.85019642      13.89700000        6       0.00000000       0.00000000       0.00000000       0.00000000       0.00203186       0.00138981      -0.17817199       0.01192623      -0.01196537      -0.17621038
Cu       1.81500000       6.41699404      13.89700000        6       0.00000000       0.00000000       0.00000000       0.00000000      -0.00581862      -0.00059563      -0.17377469       0.00455119      -0.00655447      -0.16032524
Cu       5.44500000       6.41699404      13.89700000        6       0.00000000       0.00000000       0.00000000       0.00000000       0.00297185      -0.00069911      -0.17500980      -0.00848286      -0.00603666      -0.15928331
Cu       1.81500000       8.98379165      13.89700000        6       0.00000000       0.00000000       0.00000000       0.00000000      -0.00154084       0.00053551      -0.17360904       0.00845187       0.00610971      -0.16235046
Cu       5.44500000       8.98379165      13.89700000        6       0.00000000       0.00000000       0.00000000       0.00000000       0.00066255       0.00081423      -0.17500788      -0.00864479       0.00409729      -0.16156083
Cu       0.00000000       0.00000000      15.19600000        5       0.00000000       0.00000000       0.00000000       0.00000000       0.00021243       0.00059097      -0.19187055       0.00099025       0.02833914      -0.05869665
Cu       3.63000000       0.00000000      15.19600000        5       0.00000000       0.00000000       0.00000000       0.00000000      -0.00011050      -0.00014670      -0.25461776       0.00023191      -0.00674561      -0.14118244
Cu       0.00000000       2.56679762      15.19600000        5       0.00000000       0.00000000       0.00000000       0.00000000       0.00004872       0.00014753      -0.29541027       0.00101064      -0.00199642      -0.14471507
Cu       3.63000000       2.56679762      15.19600000        5       0.00000000       0.00000000       0.00000000       0.00000000       0.00017466       0.00025569      -0.25507050      -0.00094878       0.00486688      -0.16729675
Cu       0.00000000       5.13359523      15.19600000        5       0.00000000       0.00000000       0.00000000       0.00000000      -0.00014161       0.00110793      -0.17818187       0.00041103      -0.01521792      -0.03688605
Cu       3.63000000       5.13359523      15.19600000        5       0.00000000       0.00000000       0.00000000       0.00000000       0.00023213       0.00097673      -0.24605226      -0.00014954       0.01498293      -0.11003128
Cu       0.00000000       7.70039285      15.19600000        5       0.00000000       0.00000000       0.00000000       0.00000000       0.00009970      -0.00048701      -0.23835327      -0.00000679       0.00024703      -0.14312242
Cu       3.63000000       7.70039285      15.19600000        5       0.00000000       0.00000000       0.00000000       0.00000000       0.00008192      -0.00093302      -0.24174196      -0.00034809      -0.00224463      -0.13060172
Cu       1.81500000       1.28339881      16.49500000        4       0.00000000       0.00000000       0.00000000       0.00000000      -0.00133813      -0.02138125      -0.37622213      -0.01138499      -0.02392239      -0.41901491
Cu       5.44500000       1.28339881      16.49500000        4       0.00000000       0.00000000       0.00000000       0.00000000       0.01010472      -0.02531666      -0.37865269       0.01021860      -0.02540353      -0.41565047
Cu       1.81500000       3.85019642      16.49500000        4       0.00000000       0.00000000       0.00000000       0.00000000      -0.00567597       0.02575148      -0.38429260      -0.01489564      -0.03414384      -0.41282696
Cu       5.44500000       3.85019642      16.49500000        4       0.00000000       0.00000000       0.00000000       0.00000000       0.01670741       0.02755879      -0.36921811       0.01609976      -0.03466975      -0.39561375
Cu       1.81500000       6.41699404      16.49500000        4       0.00000000       0.00000000       0.00000000       0.00000000      -0.02339864      -0.01711700      -0.35815562      -0.03510576      -0.03048777      -0.37147855
Cu       5.44500000       6.41699404      16.49500000        4       0.00000000       0.00000000       0.00000000       0.00000000       0.03455620      -0.01750500      -0.34866026       0.03698083      -0.03220020      -0.36125294
Cu       1.81500000       8.98379165      16.49500000        4       0.00000000       0.00000000       0.00000000       0.00000000      -0.01901416       0.00243212      -0.37367758      -0.03569608      -0.03662411      -0.39228602
Cu       5.44500000       8.98379165      16.49500000        4       0.00000000       0.00000000       0.00000000       0.00000000       0.02800231       0.00537876      -0.37882485       0.03853339      -0.03597635      -0.39378096
Cu      -0.00005745      -0.01939446      17.73466422        3       0.00000000      -0.00031855       0.00399592       0.04484163      -0.00010231       0.00503394       0.07309809      -0.00106357       0.00799565       0.09762783
Cu       3.63045953      -0.01824347      17.69416184        3       0.00000000      -0.00051519       0.00211054       0.07087859      -0.00000088       0.00981996       0.07368551      -0.00078145       0.01266366       0.08862163
Cu      -0.00039598       2.55146750      17.68005441        3       0.00000000      -0.00019229       0.00108587       0.06777999       0.00022094       0.00741686       0.06788930       0.00186082      -0.02692368       0.09727579
Cu       3.63129128       2.54967144      17.69690314        3       0.00000000       0.00151367       0.00065569       0.06478228      -0.00022450      -0.00386054       0.08323682      -0.00058482      -0.00299274       0.05395993
Cu       0.00006676       5.11296433      17.74292412        3       0.00000000       0.00094467      -0.00132213       0.04100272      -0.00004810       0.00054276       0.06794487       0.00055245       0.02259747       0.12927025
Cu       3.63085814       5.11562712      17.69788134        3       0.00000000       0.00263583      -0.00004894       0.06686120       0.00042705      -0.00088652       0.07532795      -0.00159092      -0.02317266       0.05593840
Cu      -0.00023844       7.67934159      17.70444026        3       0.00000000      -0.00035661       0.00239365       0.05346639       0.00040345       0.00131056       0.05151725      -0.00117910      -0.00144277       0.03168817
Cu       3.63076849       7.67809779      17.69814223        3       0.00000000       0.00188273       0.00075803       0.06167254      -0.00011202       0.00449470       0.06832870       0.00178466      -0.02268651       0.04124045
Cu       1.82281526       1.23530882      19.00175918        2       0.00000000       0.00597017       0.00765695       0.11434146       0.00353755       0.00049239       0.13416602      -0.00375631       0.08002657      -0.02997346
Cu       5.43767686       1.23510862      19.00355833        2       0.00000000      -0.00597530       0.00818022       0.11376308      -0.00390571       0.00180217       0.13225739       0.00913433       0.07882806      -0.02438524
Cu       1.81834197       3.81122346      18.99884283        2       0.00000000       0.01073594      -0.00684218       0.10663626       0.00266902      -0.00525274       0.12782357       0.01946074      -0.05072277      -0.01675753
Cu       5.44504755       3.81314944      19.00551448        2       0.00000000      -0.00774550      -0.00503688       0.10869709      -0.00206751      -0.00569652       0.12701125      -0.02164365      -0.05500873       0.01001577
Cu       1.81219196       6.36709502      19.00448870        2       0.00000000       0.00707813       0.00486546       0.10231153       0.02046726      -0.00372950       0.11040127       0.00715356       0.07420736      -0.01167323
Cu       5.45078916       6.36511517      19.00945879        2       0.00000000      -0.00376070       0.00336858       0.10653806      -0.02034143      -0.00276807       0.10916709      -0.00478047       0.07258718      -0.01332003
Cu       1.82231557       8.94362454      18.99082979        2       0.00000000       0.00446767       0.00599809       0.10632990       0.00851408      -0.00058847       0.11826583       0.03656509      -0.06624626      -0.01870173
Cu       5.43830693       8.94420834      18.99239906        2       0.00000000      -0.00486232       0.00677517       0.10619012      -0.00849401      -0.00173539       0.11645568      -0.03931813      -0.06605754      -0.02077417
Cu       0.00172455      -0.01764954      20.22153975        1       0.00000000      -0.00143743      -0.00262854       0.14757254      -0.00121756      -0.01747399       0.14026274      -0.01008363       0.17442101      -0.41401349
Cu       3.62918609      -0.05274524      20.16033236        1       0.00000000       0.00017493       0.00781978       0.13673379      -0.00028584       0.01481363       0.14096840       0.00254079       0.03553604      -0.12321021
Cu       0.00012360       2.49543426      20.10459187        1       0.00000000       0.00105600       0.00409088       0.13068704       0.00126239      -0.01583875       0.14775614       0.00611737       0.01256872      -0.02439353
Cu       3.62935955       2.52256495      20.15615494        1       0.00000000       0.00030053      -0.00088015       0.13961092      -0.00085552      -0.00122332       0.15095710       0.00802540       0.00982213      -0.06445586
Cu       0.00570710       5.04554214      20.25104284        1       0.00000000       0.00421514      -0.01108302       0.12175313      -0.00106420      -0.02322139       0.13647589       0.02309942       0.02554307      -0.38861046
Cu       3.63046909       5.08579480      20.15990872        1       0.00000000      -0.00204169      -0.00238525       0.12721735      -0.00073784       0.00237801       0.15095227      -0.00099629       0.00059877      -0.11146641
Cu      -0.00054471       7.64648908      20.16760335        1       0.00000000       0.00073168       0.01605550       0.14462618       0.00107813      -0.00824042       0.14191859       0.01017538       0.10981483       0.10978371
Cu       3.63004456       7.64803653      20.15802874        1       0.00000000       0.00197031       0.00008850       0.12651979      -0.00247488       0.01017545       0.13957748       0.00375070       0.01347472      -0.11451115
O        0.02111808       9.67241715      22.08012345        0       0.00000000      -0.00123579       0.00898364       0.02541610      -0.01425968       0.00745505       0.09225323       0.00589227      -0.42455976       0.67991528
C        0.02844499       8.40556086      22.04195977        0       0.00000000      -0.00469208       0.05430486       0.04722437      -0.00531185       0.03312714       0.05630851       0.01488021      -0.01506082       0.33111583
O        0.04682440       7.52630226      22.90495810        0       0.00000000      -0.00800311       0.01763792       0.04630689      -0.01051393       0.00795903       0.04083524      -0.03564877       0.07405384       0.22192696
H        0.09798411       5.85592668      22.60276874        0       0.00000000       0.01296299       0.00941950      -0.01712228       0.02874298      -0.00785534       0.01051588      -0.00694215       0.01990351      -0.58113484
O        0.13827568       4.91844397      22.24711542        0       0.50000000      -0.00974658       0.00967819       0.00947527      -0.00020488      -0.01686346       0.03976009      -0.02317094       0.12055570      -0.00435835
H       -0.63501136       4.44204910      22.59717513        0       0.50000000      -0.01479098       0.02309051      -0.00575811      -0.03603079       0.02690367       0.01870782      -0.00864192       0.03472305       0.07680314
62
Lattice="7.26 0.0 0.0 0.0 10.26719046282867 0.0 0.0 0.0 30.392" Properties=species:S:1:pos:R:3:tags:I:1:initial_magmoms:R:1:MACE_forces:R:3:forces:R:3:DFT_forces:R:3 MACE_energy=-252.11548297219235 energy=-252.087500241033 stress="0.0044975561111709125 8.810443933857045e-07 0.00010728813243967474 8.810443933857045e-07 0.006489355393789003 -5.9733471431731176e-05 0.00010728813243967474 -5.9733471431731176e-05 -0.0008584545804065417" free_energy=-252.087500241033 DFT_energy=-257.59360096 pbc="T T T"
Cu       0.00033949      -0.00174187      12.59832408        7       0.00000000       0.00000000       0.00000000       0.00000000      -0.00070913       0.00998676       0.41835467       0.00008358       0.02027784       0.67549589
Cu       3.62961954      -0.00066879      12.59861168        7       0.00000000       0.00000000       0.00000000       0.00000000       0.00090900       0.00364844       0.41590338       0.00027671      -0.00789113       0.67299534
Cu       0.00101862       2.56771771      12.59716078        7       0.00000000       0.00000000       0.00000000       0.00000000      -0.00267556      -0.00613596       0.41962782      -0.00336423      -0.00591706       0.67717550
Cu       3.62969450       2.56712490      12.59897555        7       0.00000000       0.00000000       0.00000000       0.00000000       0.00042427      -0.00121001       0.41446946       0.00143872      -0.00237975       0.66333861
Cu      -0.00047342       5.13341180      12.59689367        7       0.00000000       0.00000000       0.00000000       0.00000000       0.00153747       0.00294579       0.42343874       0.00320901      -0.01438446       0.67897458
Cu       3.62881816       5.13439800      12.59935624        7       0.00000000       0.00000000       0.00000000       0.00000000       0.00315459      -0.00237382       0.41353843       0.00436483       0.00938447       0.67614126
Cu      -0.00007115       7.70138433      12.59836164        7       0.00000000       0.00000000       0.00000000       0.00000000       0.00019302      -0.00676376       0.41725205       0.00109341       0.00229080       0.68343926
Cu       3.62936263       7.70074990      12.59953804        7       0.00000000       0.00000000       0.00000000       0.00000000       0.00153043      -0.00113798       0.41318645       0.00147177       0.00252599       0.65516400
Cu       1.81500000       1.28339881      13.89700000        6       0.00000000       0.00000000       0.00000000       0.00000000      -0.00246142      -0.00126101      -0.17829908      -0.00169126       0.01276745      -0.17843716
Cu       5.44500000       1.28339881      13.89700000        6       0.00000000       0.00000000       0.00000000       0.00000000       0.00331907      -0.00088895      -0.18028805       0.00225967       0.01625596      -0.17855051
Cu       1.81500000       3.85019642      13.89700000        6       0.00000000       0.00000000       0.00000000       0.00000000      -0.00313913       0.00194142      -0.17643421      -0.01249844      -0.01137954      -0.17550645
Cu       5.44500000       3.85019642      13.89700000        6       0.00000000       0.00000000       0.00000000       0.00000000       0.00203186       0.00138981      -0.17817199       0.01202096      -0.01182949      -0.17634159
Cu       1.81500000       6.41699404      13.89700000        6       0.00000000       0.00000000       0.00000000       0.00000000      -0.00581862      -0.00059563      -0.17377469       0.00457990      -0.00630391      -0.16047374
Cu       5.44500000       6.41699404      13.89700000        6       0.00000000       0.00000000       0.00000000       0.00000000       0.00297185      -0.00069911      -0.17500980      -0.00838458      -0.00598636      -0.15941626
Cu       1.81500000       8.98379165      13.89700000        6       0.00000000       0.00000000       0.00000000       0.00000000      -0.00154084       0.00053551      -0.17360904       0.00861358       0.00616063      -0.16262522
Cu       5.44500000       8.98379165      13.89700000        6       0.00000000       0.00000000       0.00000000       0.00000000       0.00066255       0.00081423      -0.17500788      -0.00862741       0.00415632      -0.16166928
Cu       0.00000000       0.00000000      15.19600000        5       0.00000000       0.00000000       0.00000000       0.00000000       0.00021243       0.00059097      -0.19187055       0.00111489       0.02833363      -0.06064377
Cu       3.63000000       0.00000000      15.19600000        5       0.00000000       0.00000000       0.00000000       0.00000000      -0.00011050      -0.00014670      -0.25461776       0.00026122      -0.00663333      -0.14194672
Cu       0.00000000       2.56679762      15.19600000        5       0.00000000       0.00000000       0.00000000       0.00000000       0.00004872       0.00014753      -0.29541027       0.00104771      -0.00211219      -0.14552383
Cu       3.63000000       2.56679762      15.19600000        5       0.00000000       0.00000000       0.00000000       0.00000000       0.00017466       0.00025569      -0.25507050      -0.00080848       0.00497783      -0.16852023
Cu       0.00000000       5.13359523      15.19600000        5       0.00000000       0.00000000       0.00000000       0.00000000      -0.00014161       0.00110793      -0.17818187       0.00036412      -0.01503589      -0.03883747
Cu       3.63000000       5.13359523      15.19600000        5       0.00000000       0.00000000       0.00000000       0.00000000       0.00023213       0.00097673      -0.24605226       0.00000582       0.01497933      -0.11096198
Cu       0.00000000       7.70039285      15.19600000        5       0.00000000       0.00000000       0.00000000       0.00000000       0.00009970      -0.00048701      -0.23835327       0.00011770       0.00022237      -0.14388736
Cu       3.63000000       7.70039285      15.19600000        5       0.00000000       0.00000000       0.00000000       0.00000000       0.00008192      -0.00093302      -0.24174196      -0.00023556      -0.00236829      -0.13144660
Cu       1.81500000       1.28339881      16.49500000        4       0.00000000       0.00000000       0.00000000       0.00000000      -0.00133813      -0.02138125      -0.37622213      -0.01060727      -0.02228626      -0.42117554
Cu       5.44500000       1.28339881      16.49500000        4       0.00000000       0.00000000       0.00000000       0.00000000       0.01010472      -0.02531666      -0.37865269       0.01022305      -0.02385286      -0.41801103
Cu       1.81500000       3.85019642      16.49500000        4       0.00000000       0.00000000       0.00000000       0.00000000      -0.00567597       0.02575148      -0.38429260      -0.01422554      -0.03291498      -0.41567688
Cu       5.44500000       3.85019642      16.49500000        4       0.00000000       0.00000000       0.00000000       0.00000000       0.01670741       0.02755879      -0.36921811       0.01638056      -0.03344089      -0.39833063
Cu       1.81500000       6.41699404      16.49500000        4       0.00000000       0.00000000       0.00000000       0.00000000      -0.02339864      -0.01711700      -0.35815562      -0.03457992      -0.02866513      -0.37384954
Cu       5.44500000       6.41699404      16.49500000        4       0.00000000       0.00000000       0.00000000       0.00000000       0.03455620      -0.01750500      -0.34866026       0.03714628      -0.03031607      -0.36331152
Cu       1.81500000       8.98379165      16.49500000        4       0.00000000       0.00000000       0.00000000       0.00000000      -0.01901416       0.00243212      -0.37367758      -0.03488644      -0.03549610      -0.39455016
Cu       5.44500000       8.98379165      16.49500000        4       0.00000000       0.00000000       0.00000000       0.00000000       0.02800231       0.00537876      -0.37882485       0.03821349      -0.03474652      -0.39596274
Cu      -0.00001736      -0.01857878      17.73382349        3       0.00000000      -0.00027986       0.00425482       0.04712945      -0.00010231       0.00503394       0.07309809      -0.00082614       0.00881784       0.09983840
Cu       3.63047907      -0.01744310      17.69393171        3       0.00000000      -0.00046728       0.00233832       0.07073312      -0.00000088       0.00981996       0.07368551      -0.00044743       0.01205960       0.08876147
Cu      -0.00037606       2.55216674      17.67975806        3       0.00000000      -0.00016287       0.00134725       0.06748082       0.00022094       0.00741686       0.06788930       0.00187008      -0.02692485       0.09730700
Cu       3.63137181       2.55056413      17.69641756        3       0.00000000       0.00139675       0.00040637       0.06563454      -0.00022450      -0.00386054       0.08323682      -0.00101155      -0.00359196       0.05493453
Cu       0.00013674       5.11374716      17.74199574        3       0.00000000       0.00088403      -0.00108977       0.04343605      -0.00004810       0.00054276       0.06794487       0.00065203       0.02332303       0.13209840
Cu       3.63094462       5.11655281      17.69748009        3       0.00000000       0.00243309       0.00008364       0.06715385       0.00042705      -0.00088652       0.07532795      -0.00140999      -0.02317100       0.05673839
Cu      -0.00022120       7.68020583      17.70407030        3       0.00000000      -0.00030441       0.00225324       0.05363330       0.00040345       0.00131056       0.05151725      -0.00088712      -0.00135245       0.03245725
Cu       3.63086233       7.67889800      17.69781915        3       0.00000000       0.00171394       0.00097086       0.06219849      -0.00011202       0.00449470       0.06832870       0.00162137      -0.02299434       0.04190434
Cu       1.82303891       1.23740111      19.00117371        2       0.00000000       0.00556229       0.00712165       0.11547152       0.00353755       0.00049239       0.13416602      -0.00446160       0.07947967      -0.02803057
Cu       5.43762366       1.23721076      19.00291951        2       0.00000000      -0.00559636       0.00767530       0.11484458      -0.00390571       0.00180217       0.13225739       0.00944124       0.07835041      -0.02234574
Cu       1.81867424       3.81308825      18.99813196        2       0.00000000       0.01012850      -0.00642486       0.10790565       0.00266902      -0.00525274       0.12782357       0.01891979      -0.05126264      -0.01500218
Cu       5.44498278       3.81514183      19.00497093        2       0.00000000      -0.00727861      -0.00476093       0.10984987      -0.00206751      -0.00569652       0.12701125      -0.02079811      -0.05517610       0.01119160
Cu       1.81213325       6.36934373      19.00395422        2       0.00000000       0.00759428       0.00401797       0.10280981       0.02046726      -0.00372950       0.11040127       0.00785675       0.07256228      -0.01105166
Cu       5.45110547       6.36711902      19.00904671        2       0.00000000      -0.00452929       0.00271961       0.10667479      -0.02034143      -0.00276807       0.10916709      -0.00613925       0.07172272      -0.01331855
Cu       1.82249491       8.94570634      18.99043257        2       0.00000000       0.00479804       0.00567932       0.10710634       0.00851408      -0.00058847       0.11826583       0.03742062      -0.06646453      -0.01726973
Cu       5.43829490       8.94627749      18.99189884        2       0.00000000      -0.00515557       0.00635916       0.10686064      -0.00849401      -0.00173539       0.11645568      -0.03996452      -0.06705673      -0.01937169
Cu       0.00195347      -0.01430606      20.22023072        1       0.00000000      -0.00150912      -0.00220712       0.14553659      -0.00121756      -0.01747399       0.14026274      -0.00858506       0.17393429      -0.41790601
Cu       3.62930479      -0.05065922      20.15998529        1       0.00000000       0.00018786       0.00806395       0.13734708      -0.00028584       0.01481363       0.14096840       0.00219544       0.03555101      -0.12252251
Cu       0.00020047       2.49858111      20.10392849        1       0.00000000       0.00104905       0.00298573       0.13178350       0.00126239      -0.01583875       0.14775614       0.00638555       0.01219924      -0.02423447
Cu       3.62949264       2.52467641      20.15562744        1       0.00000000       0.00022628      -0.00088000       0.14055084      -0.00085552      -0.00122332       0.15095710       0.00829977       0.00892904      -0.06450325
Cu       0.00621657       5.04857544      20.24961178        1       0.00000000       0.00387166      -0.01150975       0.12173905      -0.00106420      -0.02322139       0.13647589       0.02266007       0.02361607      -0.38980422
Cu       3.63042910       5.08794035      20.15911954        1       0.00000000      -0.00196040      -0.00209571       0.12878191      -0.00073784       0.00237801       0.15095227      -0.00045900      -0.00012756      -0.10923822
Cu      -0.00048666       7.64994991      20.16682805        1       0.00000000       0.00067215       0.01477339       0.14416142       0.00107813      -0.00824042       0.14191859       0.00974740       0.10825462       0.10938615
Cu       3.63027199       7.65000041      20.15750862        1       0.00000000       0.00174381       0.00063783       0.12726779      -0.00247488       0.01017545       0.13957748       0.00303608       0.01405694      -0.11419760
O        0.01866520       9.67688814      22.07861039        0       0.00000000      -0.00191744       0.02829766       0.02932337      -0.01425968       0.00745505       0.09225323       0.00174502      -0.40680006       0.68688194
C        0.02222933       8.41043608      22.04047635        0       0.00000000      -0.00425509       0.02431996       0.05953115      -0.00531185       0.03312714       0.05630851       0.01500816      -0.00593373       0.31783676
O        0.03406693       7.53098711      22.90380943        0       0.00000000      -0.00844350       0.02763217       0.03663683      -0.01051393       0.00795903       0.04083524      -0.03668469       0.06273273       0.22315578
H        0.09190281       5.86157125      22.60052618        0       0.00000000       0.01524769       0.02077332      -0.01291388       0.02874298      -0.00785534       0.01051588      -0.00865929      -0.00864317      -0.56859136
O        0.13934718       4.92470363      22.24493560        0       0.50000000      -0.00972320      -0.00244499       0.00946385      -0.00020488      -0.01686346       0.03976009      -0.02049853       0.13294754       0.00010733
H       -0.62990138       4.44226697      22.59547491        0       0.50000000      -0.01660311       0.02041115      -0.00548499      -0.03603079       0.02690367       0.01870782      -0.01040496       0.03256966       0.07772021
62
Lattice="7.26 0.0 0.0 0.0 10.26719046282867 0.0 0.0 0.0 30.392" Properties=species:S:1:pos:R:3:tags:I:1:initial_magmoms:R:1:MACE_forces:R:3:forces:R:3:DFT_forces:R:3 MACE_energy=-252.11459745681094 energy=-252.087500241033 stress="0.0044975561111709125 8.810443933857045e-07 0.00010728813243967474 8.810443933857045e-07 0.006489355393789003 -5.9733471431731176e-05 0.00010728813243967474 -5.9733471431731176e-05 -0.0008584545804065417" free_energy=-252.087500241033 DFT_energy=-257.59385816 pbc="T T T"
Cu       0.00033949      -0.00174187      12.59832408        7       0.00000000       0.00000000       0.00000000       0.00000000      -0.00070913       0.00998676       0.41835467       0.00002002       0.02027176       0.67545681
Cu       3.62961954      -0.00066879      12.59861168        7       0.00000000       0.00000000       0.00000000       0.00000000       0.00090900       0.00364844       0.41590338       0.00021696      -0.00784804       0.67297076
Cu       0.00101862       2.56771771      12.59716078        7       0.00000000       0.00000000       0.00000000       0.00000000      -0.00267556      -0.00613596       0.41962782      -0.00341215      -0.00595195       0.67719248
Cu       3.62969450       2.56712490      12.59897555        7       0.00000000       0.00000000       0.00000000       0.00000000       0.00042427      -0.00121001       0.41446946       0.00132101      -0.00240750       0.66325872
Cu      -0.00047342       5.13341180      12.59689367        7       0.00000000       0.00000000       0.00000000       0.00000000       0.00153747       0.00294579       0.42343874       0.00321606      -0.01430445       0.67897813
Cu       3.62881816       5.13439800      12.59935624        7       0.00000000       0.00000000       0.00000000       0.00000000       0.00315459      -0.00237382       0.41353843       0.00431268       0.00933604       0.67620195
Cu      -0.00007115       7.70138433      12.59836164        7       0.00000000       0.00000000       0.00000000       0.00000000       0.00019302      -0.00676376       0.41725205       0.00119867       0.00221802       0.68337419
Cu       3.62936263       7.70074990      12.59953804        7       0.00000000       0.00000000       0.00000000       0.00000000       0.00153043      -0.00113798       0.41318645       0.00135220       0.00254034       0.65514190
Cu       1.81500000       1.28339881      13.89700000        6       0.00000000       0.00000000       0.00000000       0.00000000      -0.00246142      -0.00126101      -0.17829908      -0.00163280       0.01272218      -0.17853652
Cu       5.44500000       1.28339881      13.89700000        6       0.00000000       0.00000000       0.00000000       0.00000000       0.00331907      -0.00088895      -0.18028805       0.00221316       0.01623550      -0.17860995
Cu       1.81500000       3.85019642      13.89700000        6       0.00000000       0.00000000       0.00000000       0.00000000      -0.00313913       0.00194142      -0.17643421      -0.01251432      -0.01154295      -0.17568407
Cu       5.44500000       3.85019642      13.89700000        6       0.00000000       0.00000000       0.00000000       0.00000000       0.00203186       0.00138981      -0.17817199       0.01197876      -0.01180771      -0.17645920
Cu       1.81500000       6.41699404      13.89700000        6       0.00000000       0.00000000       0.00000000       0.00000000      -0.00581862      -0.00059563      -0.17377469       0.00447495      -0.00617633      -0.16060248
Cu       5.44500000       6.41699404      13.89700000        6       0.00000000       0.00000000       0.00000000       0.00000000       0.00297185      -0.00069911      -0.17500980      -0.00843346      -0.00607554      -0.15952504
Cu       1.81500000       8.98379165      13.89700000        6       0.00000000       0.00000000       0.00000000       0.00000000      -0.00154084       0.00053551      -0.17360904       0.00863018       0.00608938      -0.16287846
Cu       5.44500000       8.98379165      13.89700000        6       0.00000000       0.00000000       0.00000000       0.00000000       0.00066255       0.00081423      -0.17500788      -0.00874767       0.00408586      -0.16173861
Cu       0.00000000       0.00000000      15.19600000        5       0.00000000       0.00000000       0.00000000       0.00000000       0.00021243       0.00059097      -0.19187055       0.00109903       0.02820233      -0.06214549
Cu       3.63000000       0.00000000      15.19600000        5       0.00000000       0.00000000       0.00000000       0.00000000      -0.00011050      -0.00014670      -0.25461776       0.00014078      -0.00664752      -0.14261680
Cu       0.00000000       2.56679762      15.19600000        5       0.00000000       0.00000000       0.00000000       0.00000000       0.00004872       0.00014753      -0.29541027       0.00093955      -0.00234969      -0.14624184
Cu       3.63000000       2.56679762      15.19600000        5       0.00000000       0.00000000       0.00000000       0.00000000       0.00017466       0.00025569      -0.25507050      -0.00080496       0.00496023      -0.16952132
Cu       0.00000000       5.13359523      15.19600000        5       0.00000000       0.00000000       0.00000000       0.00000000      -0.00014161       0.00110793      -0.17818187       0.00016288      -0.01500021      -0.04024455
Cu       3.63000000       5.13359523      15.19600000        5       0.00000000       0.00000000       0.00000000       0.00000000       0.00023213       0.00097673      -0.24605226       0.00002579       0.01484200      -0.11175869
Cu       0.00000000       7.70039285      15.19600000        5       0.00000000       0.00000000       0.00000000       0.00000000       0.00009970      -0.00048701      -0.23835327       0.00010514       0.00005180      -0.14441352
Cu       3.63000000       7.70039285      15.19600000        5       0.00000000       0.00000000       0.00000000       0.00000000       0.00008192      -0.00093302      -0.24174196      -0.00026103      -0.00263232      -0.13200904
Cu       1.81500000       1.28339881      16.49500000        4       0.00000000       0.00000000       0.00000000       0.00000000      -0.00133813      -0.02138125      -0.37622213      -0.01002928      -0.02078421      -0.42292133
Cu       5.44500000       1.28339881      16.49500000        4       0.00000000       0.00000000       0.00000000       0.00000000       0.01010472      -0.02531666      -0.37865269       0.01016409      -0.02241086      -0.41992180
Cu       1.81500000       3.85019642      16.49500000        4       0.00000000       0.00000000       0.00000000       0.00000000      -0.00567597       0.02575148      -0.38429260      -0.01385262      -0.03164928      -0.41793007
Cu       5.44500000       3.85019642      16.49500000        4       0.00000000       0.00000000       0.00000000       0.00000000       0.01670741       0.02755879      -0.36921811       0.01661051      -0.03215932      -0.40046049
Cu       1.81500000       6.41699404      16.49500000        4       0.00000000       0.00000000       0.00000000       0.00000000      -0.02339864      -0.01711700      -0.35815562      -0.03436403      -0.02696724      -0.37569777
Cu       5.44500000       6.41699404      16.49500000        4       0.00000000       0.00000000       0.00000000       0.00000000       0.03455620      -0.01750500      -0.34866026       0.03725964      -0.02854464      -0.36488837
Cu       1.81500000       8.98379165      16.49500000        4       0.00000000       0.00000000       0.00000000       0.00000000      -0.01901416       0.00243212      -0.37367758      -0.03438855      -0.03442772      -0.39631434
Cu       5.44500000       8.98379165      16.49500000        4       0.00000000       0.00000000       0.00000000       0.00000000       0.02800231       0.00537876      -0.37882485       0.03792134      -0.03360197      -0.39760774
Cu       0.00002754      -0.01773588      17.73321108        3       0.00000000      -0.00026449       0.00439028       0.04839762      -0.00010231       0.00503394       0.07309809      -0.00075368       0.00916181       0.10103424
Cu       3.63050538      -0.01661989      17.69372560        3       0.00000000      -0.00044428       0.00266936       0.07088196      -0.00000088       0.00981996       0.07368551      -0.00027949       0.01181649       0.08935327
Cu      -0.00035283       2.55288672      17.67949584        3       0.00000000      -0.00014775       0.00167728       0.06748044       0.00022094       0.00741686       0.06788930       0.00115322      -0.02628604       0.09736109
Cu       3.63144048       2.55149679      17.69602130        3       0.00000000       0.00132781       0.00019795       0.06649258      -0.00022450      -0.00386054       0.08323682      -0.00104348      -0.00368908       0.05541138
Cu       0.00020060       5.11456956      17.74134058        3       0.00000000       0.00085171      -0.00093407       0.04467292      -0.00004810       0.00054276       0.06794487       0.00082338       0.02354126       0.13347879
Cu       3.63100785       5.11752372      17.69713933        3       0.00000000       0.00232560       0.00003786       0.06759258       0.00042705      -0.00088652       0.07532795      -0.00193216      -0.02342567       0.05725837
Cu      -0.00020007       7.68108235      17.70380852        3       0.00000000      -0.00025469       0.00220749       0.05348167       0.00040345       0.00131056       0.05151725      -0.00055144      -0.00189197       0.03228023
Cu       3.63094202       7.67972989      17.69760444        3       0.00000000       0.00160418       0.00114937       0.06248593      -0.00011202       0.00449470       0.06832870       0.00178273      -0.02326890       0.04220408
Cu       1.82325687       1.23956318      19.00069284        2       0.00000000       0.00534755       0.00677848       0.11639659       0.00353755       0.00049239       0.13416602      -0.00496185       0.07847587      -0.02694265
Cu       5.43758477       1.23937460      19.00238822        2       0.00000000      -0.00541716       0.00737504       0.11570113      -0.00390571       0.00180217       0.13225739       0.00946795       0.07768384      -0.02114545
Cu       1.81896020       3.81508409      18.99758523        2       0.00000000       0.00980453      -0.00640740       0.10881731       0.00266902      -0.00525274       0.12782357       0.01843558      -0.05160929      -0.01329484
Cu       5.44494475       3.81725185      19.00456940        2       0.00000000      -0.00702708      -0.00483848       0.11070455      -0.00206751      -0.00569652       0.12701125      -0.02037016      -0.05662944       0.01228668
Cu       1.81208872       6.37162618      19.00355025        2       0.00000000       0.00817883       0.00351498       0.10313817       0.02046726      -0.00372950       0.11040127       0.00857055       0.07135575      -0.01033050
Cu       5.45138415       6.36916498      19.00872628        2       0.00000000      -0.00528798       0.00235737       0.10675980      -0.02034143      -0.00276807       0.10916709      -0.00738316       0.07117175      -0.01270827
Cu       1.82271549       8.94785901      18.99015740        2       0.00000000       0.00499745       0.00534305       0.10767493       0.00851408      -0.00058847       0.11826583       0.03746750      -0.06714895      -0.01774876
Cu       5.43825328       8.94840753      18.99151916        2       0.00000000      -0.00535628       0.00596896       0.10730945      -0.00849401      -0.00173539       0.11645568      -0.04021491      -0.06769795      -0.01918729
Cu       0.00221116      -0.01081642      20.21906036        1       0.00000000      -0.00160493      -0.00257047       0.14477455      -0.00121756      -0.01747399       0.14026274      -0.00759764       0.17363626      -0.42055047
Cu       3.62943056      -0.04847683      20.15977195        1       0.00000000       0.00018566       0.00835740       0.13760852      -0.00028584       0.01481363       0.14096840       0.00176904       0.03559077      -0.12215333
Cu       0.00027494       2.50184135      20.10341156        1       0.00000000       0.00102262       0.00193556       0.13249246       0.00126239      -0.01583875       0.14775614       0.00676225       0.01330031      -0.02485087
Cu       3.62962316       2.52688821      20.15524152        1       0.00000000       0.00016609      -0.00088787       0.14112565      -0.00085552      -0.00122332       0.15095710       0.00780971       0.00777540      -0.06447839
Cu       0.00670977       5.05176470      20.24841220        1       0.00000000       0.00358827      -0.01212555       0.12203116      -0.00106420      -0.02322139       0.13647589       0.02251378       0.02210456      -0.38976270
Cu       3.63040087       5.09017725      20.15851685        1       0.00000000      -0.00191204      -0.00185945       0.12993259      -0.00073784       0.00237801       0.15095227      -0.00057462      -0.00155715      -0.10769591
Cu      -0.00043025       7.65352951      20.16616326        1       0.00000000       0.00060581       0.01353624       0.14293616       0.00107813      -0.00824042       0.14191859       0.00907025       0.10552237       0.10806430
Cu       3.63049630       7.65205511      20.15715818        1       0.00000000       0.00153312       0.00111217       0.12778962      -0.00247488       0.01017545       0.13957748       0.00207540       0.01397354      -0.11257764
O        0.01609740       9.68149424      22.07726052        0       0.00000000      -0.00247665       0.03408184       0.03158878      -0.01425968       0.00745505       0.09225323      -0.00077686      -0.39848666       0.69088262
C        0.01573758       8.41513632      22.03909159        0       0.00000000      -0.00424167       0.02002551       0.06098784      -0.00531185       0.03312714       0.05630851       0.01629898      -0.00730795       0.32173511
O        0.02073054       7.53578328      22.90257664        0       0.00000000      -0.00876024       0.02660032       0.03885675      -0.01051393       0.00795903       0.04083524      -0.03667480       0.05475557       0.22504298
H        0.08536249       5.86735061      22.59863976        0       0.00000000       0.01773122       0.02979104      -0.00966548       0.02874298      -0.00785534       0.01051588      -0.00363082      -0.01074004      -0.57030814
O        0.14053048       4.93113454      22.24310468        0       0.50000000      -0.00769235      -0.01134393       0.00876709      -0.00020488      -0.01686346       0.03976009      -0.01758286       0.14278998       0.00370089
H       -0.62431390       4.44224462      22.59404199        0       0.50000000      -0.02057485       0.01623596      -0.00415813      -0.03603079       0.02690367       0.01870782      -0.01459492       0.02881752       0.07979373
62
Lattice="7.26 0.0 0.0 0.0 10.26719046282867 0.0 0.0 0.0 30.392" Properties=species:S:1:pos:R:3:tags:I:1:initial_magmoms:R:1:MACE_forces:R:3:forces:R:3:DFT_forces:R:3 MACE_energy=-252.11366263701083 energy=-252.087500241033 stress="0.0044975561111709125 8.810443933857045e-07 0.00010728813243967474 8.810443933857045e-07 0.006489355393789003 -5.9733471431731176e-05 0.00010728813243967474 -5.9733471431731176e-05 -0.0008584545804065417" free_energy=-252.087500241033 DFT_energy=-257.59400589 pbc="T T T"
Cu       0.00033949      -0.00174187      12.59832408        7       0.00000000       0.00000000       0.00000000       0.00000000      -0.00070913       0.00998676       0.41835467       0.00009757       0.02034657       0.67542955
Cu       3.62961954      -0.00066879      12.59861168        7       0.00000000       0.00000000       0.00000000       0.00000000       0.00090900       0.00364844       0.41590338       0.00029747      -0.00771017       0.67290391
Cu       0.00101862       2.56771771      12.59716078        7       0.00000000       0.00000000       0.00000000       0.00000000      -0.00267556      -0.00613596       0.41962782      -0.00331899      -0.00590415       0.67718641
Cu       3.62969450       2.56712490      12.59897555        7       0.00000000       0.00000000       0.00000000       0.00000000       0.00042427      -0.00121001       0.41446946       0.00134693      -0.00234554       0.66321134
Cu      -0.00047342       5.13341180      12.59689367        7       0.00000000       0.00000000       0.00000000       0.00000000       0.00153747       0.00294579       0.42343874       0.00335998      -0.01413587       0.67894716
Cu       3.62881816       5.13439800      12.59935624        7       0.00000000       0.00000000       0.00000000       0.00000000       0.00315459      -0.00237382       0.41353843       0.00440346       0.00937604       0.67625192
Cu      -0.00007115       7.70138433      12.59836164        7       0.00000000       0.00000000       0.00000000       0.00000000       0.00019302      -0.00676376       0.41725205       0.00144225       0.00222056       0.68333832
Cu       3.62936263       7.70074990      12.59953804        7       0.00000000       0.00000000       0.00000000       0.00000000       0.00153043      -0.00113798       0.41318645       0.00137794       0.00263280       0.65506600
Cu       1.81500000       1.28339881      13.89700000        6       0.00000000       0.00000000       0.00000000       0.00000000      -0.00246142      -0.00126101      -0.17829908      -0.00143761       0.01276027      -0.17864897
Cu       5.44500000       1.28339881      13.89700000        6       0.00000000       0.00000000       0.00000000       0.00000000       0.00331907      -0.00088895      -0.18028805       0.00231068       0.01630272      -0.17867621
Cu       1.81500000       3.85019642      13.89700000        6       0.00000000       0.00000000       0.00000000       0.00000000      -0.00313913       0.00194142      -0.17643421      -0.01238715      -0.01160993      -0.17586731
Cu       5.44500000       3.85019642      13.89700000        6       0.00000000       0.00000000       0.00000000       0.00000000       0.00203186       0.00138981      -0.17817199       0.01207469      -0.01169969      -0.17658782
Cu       1.81500000       6.41699404      13.89700000        6       0.00000000       0.00000000       0.00000000       0.00000000      -0.00581862      -0.00059563      -0.17377469       0.00450632      -0.00596682      -0.16074204
Cu       5.44500000       6.41699404      13.89700000        6       0.00000000       0.00000000       0.00000000       0.00000000       0.00297185      -0.00069911      -0.17500980      -0.00833854      -0.00608104      -0.15965257
Cu       1.81500000       8.98379165      13.89700000        6       0.00000000       0.00000000       0.00000000       0.00000000      -0.00154084       0.00053551      -0.17360904       0.00878158       0.00611246      -0.16314567
Cu       5.44500000       8.98379165      13.89700000        6       0.00000000       0.00000000       0.00000000       0.00000000       0.00066255       0.00081423      -0.17500788      -0.00872199       0.00410933      -0.16183028
Cu       0.00000000       0.00000000      15.19600000        5       0.00000000       0.00000000       0.00000000       0.00000000       0.00021243       0.00059097      -0.19187055       0.00122802       0.02815543      -0.06363919
Cu       3.63000000       0.00000000      15.19600000        5       0.00000000       0.00000000       0.00000000       0.00000000      -0.00011050      -0.00014670      -0.25461776       0.00016103      -0.00657380      -0.14328619
Cu       0.00000000       2.56679762      15.19600000        5       0.00000000       0.00000000       0.00000000       0.00000000       0.00004872       0.00014753      -0.29541027       0.00097100      -0.00250147      -0.14694426
Cu       3.63000000       2.56679762      15.19600000        5       0.00000000       0.00000000       0.00000000       0.00000000       0.00017466       0.00025569      -0.25507050      -0.00066298       0.00502864      -0.17051866
Cu       0.00000000       5.13359523      15.19600000        5       0.00000000       0.00000000       0.00000000       0.00000000      -0.00014161       0.00110793      -0.17818187       0.00010519      -0.01488477      -0.04165047
Cu       3.63000000       5.13359523      15.19600000        5       0.00000000       0.00000000       0.00000000       0.00000000       0.00023213       0.00097673      -0.24605226       0.00018547       0.01479184      -0.11255911
Cu       0.00000000       7.70039285      15.19600000        5       0.00000000       0.00000000       0.00000000       0.00000000       0.00009970      -0.00048701      -0.23835327       0.00023000      -0.00002411      -0.14494505
Cu       3.63000000       7.70039285      15.19600000        5       0.00000000       0.00000000       0.00000000       0.00000000       0.00008192      -0.00093302      -0.24174196      -0.00015165      -0.00280302      -0.13259724
Cu       1.81500000       1.28339881      16.49500000        4       0.00000000       0.00000000       0.00000000       0.00000000      -0.00133813      -0.02138125      -0.37622213      -0.00931833      -0.01922057      -0.42464934
Cu       5.44500000       1.28339881      16.49500000        4       0.00000000       0.00000000       0.00000000       0.00000000       0.01010472      -0.02531666      -0.37865269       0.01024451      -0.02090678      -0.42181610
Cu       1.81500000       3.85019642      16.49500000        4       0.00000000       0.00000000       0.00000000       0.00000000      -0.00567597       0.02575148      -0.38429260      -0.01334565      -0.03031768      -0.42015880
Cu       5.44500000       3.85019642      16.49500000        4       0.00000000       0.00000000       0.00000000       0.00000000       0.01670741       0.02755879      -0.36921811       0.01697965      -0.03080621      -0.40256724
Cu       1.81500000       6.41699404      16.49500000        4       0.00000000       0.00000000       0.00000000       0.00000000      -0.02339864      -0.01711700      -0.35815562      -0.03401281      -0.02521600      -0.37753430
Cu       5.44500000       6.41699404      16.49500000        4       0.00000000       0.00000000       0.00000000       0.00000000       0.03455620      -0.01750500      -0.34866026       0.03751569      -0.02671986      -0.36644567
Cu       1.81500000       8.98379165      16.49500000        4       0.00000000       0.00000000       0.00000000       0.00000000      -0.01901416       0.00243212      -0.37367758      -0.03376077      -0.03328768      -0.39805719
Cu       5.44500000       8.98379165      16.49500000        4       0.00000000       0.00000000       0.00000000       0.00000000       0.02800231       0.00537876      -0.37882485       0.03777159      -0.03238681      -0.39922957
Cu       0.00007170      -0.01690667      17.73260879        3       0.00000000      -0.00024990       0.00451369       0.04964424      -0.00010231       0.00503394       0.07309809      -0.00054603       0.00904731       0.10270458
Cu       3.63053128      -0.01580988      17.69352283        3       0.00000000      -0.00042175       0.00299734       0.07102731      -0.00000088       0.00981996       0.07368551       0.00022054       0.01167374       0.08991121
Cu      -0.00032996       2.55359509      17.67923787        3       0.00000000      -0.00013240       0.00199725       0.06748438       0.00022094       0.00741686       0.06788930       0.00129780      -0.02511357       0.09732777
Cu       3.63150801       2.55241436      17.69563158        3       0.00000000       0.00125871      -0.00000599       0.06733666      -0.00022450      -0.00386054       0.08323682      -0.00131006      -0.00358793       0.05649525
Cu       0.00026340       5.11537865      17.74069623        3       0.00000000       0.00081835      -0.00078761       0.04589049      -0.00004810       0.00054276       0.06794487       0.00095894       0.02438930       0.13494999
Cu       3.63107004       5.11847893      17.69680410        3       0.00000000       0.00222033      -0.00000888       0.06802091       0.00042705      -0.00088652       0.07532795      -0.00198218      -0.02378515       0.05841423
Cu      -0.00017930       7.68194469      17.70355097        3       0.00000000      -0.00020722       0.00216100       0.05333955       0.00040345       0.00131056       0.05151725      -0.00016619      -0.00128882       0.03167005
Cu       3.63102043       7.68054838      17.69739328        3       0.00000000       0.00149783       0.00132479       0.06277105      -0.00011202       0.00449470       0.06832870       0.00175554      -0.02356805       0.04259500
Cu       1.82347140       1.24169030      19.00021988        2       0.00000000       0.00514880       0.00644293       0.11730610       0.00353755       0.00049239       0.13416602      -0.00580362       0.07735602      -0.02506381
Cu       5.43754643       1.24150345      19.00186564        2       0.00000000      -0.00525159       0.00708135       0.11654373      -0.00390571       0.00180217       0.13225739       0.00935426       0.07719079      -0.02019421
Cu       1.81924145       3.81704775      18.99704754        2       0.00000000       0.00948131      -0.00638645       0.10972362       0.00266902      -0.00525274       0.12782357       0.01788433      -0.05107607      -0.01229613
Cu       5.44490738       3.81932783      19.00417452        2       0.00000000      -0.00677923      -0.00491177       0.11154685      -0.00206751      -0.00569652       0.12701125      -0.01981359      -0.05755736       0.01288199
Cu       1.81204510       6.37387181      19.00315284        2       0.00000000       0.00875917       0.00303164       0.10346607       0.02046726      -0.00372950       0.11040127       0.00897162       0.07073205      -0.00973700
Cu       5.45165816       6.37117790      19.00841107        2       0.00000000      -0.00603645       0.00200909       0.10684836      -0.02034143      -0.00276807       0.10916709      -0.00804021       0.07033129      -0.01294349
Cu       1.82293254       8.94997689      18.98988674        2       0.00000000       0.00519259       0.00501450       0.10823340       0.00851408      -0.00058847       0.11826583       0.03714915      -0.06875379      -0.01777909
Cu       5.43821231       8.95050310      18.99114571        2       0.00000000      -0.00554975       0.00558303       0.10775510      -0.00849401      -0.00173539       0.11645568      -0.03993177      -0.06932789      -0.01846577
Cu       0.00246483      -0.00738336      20.21790887        1       0.00000000      -0.00168352      -0.00296987       0.14408345      -0.00121756      -0.01747399       0.14026274      -0.00546945       0.17511103      -0.42276526
Cu       3.62955429      -0.04632958      20.15956203        1       0.00000000       0.00018168       0.00864956       0.13786038      -0.00028584       0.01481363       0.14096840       0.00102258       0.03437833      -0.12170357
Cu       0.00034823       2.50504894      20.10290321        1       0.00000000       0.00099937       0.00091604       0.13320111       0.00126239      -0.01583875       0.14775614       0.00699747       0.01526646      -0.02518119
Cu       3.62975157       2.52906430      20.15486189        1       0.00000000       0.00010760      -0.00089536       0.14168880      -0.00085552      -0.00122332       0.15095710       0.00798381       0.00780593      -0.06437025
Cu       0.00719497       5.05490248      20.24723265        1       0.00000000       0.00331230      -0.01272769       0.12236553      -0.00106420      -0.02322139       0.13647589       0.02240095       0.02047106      -0.38982166
Cu       3.63037313       5.09237806      20.15792404        1       0.00000000      -0.00186375      -0.00162989       0.13106170      -0.00073784       0.00237801       0.15095227      -0.00023144      -0.00340943      -0.10604673
Cu      -0.00037452       7.65705135      20.16551087        1       0.00000000       0.00055854       0.01233560       0.14186525       0.00107813      -0.00824042       0.14191859       0.00861484       0.10270071       0.10837361
Cu       3.63071699       7.65407670      20.15681358        1       0.00000000       0.00132713       0.00157824       0.12831533      -0.00247488       0.01017545       0.13957748       0.00112054       0.01382586      -0.11122274
O        0.01357163       9.68601844      22.07593496        0       0.00000000      -0.00298488       0.03905995       0.03391090      -0.01425968       0.00745505       0.09225323      -0.00407917      -0.39569821       0.69487855
C        0.00935181       8.41975248      22.03773820        0       0.00000000      -0.00427488       0.01602695       0.06248396      -0.00531185       0.03312714       0.05630851       0.01525302      -0.00766568       0.32411776
O        0.00760716       7.54051476      22.90135043        0       0.00000000      -0.00909799       0.02584225       0.04058977      -0.01051393       0.00795903       0.04083524      -0.03729832       0.04615380       0.22547895
H        0.07892460       5.87302246      22.59677933        0       0.00000000       0.01984102       0.03751380      -0.00673810       0.02874298      -0.00785534       0.01051588      -0.00359297      -0.01345928      -0.57124118
O        0.14167601       4.93746723      22.24131603        0       0.50000000      -0.00615029      -0.01938150       0.00855806      -0.00020488      -0.01686346       0.03976009      -0.01494342       0.15123351       0.00688714
H       -0.61879483       4.44223329      22.59262447        0       0.50000000      -0.02370611       0.01279110      -0.00305029      -0.03603079       0.02690367       0.01870782      -0.01771155       0.02588933       0.08156064
62
Lattice="7.26 0.0 0.0 0.0 10.26719046282867 0.0 0.0 0.0 30.392" Properties=species:S:1:pos:R:3:tags:I:1:initial_magmoms:R:1:MACE_forces:R:3:forces:R:3:DFT_forces:R:3 MACE_energy=-252.11266722972462 energy=-252.087500241033 stress="0.0044975561111709125 8.810443933857045e-07 0.00010728813243967474 8.810443933857045e-07 0.006489355393789003 -5.9733471431731176e-05 0.00010728813243967474 -5.9733471431731176e-05 -0.0008584545804065417" free_energy=-252.087500241033 DFT_energy=-257.59410775 pbc="T T T"
Cu       0.00033949      -0.00174187      12.59832408        7       0.00000000       0.00000000       0.00000000       0.00000000      -0.00070913       0.00998676       0.41835467       0.00013144       0.02043047       0.67540229
Cu       3.62961954      -0.00066879      12.59861168        7       0.00000000       0.00000000       0.00000000       0.00000000       0.00090900       0.00364844       0.41590338       0.00033741      -0.00756949       0.67284191
Cu       0.00101862       2.56771771      12.59716078        7       0.00000000       0.00000000       0.00000000       0.00000000      -0.00267556      -0.00613596       0.41962782      -0.00326979      -0.00584069       0.67718305
Cu       3.62969450       2.56712490      12.59897555        7       0.00000000       0.00000000       0.00000000       0.00000000       0.00042427      -0.00121001       0.41446946       0.00132954      -0.00227675       0.66310447
Cu      -0.00047342       5.13341180      12.59689367        7       0.00000000       0.00000000       0.00000000       0.00000000       0.00153747       0.00294579       0.42343874       0.00346541      -0.01394396       0.67889802
Cu       3.62881816       5.13439800      12.59935624        7       0.00000000       0.00000000       0.00000000       0.00000000       0.00315459      -0.00237382       0.41353843       0.00444909       0.00942668       0.67630093
Cu      -0.00007115       7.70138433      12.59836164        7       0.00000000       0.00000000       0.00000000       0.00000000       0.00019302      -0.00676376       0.41725205       0.00164457       0.00223494       0.68328881
Cu       3.62936263       7.70074990      12.59953804        7       0.00000000       0.00000000       0.00000000       0.00000000       0.00153043      -0.00113798       0.41318645       0.00136507       0.00274572       0.65507567
Cu       1.81500000       1.28339881      13.89700000        6       0.00000000       0.00000000       0.00000000       0.00000000      -0.00246142      -0.00126101      -0.17829908      -0.00128538       0.01281263      -0.17875363
Cu       5.44500000       1.28339881      13.89700000        6       0.00000000       0.00000000       0.00000000       0.00000000       0.00331907      -0.00088895      -0.18028805       0.00236618       0.01638382      -0.17874765
Cu       1.81500000       3.85019642      13.89700000        6       0.00000000       0.00000000       0.00000000       0.00000000      -0.00313913       0.00194142      -0.17643421      -0.01230213      -0.01166678      -0.17604979
Cu       5.44500000       3.85019642      13.89700000        6       0.00000000       0.00000000       0.00000000       0.00000000       0.00203186       0.00138981      -0.17817199       0.01212944      -0.01157670      -0.17671445
Cu       1.81500000       6.41699404      13.89700000        6       0.00000000       0.00000000       0.00000000       0.00000000      -0.00581862      -0.00059563      -0.17377469       0.00449855      -0.00574329      -0.16087727
Cu       5.44500000       6.41699404      13.89700000        6       0.00000000       0.00000000       0.00000000       0.00000000       0.00297185      -0.00069911      -0.17500980      -0.00828748      -0.00606993      -0.15977559
Cu       1.81500000       8.98379165      13.89700000        6       0.00000000       0.00000000       0.00000000       0.00000000      -0.00154084       0.00053551      -0.17360904       0.00889215       0.00614703      -0.16341153
Cu       5.44500000       8.98379165      13.89700000        6       0.00000000       0.00000000       0.00000000       0.00000000       0.00066255       0.00081423      -0.17500788      -0.00873959       0.00414288      -0.16191326
Cu       0.00000000       0.00000000      15.19600000        5       0.00000000       0.00000000       0.00000000       0.00000000       0.00021243       0.00059097      -0.19187055       0.00131481       0.02812586      -0.06513441
Cu       3.63000000       0.00000000      15.19600000        5       0.00000000       0.00000000       0.00000000       0.00000000      -0.00011050      -0.00014670      -0.25461776       0.00013585      -0.00648627      -0.14395229
Cu       0.00000000       2.56679762      15.19600000        5       0.00000000       0.00000000       0.00000000       0.00000000       0.00004872       0.00014753      -0.29541027       0.00095978      -0.00263479      -0.14766187
Cu       3.63000000       2.56679762      15.19600000        5       0.00000000       0.00000000       0.00000000       0.00000000       0.00017466       0.00025569      -0.25507050      -0.00056359       0.00511005      -0.17151055
Cu       0.00000000       5.13359523      15.19600000        5       0.00000000       0.00000000       0.00000000       0.00000000      -0.00014161       0.00110793      -0.17818187       0.00000527      -0.01476339      -0.04305984
Cu       3.63000000       5.13359523      15.19600000        5       0.00000000       0.00000000       0.00000000       0.00000000       0.00023213       0.00097673      -0.24605226       0.00030024       0.01475840      -0.11336526
Cu       0.00000000       7.70039285      15.19600000        5       0.00000000       0.00000000       0.00000000       0.00000000       0.00009970      -0.00048701      -0.23835327       0.00031699      -0.00009566      -0.14548226
Cu       3.63000000       7.70039285      15.19600000        5       0.00000000       0.00000000       0.00000000       0.00000000       0.00008192      -0.00093302      -0.24174196      -0.00008483      -0.00296137      -0.13318031
Cu       1.81500000       1.28339881      16.49500000        4       0.00000000       0.00000000       0.00000000       0.00000000      -0.00133813      -0.02138125      -0.37622213      -0.00864985      -0.01764337      -0.42636943
Cu       5.44500000       1.28339881      16.49500000        4       0.00000000       0.00000000       0.00000000       0.00000000       0.01010472      -0.02531666      -0.37865269       0.01028251      -0.01938691      -0.42370420
Cu       1.81500000       3.85019642      16.49500000        4       0.00000000       0.00000000       0.00000000       0.00000000      -0.00567597       0.02575148      -0.38429260      -0.01288223      -0.02896650      -0.42237536
Cu       5.44500000       3.85019642      16.49500000        4       0.00000000       0.00000000       0.00000000       0.00000000       0.01670741       0.02755879      -0.36921811       0.01731144      -0.02943240      -0.40466241
Cu       1.81500000       6.41699404      16.49500000        4       0.00000000       0.00000000       0.00000000       0.00000000      -0.02339864      -0.01711700      -0.35815562      -0.03370421      -0.02345597      -0.37936776
Cu       5.44500000       6.41699404      16.49500000        4       0.00000000       0.00000000       0.00000000       0.00000000       0.03455620      -0.01750500      -0.34866026       0.03773257      -0.02488349      -0.36800329
Cu       1.81500000       8.98379165      16.49500000        4       0.00000000       0.00000000       0.00000000       0.00000000      -0.01901416       0.00243212      -0.37367758      -0.03317597      -0.03213372      -0.39979628
Cu       5.44500000       8.98379165      16.49500000        4       0.00000000       0.00000000       0.00000000       0.00000000       0.02800231       0.00537876      -0.37882485       0.03758081      -0.03115409      -0.40085016
Cu       0.00011586      -0.01607771      17.73200664        3       0.00000000      -0.00023579       0.00462735       0.05089084      -0.00010231       0.00503394       0.07309809      -0.00015856       0.00914923       0.10383645
Cu       3.63055717      -0.01499998      17.69332009        3       0.00000000      -0.00039927       0.00332780       0.07117150      -0.00000088       0.00981996       0.07368551       0.00062681       0.01195099       0.09045840
Cu      -0.00030709       2.55430330      17.67897999        3       0.00000000      -0.00011660       0.00231272       0.06749220       0.00022094       0.00741686       0.06788930       0.00165309      -0.02444977       0.09711206
Cu       3.63157553       2.55333177      17.69524195        3       0.00000000       0.00118827      -0.00020905       0.06818098      -0.00022450      -0.00386054       0.08323682      -0.00094964      -0.00356288       0.05725922
Cu       0.00032618       5.11618753      17.74005204        3       0.00000000       0.00078347      -0.00064796       0.04710894      -0.00004810       0.00054276       0.06794487       0.00104433       0.02439770       0.13658926
Cu       3.63113222       5.11943396      17.69646890        3       0.00000000       0.00211551      -0.00005700       0.06844597       0.00042705      -0.00088652       0.07532795      -0.00180125      -0.02372311       0.05906166
Cu      -0.00015855       7.68280686      17.70329347        3       0.00000000      -0.00016119       0.00211325       0.05320518       0.00040345       0.00131056       0.05151725       0.00035773      -0.00129892       0.03196294
Cu       3.63109884       7.68136671      17.69718218        3       0.00000000       0.00139312       0.00150006       0.06305854      -0.00011202       0.00449470       0.06832870       0.00140006      -0.02358325       0.04298116
Cu       1.82368603       1.24381705      18.99974698        2       0.00000000       0.00496212       0.00610924       0.11821561       0.00353755       0.00049239       0.13416602      -0.00654403       0.07678142      -0.02376018
Cu       5.43750798       1.24363194      19.00134316        2       0.00000000      -0.00509627       0.00678906       0.11738683      -0.00390571       0.00180217       0.13225739       0.01026441       0.07651222      -0.01894323
Cu       1.81952263       3.81901109      18.99651002        2       0.00000000       0.00915307      -0.00636124       0.11063996       0.00266902      -0.00525274       0.12782357       0.01692809      -0.05194705      -0.01111934
Cu       5.44487001       3.82140349      19.00377973        2       0.00000000      -0.00653072      -0.00498198       0.11239052      -0.00206751      -0.00569652       0.12701125      -0.01929655      -0.05821606       0.01251446
Cu       1.81200158       6.37611715      19.00275551        2       0.00000000       0.00934412       0.00255954       0.10380004       0.02046726      -0.00372950       0.11040127       0.01023145       0.06969511      -0.00876230
Cu       5.45193206       6.37319052      19.00809594        2       0.00000000      -0.00678687       0.00166922       0.10694211      -0.02034143      -0.00276807       0.10916709      -0.00888917       0.07036053      -0.01247918
Cu       1.82314956       8.95209444      18.98961609        2       0.00000000       0.00538652       0.00468806       0.10879151       0.00851408      -0.00058847       0.11826583       0.03688453      -0.07029808      -0.01752081
Cu       5.43817137       8.95259830      18.99077233        2       0.00000000      -0.00573913       0.00519498       0.10820529      -0.00849401      -0.00173539       0.11645568      -0.03906411      -0.07056873      -0.01747231
Cu       0.00271860      -0.00395109      20.21675765        1       0.00000000      -0.00174721      -0.00341491       0.14345820      -0.00121756      -0.01747399       0.14026274      -0.00395293       0.17711462      -0.42470326
Cu       3.62967797      -0.04418267      20.15935209        1       0.00000000       0.00017581       0.00894516       0.13810688      -0.00028584       0.01481363       0.14096840       0.00061614       0.03358174      -0.12193757
Cu       0.00042153       2.50825611      20.10239507        1       0.00000000       0.00097927      -0.00009081       0.13392060       0.00126239      -0.01583875       0.14775614       0.00668744       0.01528895      -0.02434204
Cu       3.62987999       2.53123999      20.15448230        1       0.00000000       0.00004963      -0.00090264       0.14224949      -0.00085552      -0.00122332       0.15095710       0.00807953       0.00711620      -0.06328790
Cu       0.00768008       5.05803980      20.24605393        1       0.00000000       0.00304006      -0.01332733       0.12274481      -0.00106420      -0.02322139       0.13647589       0.02250670       0.01941471      -0.39000882
Cu       3.63034542       5.09457844      20.15733131        1       0.00000000      -0.00181489      -0.00140285       0.13218802      -0.00073784       0.00237801       0.15095227       0.00029889      -0.00395524      -0.10485607
Cu      -0.00031859       7.66057283      20.16486058        1       0.00000000       0.00052753       0.01114836       0.14091562       0.00107813      -0.00824042       0.14191859       0.00815884       0.09977149       0.10829814
Cu       3.63093766       7.65609793      20.15646915        1       0.00000000       0.00112211       0.00204390       0.12885362      -0.00247488       0.01017545       0.13957748       0.00029249       0.01346585      -0.11076680
O        0.01104685       9.69053298      22.07461199        0       0.00000000      -0.00345965       0.04336526       0.03630335      -0.01425968       0.00745505       0.09225323      -0.00815971      -0.38938426       0.69785184
C        0.00296811       8.42435829      22.03639567        0       0.00000000      -0.00435059       0.01247571       0.06384633      -0.00531185       0.03312714       0.05630851       0.01237488      -0.01123568       0.32475367
O       -0.00551572       7.54526058      22.90010871        0       0.00000000      -0.00944901       0.02509696       0.04209048      -0.01051393       0.00795903       0.04083524      -0.03804075       0.03876993       0.22529357
H        0.07248491       5.87867652      22.59491366        0       0.00000000       0.02162900       0.04418787      -0.00402138       0.02874298      -0.00785534       0.01051588      -0.00197790      -0.01687986      -0.56855662
O        0.14279878       4.94380432      22.23954275        0       0.50000000      -0.00471081      -0.02660276       0.00860064      -0.00020488      -0.01686346       0.03976009      -0.01277315       0.15861985       0.00987080
H       -0.61325135       4.44223601      22.59119757        0       0.50000000      -0.02643163       0.00980307      -0.00197003      -0.03603079       0.02690367       0.01870782      -0.02040174       0.02347941       0.08329647
62
Lattice="7.26 0.0 0.0 0.0 10.26719046282867 0.0 0.0 0.0 30.392" Properties=species:S:1:pos:R:3:tags:I:1:initial_magmoms:R:1:MACE_forces:R:3:forces:R:3:DFT_forces:R:3 MACE_energy=-252.11161337516097 energy=-252.087500241033 stress="0.0044975561111709125 8.810443933857045e-07 0.00010728813243967474 8.810443933857045e-07 0.006489355393789003 -5.9733471431731176e-05 0.00010728813243967474 -5.9733471431731176e-05 -0.0008584545804065417" free_energy=-252.087500241033 DFT_energy=-257.59413834 pbc="T T T"
Cu       0.00033949      -0.00174187      12.59832408        7       0.00000000       0.00000000       0.00000000       0.00000000      -0.00070913       0.00998676       0.41835467       0.00001678       0.02045766       0.67530248
Cu       3.62961954      -0.00066879      12.59861168        7       0.00000000       0.00000000       0.00000000       0.00000000       0.00090900       0.00364844       0.41590338       0.00022343      -0.00748537       0.67264318
Cu       0.00101862       2.56771771      12.59716078        7       0.00000000       0.00000000       0.00000000       0.00000000      -0.00267556      -0.00613596       0.41962782      -0.00336933      -0.00583890       0.67711621
Cu       3.62969450       2.56712490      12.59897555        7       0.00000000       0.00000000       0.00000000       0.00000000       0.00042427      -0.00121001       0.41446946       0.00116214      -0.00226469       0.66292644
Cu      -0.00047342       5.13341180      12.59689367        7       0.00000000       0.00000000       0.00000000       0.00000000       0.00153747       0.00294579       0.42343874       0.00342135      -0.01380219       0.67883281
Cu       3.62881816       5.13439800      12.59935624        7       0.00000000       0.00000000       0.00000000       0.00000000       0.00315459      -0.00237382       0.41353843       0.00434286       0.00941473       0.67622373
Cu      -0.00007115       7.70138433      12.59836164        7       0.00000000       0.00000000       0.00000000       0.00000000       0.00019302      -0.00676376       0.41725205       0.00168906       0.00218170       0.68318975
Cu       3.62936263       7.70074990      12.59953804        7       0.00000000       0.00000000       0.00000000       0.00000000       0.00153043      -0.00113798       0.41318645       0.00120089       0.00279890       0.65488125
Cu       1.81500000       1.28339881      13.89700000        6       0.00000000       0.00000000       0.00000000       0.00000000      -0.00246142      -0.00126101      -0.17829908      -0.00128497       0.01280311      -0.17894613
Cu       5.44500000       1.28339881      13.89700000        6       0.00000000       0.00000000       0.00000000       0.00000000       0.00331907      -0.00088895      -0.18028805       0.00227114       0.01641016      -0.17890473
Cu       1.81500000       3.85019642      13.89700000        6       0.00000000       0.00000000       0.00000000       0.00000000      -0.00313913       0.00194142      -0.17643421      -0.01236809      -0.01178277      -0.17632291
Cu       5.44500000       3.85019642      13.89700000        6       0.00000000       0.00000000       0.00000000       0.00000000       0.00203186       0.00138981      -0.17817199       0.01203208      -0.01151779      -0.17693497
Cu       1.81500000       6.41699404      13.89700000        6       0.00000000       0.00000000       0.00000000       0.00000000      -0.00581862      -0.00059563      -0.17377469       0.00433649      -0.00557783      -0.16109588
Cu       5.44500000       6.41699404      13.89700000        6       0.00000000       0.00000000       0.00000000       0.00000000       0.00297185      -0.00069911      -0.17500980      -0.00838172      -0.00612111      -0.15998108
Cu       1.81500000       8.98379165      13.89700000        6       0.00000000       0.00000000       0.00000000       0.00000000      -0.00154084       0.00053551      -0.17360904       0.00885234       0.00612013      -0.16375768
Cu       5.44500000       8.98379165      13.89700000        6       0.00000000       0.00000000       0.00000000       0.00000000       0.00066255       0.00081423      -0.17500788      -0.00890697       0.00411696      -0.16207649
Cu       0.00000000       0.00000000      15.19600000        5       0.00000000       0.00000000       0.00000000       0.00000000       0.00021243       0.00059097      -0.19187055       0.00125075       0.02803906      -0.06672696
Cu       3.63000000       0.00000000      15.19600000        5       0.00000000       0.00000000       0.00000000       0.00000000      -0.00011050      -0.00014670      -0.25461776      -0.00003583      -0.00645387      -0.14470872
Cu       0.00000000       2.56679762      15.19600000        5       0.00000000       0.00000000       0.00000000       0.00000000       0.00004872       0.00014753      -0.29541027       0.00079407      -0.00281563      -0.14846992
Cu       3.63000000       2.56679762      15.19600000        5       0.00000000       0.00000000       0.00000000       0.00000000       0.00017466       0.00025569      -0.25507050      -0.00061465       0.00512941      -0.17259310
Cu       0.00000000       5.13359523      15.19600000        5       0.00000000       0.00000000       0.00000000       0.00000000      -0.00014161       0.00110793      -0.17818187      -0.00024776      -0.01470360      -0.04455876
Cu       3.63000000       5.13359523      15.19600000        5       0.00000000       0.00000000       0.00000000       0.00000000       0.00023213       0.00097673      -0.24605226       0.00026584       0.01466066      -0.11426847
Cu       0.00000000       7.70039285      15.19600000        5       0.00000000       0.00000000       0.00000000       0.00000000       0.00009970      -0.00048701      -0.23835327       0.00025690      -0.00021949      -0.14610946
Cu       3.63000000       7.70039285      15.19600000        5       0.00000000       0.00000000       0.00000000       0.00000000       0.00008192      -0.00093302      -0.24174196      -0.00016889      -0.00317253      -0.13384948
Cu       1.81500000       1.28339881      16.49500000        4       0.00000000       0.00000000       0.00000000       0.00000000      -0.00133813      -0.02138125      -0.37622213      -0.00813049      -0.01612143      -0.42818106
Cu       5.44500000       1.28339881      16.49500000        4       0.00000000       0.00000000       0.00000000       0.00000000       0.01010472      -0.02531666      -0.37865269       0.01017136      -0.01792557      -0.42568619
Cu       1.81500000       3.85019642      16.49500000        4       0.00000000       0.00000000       0.00000000       0.00000000      -0.00567597       0.02575148      -0.38429260      -0.01256699      -0.02767194      -0.42467756
Cu       5.44500000       3.85019642      16.49500000        4       0.00000000       0.00000000       0.00000000       0.00000000       0.01670741       0.02755879      -0.36921811       0.01749437      -0.02811380      -0.40684426
Cu       1.81500000       6.41699404      16.49500000        4       0.00000000       0.00000000       0.00000000       0.00000000      -0.02339864      -0.01711700      -0.35815562      -0.03354440      -0.02175497      -0.38129296
Cu       5.44500000       6.41699404      16.49500000        4       0.00000000       0.00000000       0.00000000       0.00000000       0.03455620      -0.01750500      -0.34866026       0.03780346      -0.02310914      -0.36965703
Cu       1.81500000       8.98379165      16.49500000        4       0.00000000       0.00000000       0.00000000       0.00000000      -0.01901416       0.00243212      -0.37367758      -0.03274113      -0.03104040      -0.40163284
Cu       5.44500000       8.98379165      16.49500000        4       0.00000000       0.00000000       0.00000000       0.00000000       0.02800231       0.00537876      -0.37882485       0.03723611      -0.02998015      -0.40256018
Cu       0.00016000      -0.01524897      17.73140461        3       0.00000000      -0.00022223       0.00473116       0.05213751      -0.00010231       0.00503394       0.07309809      -0.00006189       0.00936752       0.10492181
Cu       3.63058306      -0.01419018      17.69311737        3       0.00000000      -0.00037682       0.00366072       0.07131451      -0.00000088       0.00981996       0.07368551       0.00080037       0.01323554       0.09081510
Cu      -0.00028422       2.55501136      17.67872218        3       0.00000000      -0.00010037       0.00262378       0.06750391       0.00022094       0.00741686       0.06788930       0.00144799      -0.02350616       0.09724612
Cu       3.63164302       2.55424904      17.69485238        3       0.00000000       0.00111653      -0.00041128       0.06902556      -0.00022450      -0.00386054       0.08323682      -0.00142404      -0.00325073       0.05766013
Cu       0.00038893       5.11699622      17.73940799        3       0.00000000       0.00074707      -0.00051517       0.04832825      -0.00004810       0.00054276       0.06794487       0.00116720       0.02424430       0.13834354
Cu       3.63119440       5.12038882      17.69613372        3       0.00000000       0.00201115      -0.00010651       0.06886776       0.00042705      -0.00088652       0.07532795      -0.00206825      -0.02380427       0.05983157
Cu      -0.00013781       7.68366887      17.70303604        3       0.00000000      -0.00011659       0.00206433       0.05307859       0.00040345       0.00131056       0.05151725       0.00076825      -0.00139707       0.03188115
Cu       3.63117726       7.68218492      17.69697115        3       0.00000000       0.00129004       0.00167517       0.06334842      -0.00011202       0.00449470       0.06832870       0.00124114      -0.02379975       0.04346628
Cu       1.82390076       1.24594349      18.99927415        2       0.00000000       0.00478748       0.00577744       0.11912518       0.00353755       0.00049239       0.13416602      -0.00715044       0.07668301      -0.02313402
Cu       5.43746942       1.24576012      19.00082075        2       0.00000000      -0.00495113       0.00649817       0.11823049      -0.00390571       0.00180217       0.13225739       0.00977838       0.07721246      -0.01783708
Cu       1.81980373       3.82097416      18.99597265        2       0.00000000       0.00881980      -0.00633173       0.11156632       0.00266902      -0.00525274       0.12782357       0.01581238      -0.05292885      -0.01024781
Cu       5.44483266       3.82347886      19.00338503        2       0.00000000      -0.00628162      -0.00504912       0.11323551      -0.00206751      -0.00569652       0.12701125      -0.01904263      -0.05950811       0.01315361
Cu       1.81195817       6.37836225      19.00235823        2       0.00000000       0.00993361       0.00209862       0.10414027       0.02046726      -0.00372950       0.11040127       0.01062926       0.06813657      -0.00822393
Cu       5.45220588       6.37520289      19.00778088        2       0.00000000      -0.00753926       0.00133776       0.10704100      -0.02034143      -0.00276807       0.10916709      -0.00997196       0.06950320      -0.01187851
Cu       1.82336654       8.95421169      18.98934546        2       0.00000000       0.00557921       0.00436368       0.10934928       0.00851408      -0.00058847       0.11826583       0.03669397      -0.07278507      -0.01725376
Cu       5.43813045       8.95469315      18.99039903        2       0.00000000      -0.00592448       0.00480485       0.10865999      -0.00849401      -0.00173539       0.11645568      -0.03879190      -0.07229506      -0.01648454
Cu       0.00297247      -0.00051955      20.21560667        1       0.00000000      -0.00179674      -0.00390670       0.14290085      -0.00121756      -0.01747399       0.14026274      -0.00174014       0.17883400      -0.42572042
Cu       3.62980162      -0.04203604      20.15914213        1       0.00000000       0.00016796       0.00924421       0.13834799      -0.00028584       0.01481363       0.14096840       0.00022297       0.03213652      -0.12183134
Cu       0.00049484       2.51146294      20.10188714        1       0.00000000       0.00096248      -0.00108513       0.13465088       0.00126239      -0.01583875       0.14775614       0.00668273       0.01561117      -0.02341656
Cu       3.63000840       2.53341534      20.15410275        1       0.00000000      -0.00000779      -0.00090971       0.14280775      -0.00085552      -0.00122332       0.15095710       0.00821855       0.00600910      -0.06325516
Cu       0.00816511       5.06117676      20.24487602        1       0.00000000       0.00277163      -0.01392432       0.12316989      -0.00106420      -0.02322139       0.13647589       0.02184237       0.01913859      -0.38986731
Cu       3.63031774       5.09677845      20.15673866        1       0.00000000      -0.00176529      -0.00117837       0.13331158      -0.00073784       0.00237801       0.15095227       0.00029893      -0.00342284      -0.10390004
Cu      -0.00026249       7.66409402      20.16421238        1       0.00000000       0.00051127       0.00997450       0.14008732       0.00107813      -0.00824042       0.14191859       0.00745537       0.09481253       0.10794135
Cu       3.63115830       7.65811884      20.15612488        1       0.00000000       0.00091778       0.00250918       0.12940448      -0.00247488       0.01017545       0.13957748      -0.00082592       0.01298055      -0.11077513
O        0.00852291       9.69503795      22.07329158        0       0.00000000      -0.00390850       0.04699417       0.03876426      -0.01425968       0.00745505       0.09225323      -0.00983718      -0.38651385       0.70381064
C       -0.00341390       8.42895371      22.03506410        0       0.00000000      -0.00446316       0.00939011       0.06506157      -0.00531185       0.03312714       0.05630851       0.01125467      -0.01132348       0.32591123
O       -0.01863798       7.55002099      22.89885129        0       0.00000000      -0.00980492       0.02434821       0.04337146      -0.01051393       0.00795903       0.04083524      -0.03503093       0.03356292       0.22673313
H        0.06604371       5.88431272      22.59304265        0       0.00000000       0.02312079       0.04980859      -0.00151376       0.02874298      -0.00785534       0.01051588       0.00292132      -0.01816537      -0.56652125
O        0.14389837       4.95014530      22.23778508        0       0.50000000      -0.00336003      -0.03299018       0.00887793      -0.00020488      -0.01686346       0.03976009      -0.01104109       0.16503458       0.01257132
H       -0.60768338       4.44225366      22.58976105        0       0.50000000      -0.02879507       0.00726148      -0.00090250      -0.03603079       0.02690367       0.01870782      -0.02270968       0.02153868       0.08478087
62
Lattice="7.26 0.0 0.0 0.0 10.26719046282867 0.0 0.0 0.0 30.392" Properties=species:S:1:pos:R:3:tags:I:1:initial_magmoms:R:1:MACE_forces:R:3:forces:R:3:DFT_forces:R:3 MACE_energy=-252.11050292596855 energy=-252.087500241033 stress="0.0044975561111709125 8.810443933857045e-07 0.00010728813243967474 8.810443933857045e-07 0.006489355393789003 -5.9733471431731176e-05 0.00010728813243967474 -5.9733471431731176e-05 -0.0008584545804065417" free_energy=-252.087500241033 DFT_energy=-257.59409247 pbc="T T T"
Cu       0.00033949      -0.00174187      12.59832408        7       0.00000000       0.00000000       0.00000000       0.00000000      -0.00070913       0.00998676       0.41835467      -0.00001673       0.02038089       0.67521417
Cu       3.62961954      -0.00066879      12.59861168        7       0.00000000       0.00000000       0.00000000       0.00000000       0.00090900       0.00364844       0.41590338       0.00019309      -0.00749221       0.67255596
Cu       0.00101862       2.56771771      12.59716078        7       0.00000000       0.00000000       0.00000000       0.00000000      -0.00267556      -0.00613596       0.41962782      -0.00338542      -0.00593036       0.67707067
Cu       3.62969450       2.56712490      12.59897555        7       0.00000000       0.00000000       0.00000000       0.00000000       0.00042427      -0.00121001       0.41446946       0.00107369      -0.00234093       0.66282797
Cu      -0.00047342       5.13341180      12.59689367        7       0.00000000       0.00000000       0.00000000       0.00000000       0.00153747       0.00294579       0.42343874       0.00345801      -0.01374561       0.67874352
Cu       3.62881816       5.13439800      12.59935624        7       0.00000000       0.00000000       0.00000000       0.00000000       0.00315459      -0.00237382       0.41353843       0.00431693       0.00931467       0.67621845
Cu      -0.00007115       7.70138433      12.59836164        7       0.00000000       0.00000000       0.00000000       0.00000000       0.00019302      -0.00676376       0.41725205       0.00182348       0.00203971       0.68310318
Cu       3.62936263       7.70074990      12.59953804        7       0.00000000       0.00000000       0.00000000       0.00000000       0.00153043      -0.00113798       0.41318645       0.00111873       0.00275828       0.65480883
Cu       1.81500000       1.28339881      13.89700000        6       0.00000000       0.00000000       0.00000000       0.00000000      -0.00246142      -0.00126101      -0.17829908      -0.00120582       0.01270221      -0.17909374
Cu       5.44500000       1.28339881      13.89700000        6       0.00000000       0.00000000       0.00000000       0.00000000       0.00331907      -0.00088895      -0.18028805       0.00225983       0.01634412      -0.17902129
Cu       1.81500000       3.85019642      13.89700000        6       0.00000000       0.00000000       0.00000000       0.00000000      -0.00313913       0.00194142      -0.17643421      -0.01235548      -0.01199236      -0.17656239
Cu       5.44500000       3.85019642      13.89700000        6       0.00000000       0.00000000       0.00000000       0.00000000       0.00203186       0.00138981      -0.17817199       0.01201712      -0.01154572      -0.17711755
Cu       1.81500000       6.41699404      13.89700000        6       0.00000000       0.00000000       0.00000000       0.00000000      -0.00581862      -0.00059563      -0.17377469       0.00425977      -0.00549441      -0.16128179
Cu       5.44500000       6.41699404      13.89700000        6       0.00000000       0.00000000       0.00000000       0.00000000       0.00297185      -0.00069911      -0.17500980      -0.00839849      -0.00625772      -0.16015133
Cu       1.81500000       8.98379165      13.89700000        6       0.00000000       0.00000000       0.00000000       0.00000000      -0.00154084       0.00053551      -0.17360904       0.00889236       0.00600281      -0.16407202
Cu       5.44500000       8.98379165      13.89700000        6       0.00000000       0.00000000       0.00000000       0.00000000       0.00066255       0.00081423      -0.17500788      -0.00899296       0.00399859      -0.16221398
Cu       0.00000000       0.00000000      15.19600000        5       0.00000000       0.00000000       0.00000000       0.00000000       0.00021243       0.00059097      -0.19187055       0.00126975       0.02786813      -0.06828170
Cu       3.63000000       0.00000000      15.19600000        5       0.00000000       0.00000000       0.00000000       0.00000000      -0.00011050      -0.00014670      -0.25461776      -0.00012678      -0.00651954      -0.14542244
Cu       0.00000000       2.56679762      15.19600000        5       0.00000000       0.00000000       0.00000000       0.00000000       0.00004872       0.00014753      -0.29541027       0.00070934      -0.00308205      -0.14924150
Cu       3.63000000       2.56679762      15.19600000        5       0.00000000       0.00000000       0.00000000       0.00000000       0.00017466       0.00025569      -0.25507050      -0.00058230       0.00506158      -0.17364201
Cu       0.00000000       5.13359523      15.19600000        5       0.00000000       0.00000000       0.00000000       0.00000000      -0.00014161       0.00110793      -0.17818187      -0.00041970      -0.01473768      -0.04602305
Cu       3.63000000       5.13359523      15.19600000        5       0.00000000       0.00000000       0.00000000       0.00000000       0.00023213       0.00097673      -0.24605226       0.00031512       0.01446810      -0.11513170
Cu       0.00000000       7.70039285      15.19600000        5       0.00000000       0.00000000       0.00000000       0.00000000       0.00009970      -0.00048701      -0.23835327       0.00027057      -0.00044930      -0.14669521
Cu       3.63000000       7.70039285      15.19600000        5       0.00000000       0.00000000       0.00000000       0.00000000       0.00008192      -0.00093302      -0.24174196      -0.00017255      -0.00346448      -0.13448584
Cu       1.81500000       1.28339881      16.49500000        4       0.00000000       0.00000000       0.00000000       0.00000000      -0.00133813      -0.02138125      -0.37622213      -0.00753069      -0.01469548      -0.42995390
Cu       5.44500000       1.28339881      16.49500000        4       0.00000000       0.00000000       0.00000000       0.00000000       0.01010472      -0.02531666      -0.37865269       0.01014418      -0.01656274      -0.42763126
Cu       1.81500000       3.85019642      16.49500000        4       0.00000000       0.00000000       0.00000000       0.00000000      -0.00567597       0.02575148      -0.38429260      -0.01217131      -0.02647207      -0.42693965
Cu       5.44500000       3.85019642      16.49500000        4       0.00000000       0.00000000       0.00000000       0.00000000       0.01670741       0.02755879      -0.36921811       0.01776114      -0.02688544      -0.40898802
Cu       1.81500000       6.41699404      16.49500000        4       0.00000000       0.00000000       0.00000000       0.00000000      -0.02339864      -0.01711700      -0.35815562      -0.03330012      -0.02014125      -0.38317725
Cu       5.44500000       6.41699404      16.49500000        4       0.00000000       0.00000000       0.00000000       0.00000000       0.03455620      -0.01750500      -0.34866026       0.03795628      -0.02141830      -0.37127485
Cu       1.81500000       8.98379165      16.49500000        4       0.00000000       0.00000000       0.00000000       0.00000000      -0.01901416       0.00243212      -0.37367758      -0.03222693      -0.03003327      -0.40342241
Cu       5.44500000       8.98379165      16.49500000        4       0.00000000       0.00000000       0.00000000       0.00000000       0.02800231       0.00537876      -0.37882485       0.03697272      -0.02889284      -0.40422218
Cu       0.00020413      -0.01442044      17.73080268        3       0.00000000      -0.00020922       0.00482507       0.05338439      -0.00010231       0.00503394       0.07309809      -0.00008590       0.01006269       0.10653715
Cu       3.63060894      -0.01338046      17.69291467        3       0.00000000      -0.00035441       0.00399608       0.07145636      -0.00000088       0.00981996       0.07368551       0.00078966       0.01394577       0.09105918
Cu      -0.00026134       2.55571927      17.67846445        3       0.00000000      -0.00008368       0.00293046       0.06751957       0.00022094       0.00741686       0.06788930       0.00119979      -0.02308012       0.09747669
Cu       3.63171048       2.55516620      17.69446287        3       0.00000000       0.00104345      -0.00061265       0.06987046      -0.00022450      -0.00386054       0.08323682      -0.00146422      -0.00273981       0.05872784
Cu       0.00045165       5.11780474      17.73876408        3       0.00000000       0.00070915      -0.00038924       0.04954844      -0.00004810       0.00054276       0.06794487       0.00118485       0.02432544       0.14022005
Cu       3.63125656       5.12134354      17.69579854        3       0.00000000       0.00190727      -0.00015743       0.06928631       0.00042705      -0.00088652       0.07532795      -0.00223514      -0.02362143       0.06021516
Cu      -0.00011709       7.68453076      17.70277865        3       0.00000000      -0.00007342       0.00201432       0.05295982       0.00040345       0.00131056       0.05151725       0.00091655      -0.00153753       0.03185470
Cu       3.63125568       7.68300302      17.69676018        3       0.00000000       0.00118862       0.00185011       0.06364072      -0.00011202       0.00449470       0.06832870       0.00108618      -0.02364449       0.04345336
Cu       1.82411559       1.24806967      18.99880138        2       0.00000000       0.00462490       0.00544757       0.12003483       0.00353755       0.00049239       0.13416602      -0.00793751       0.07592142      -0.02133121
Cu       5.43743075       1.24788802      19.00029840        2       0.00000000      -0.00481613       0.00620868       0.11907475      -0.00390571       0.00180217       0.13225739       0.00979190       0.07667793      -0.01644727
Cu       1.82008476       3.82293700      18.99543542        2       0.00000000       0.00848151      -0.00629789       0.11250271       0.00266902      -0.00525274       0.12782357       0.01483038      -0.05456156      -0.00941818
Cu       5.44479530       3.82555399      19.00299040        2       0.00000000      -0.00603200      -0.00511322       0.11408177      -0.00206751      -0.00569652       0.12701125      -0.01858076      -0.05992680       0.01392927
Cu       1.81191486       6.38060716      19.00196101        2       0.00000000       0.01052756       0.00164880       0.10448699       0.02046726      -0.00372950       0.11040127       0.01093578       0.06797026      -0.00796292
Cu       5.45247961       6.37721503      19.00746589        2       0.00000000      -0.00829365       0.00101470       0.10714500      -0.02034143      -0.00276807       0.10916709      -0.01108460       0.06839851      -0.01125416
Cu       1.82358350       8.95632869      18.98907484        2       0.00000000       0.00577062       0.00404135       0.10990677       0.00851408      -0.00058847       0.11826583       0.03652043      -0.07360295      -0.01635169
Cu       5.43808955       8.95678772      18.99002578        2       0.00000000      -0.00610586       0.00441269       0.10911912      -0.00849401      -0.00173539       0.11645568      -0.03858811      -0.07414863      -0.01544673
Cu       0.00322645       0.00291136      20.21445593        1       0.00000000      -0.00183285      -0.00444629       0.14241333      -0.00121756      -0.01747399       0.14026274      -0.00096927       0.17981059      -0.42706247
Cu       3.62992523      -0.03988966      20.15893213        1       0.00000000       0.00015803       0.00954676       0.13858368      -0.00028584       0.01481363       0.14096840      -0.00018410       0.03117814      -0.12142599
Cu       0.00056815       2.51466950      20.10137941        1       0.00000000       0.00094916      -0.00206702       0.13539185       0.00126239      -0.01583875       0.14775614       0.00645706       0.01454843      -0.02322897
Cu       3.63013680       2.53559040      20.15372322        1       0.00000000      -0.00006466      -0.00091657       0.14336359      -0.00085552      -0.00122332       0.15095710       0.00852257       0.00405074      -0.06362056
Cu       0.00865008       5.06431341      20.24369888        1       0.00000000       0.00250714      -0.01451847       0.12364162      -0.00106420      -0.02322139       0.13647589       0.02221139       0.01932103      -0.39064909
Cu       3.63029010       5.09897814      20.15614606        1       0.00000000      -0.00171479      -0.00095647       0.13443240      -0.00073784       0.00237801       0.15095227       0.00012098      -0.00527896      -0.10270734
Cu      -0.00020624       7.66761501      20.16356628        1       0.00000000       0.00050824       0.00881391       0.13938048       0.00107813      -0.00824042       0.14191859       0.00677611       0.09078185       0.10762231
Cu       3.63137893       7.66013947      20.15578075        1       0.00000000       0.00071389       0.00297412       0.12996789      -0.00247488       0.01017545       0.13957748      -0.00170480       0.01245222      -0.11114828
O        0.00599963       9.69953340      22.07197372        0       0.00000000      -0.00433895       0.04994350       0.04129194      -0.01425968       0.00745505       0.09225323      -0.01314650      -0.38423379       0.70911855
C       -0.00979460       8.43353876      22.03374357        0       0.00000000      -0.00460652       0.00678649       0.06611757      -0.00531185       0.03312714       0.05630851       0.00870161      -0.01168479       0.32735937
O       -0.03175950       7.55479621      22.89757803        0       0.00000000      -0.01015777       0.02358150       0.04444406      -0.01051393       0.00795903       0.04083524      -0.03434392       0.03056465       0.22884003
H        0.05960130       5.88993099      22.59116620        0       0.00000000       0.02434230       0.05437166       0.00078618       0.02874298      -0.00785534       0.01051588       0.01064772      -0.01462194      -0.56626207
O        0.14497445       4.95648966      22.23604324        0       0.50000000      -0.00208839      -0.03852791       0.00937471      -0.00020488      -0.01686346       0.03976009      -0.00953201       0.16990728       0.01493029
H       -0.60209090       4.44228708      22.58831467        0       0.50000000      -0.03083601       0.00515694       0.00016546      -0.03603079       0.02690367       0.01870782      -0.02476294       0.01998056       0.08647727
62
Lattice="7.26 0.0 0.0 0.0 10.26719046282867 0.0 0.0 0.0 30.392" Properties=species:S:1:pos:R:3:tags:I:1:initial_magmoms:R:1:MACE_forces:R:3:forces:R:3:DFT_forces:R:3 MACE_energy=-252.10933744819462 energy=-252.087500241033 stress="0.0044975561111709125 8.810443933857045e-07 0.00010728813243967474 8.810443933857045e-07 0.006489355393789003 -5.9733471431731176e-05 0.00010728813243967474 -5.9733471431731176e-05 -0.0008584545804065417" free_energy=-252.087500241033 DFT_energy=-257.59394311 pbc="T T T"
Cu       0.00033949      -0.00174187      12.59832408        7       0.00000000       0.00000000       0.00000000       0.00000000      -0.00070913       0.00998676       0.41835467       0.00001688       0.02051715       0.67520102
Cu       3.62961954      -0.00066879      12.59861168        7       0.00000000       0.00000000       0.00000000       0.00000000       0.00090900       0.00364844       0.41590338       0.00023169      -0.00727265       0.67252411
Cu       0.00101862       2.56771771      12.59716078        7       0.00000000       0.00000000       0.00000000       0.00000000      -0.00267556      -0.00613596       0.41962782      -0.00333322      -0.00578198       0.67712390
Cu       3.62969450       2.56712490      12.59897555        7       0.00000000       0.00000000       0.00000000       0.00000000       0.00042427      -0.00121001       0.41446946       0.00105487      -0.00218520       0.66276563
Cu      -0.00047342       5.13341180      12.59689367        7       0.00000000       0.00000000       0.00000000       0.00000000       0.00153747       0.00294579       0.42343874       0.00356152      -0.01343961       0.67873455
Cu       3.62881816       5.13439800      12.59935624        7       0.00000000       0.00000000       0.00000000       0.00000000       0.00315459      -0.00237382       0.41353843       0.00436037       0.00944042       0.67629403
Cu      -0.00007115       7.70138433      12.59836164        7       0.00000000       0.00000000       0.00000000       0.00000000       0.00019302      -0.00676376       0.41725205       0.00201956       0.00213321       0.68310316
Cu       3.62936263       7.70074990      12.59953804        7       0.00000000       0.00000000       0.00000000       0.00000000       0.00153043      -0.00113798       0.41318645       0.00110855       0.00294588       0.65480858
Cu       1.81500000       1.28339881      13.89700000        6       0.00000000       0.00000000       0.00000000       0.00000000      -0.00246142      -0.00126101      -0.17829908      -0.00105763       0.01282773      -0.17916015
Cu       5.44500000       1.28339881      13.89700000        6       0.00000000       0.00000000       0.00000000       0.00000000       0.00331907      -0.00088895      -0.18028805       0.00231774       0.01650468      -0.17905625
Cu       1.81500000       3.85019642      13.89700000        6       0.00000000       0.00000000       0.00000000       0.00000000      -0.00313913       0.00194142      -0.17643421      -0.01226935      -0.01196386      -0.17671517
Cu       5.44500000       3.85019642      13.89700000        6       0.00000000       0.00000000       0.00000000       0.00000000       0.00203186       0.00138981      -0.17817199       0.01207237      -0.01134382      -0.17721565
Cu       1.81500000       6.41699404      13.89700000        6       0.00000000       0.00000000       0.00000000       0.00000000      -0.00581862      -0.00059563      -0.17377469       0.00424792      -0.00518644      -0.16137738
Cu       5.44500000       6.41699404      13.89700000        6       0.00000000       0.00000000       0.00000000       0.00000000       0.00297185      -0.00069911      -0.17500980      -0.00833971      -0.00617196      -0.16022936
Cu       1.81500000       8.98379165      13.89700000        6       0.00000000       0.00000000       0.00000000       0.00000000      -0.00154084       0.00053551      -0.17360904       0.00900128       0.00612015      -0.16430630
Cu       5.44500000       8.98379165      13.89700000        6       0.00000000       0.00000000       0.00000000       0.00000000       0.00066255       0.00081423      -0.17500788      -0.00900809       0.00411635      -0.16226179
Cu       0.00000000       0.00000000      15.19600000        5       0.00000000       0.00000000       0.00000000       0.00000000       0.00021243       0.00059097      -0.19187055       0.00136048       0.02792890      -0.06976230
Cu       3.63000000       0.00000000      15.19600000        5       0.00000000       0.00000000       0.00000000       0.00000000      -0.00011050      -0.00014670      -0.25461776      -0.00014893      -0.00635439      -0.14605954
Cu       0.00000000       2.56679762      15.19600000        5       0.00000000       0.00000000       0.00000000       0.00000000       0.00004872       0.00014753      -0.29541027       0.00069446      -0.00312435      -0.14992792
Cu       3.63000000       2.56679762      15.19600000        5       0.00000000       0.00000000       0.00000000       0.00000000       0.00017466       0.00025569      -0.25507050      -0.00047966       0.00522605      -0.17461094
Cu       0.00000000       5.13359523      15.19600000        5       0.00000000       0.00000000       0.00000000       0.00000000      -0.00014161       0.00110793      -0.17818187      -0.00052180      -0.01455270      -0.04741147
Cu       3.63000000       5.13359523      15.19600000        5       0.00000000       0.00000000       0.00000000       0.00000000       0.00023213       0.00097673      -0.24605226       0.00043539       0.01450719      -0.11592290
Cu       0.00000000       7.70039285      15.19600000        5       0.00000000       0.00000000       0.00000000       0.00000000       0.00009970      -0.00048701      -0.23835327       0.00036068      -0.00044302      -0.14721284
Cu       3.63000000       7.70039285      15.19600000        5       0.00000000       0.00000000       0.00000000       0.00000000       0.00008192      -0.00093302      -0.24174196      -0.00011034      -0.00353217      -0.13506471
Cu       1.81500000       1.28339881      16.49500000        4       0.00000000       0.00000000       0.00000000       0.00000000      -0.00133813      -0.02138125      -0.37622213      -0.00686189      -0.01303277      -0.43165100
Cu       5.44500000       1.28339881      16.49500000        4       0.00000000       0.00000000       0.00000000       0.00000000       0.01010472      -0.02531666      -0.37865269       0.01018635      -0.01496592      -0.42949660
Cu       1.81500000       3.85019642      16.49500000        4       0.00000000       0.00000000       0.00000000       0.00000000      -0.00567597       0.02575148      -0.38429260      -0.01170909      -0.02503675      -0.42911978
Cu       5.44500000       3.85019642      16.49500000        4       0.00000000       0.00000000       0.00000000       0.00000000       0.01670741       0.02755879      -0.36921811       0.01810010      -0.02542100      -0.41104908
Cu       1.81500000       6.41699404      16.49500000        4       0.00000000       0.00000000       0.00000000       0.00000000      -0.02339864      -0.01711700      -0.35815562      -0.03298677      -0.01829839      -0.38498819
Cu       5.44500000       6.41699404      16.49500000        4       0.00000000       0.00000000       0.00000000       0.00000000       0.03455620      -0.01750500      -0.34866026       0.03818287      -0.01949494      -0.37281692
Cu       1.81500000       8.98379165      16.49500000        4       0.00000000       0.00000000       0.00000000       0.00000000      -0.01901416       0.00243212      -0.37367758      -0.03164332      -0.02879390      -0.40513306
Cu       5.44500000       8.98379165      16.49500000        4       0.00000000       0.00000000       0.00000000       0.00000000       0.02800231       0.00537876      -0.37882485       0.03678034      -0.02757342      -0.40580473
Cu       0.00024824      -0.01359209      17.73020085        3       0.00000000      -0.00019677       0.00490905       0.05463160      -0.00010231       0.00503394       0.07309809       0.00029475       0.01069124       0.10796841
Cu       3.63063482      -0.01257080      17.69271198        3       0.00000000      -0.00033203       0.00433387       0.07159705      -0.00000088       0.00981996       0.07368551       0.00113578       0.01411483       0.09148322
Cu      -0.00023847       2.55642707      17.67820678        3       0.00000000      -0.00006654       0.00323279       0.06753922       0.00022094       0.00741686       0.06788930       0.00108021      -0.02259482       0.09767555
Cu       3.63177793       2.55608326      17.69407341        3       0.00000000       0.00096904      -0.00081321       0.07071569      -0.00022450      -0.00386054       0.08323682      -0.00163150      -0.00281639       0.05963629
Cu       0.00051435       5.11861311      17.73812027        3       0.00000000       0.00066973      -0.00027017       0.05076953      -0.00004810       0.00054276       0.06794487       0.00147941       0.02449660       0.14207683
Cu       3.63131873       5.12229814      17.69546337        3       0.00000000       0.00180387      -0.00020979       0.06970166       0.00042705      -0.00088652       0.07532795      -0.00203626      -0.02324554       0.06129377
Cu      -0.00009639       7.68539253      17.70252131        3       0.00000000      -0.00003167       0.00196330       0.05284889       0.00040345       0.00131056       0.05151725       0.00145178      -0.00183802       0.03201142
Cu       3.63133411       7.68382102      17.69654926        3       0.00000000       0.00108885       0.00202487       0.06393547      -0.00011202       0.00449470       0.06832870       0.00133366      -0.02335916       0.04403373
Cu       1.82433052       1.25019563      18.99832864        2       0.00000000       0.00447436       0.00511965       0.12094460       0.00353755       0.00049239       0.13416602      -0.00879874       0.07457274      -0.01995797
Cu       5.43739197       1.25001571      18.99977611        2       0.00000000      -0.00469119       0.00592059       0.11991965      -0.00390571       0.00180217       0.13225739       0.01000460       0.07551194      -0.01530890
Cu       1.82036574       3.82489965      18.99489831        2       0.00000000       0.00813824      -0.00625969       0.11344911       0.00266902      -0.00525274       0.12782357       0.01381236      -0.05475485      -0.00814279
Cu       5.44475796       3.82762894      19.00259584        2       0.00000000      -0.00578191      -0.00517430       0.11492924      -0.00206751      -0.00569652       0.12701125      -0.01797703      -0.06013338       0.01528394
Cu       1.81187166       6.38285193      19.00156382        2       0.00000000       0.01112590       0.00121000       0.10484037       0.02046726      -0.00372950       0.11040127       0.01144272       0.06724405      -0.00816851
Cu       5.45275325       6.37922702      19.00715096        2       0.00000000      -0.00905006       0.00070001       0.10725409      -0.02034143      -0.00276807       0.10916709      -0.01203137       0.06753615      -0.01091769
Cu       1.82380044       8.95844549      18.98880421        2       0.00000000       0.00596070       0.00372105       0.11046402       0.00851408      -0.00058847       0.11826583       0.03701083      -0.07484294      -0.01559231
Cu       5.43804867       8.95888206      18.98965259        2       0.00000000      -0.00628337       0.00401856       0.10958265      -0.00849401      -0.00173539       0.11645568      -0.03909336      -0.07489479      -0.01429847
Cu       0.00348053       0.00634168      20.21330539        1       0.00000000      -0.00185631      -0.00503462       0.14199747      -0.00121756      -0.01747399       0.14026274      -0.00023694       0.18185380      -0.42810861
Cu       3.63004881      -0.03774347      20.15872209        1       0.00000000       0.00014592       0.00985284       0.13881393      -0.00028584       0.01481363       0.14096840      -0.00071315       0.03156934      -0.12102923
Cu       0.00064149       2.51787586      20.10087186        1       0.00000000       0.00093945      -0.00303664       0.13614344       0.00126239      -0.01583875       0.14775614       0.00627905       0.01317182      -0.02241475
Cu       3.63026521       2.53776522      20.15334371        1       0.00000000      -0.00012099      -0.00092325       0.14391703      -0.00085552      -0.00122332       0.15095710       0.00855840       0.00340742      -0.06374784
Cu       0.00913497       5.06744984      20.24252250        1       0.00000000       0.00224664      -0.01510960       0.12416091      -0.00106420      -0.02322139       0.13647589       0.02199931       0.01996909      -0.39068456
Cu       3.63026249       5.10117756      20.15555351        1       0.00000000      -0.00166322      -0.00073717       0.13555051      -0.00073784       0.00237801       0.15095227       0.00035144      -0.00661222      -0.10213949
Cu      -0.00014985       7.67113589      20.16292225        1       0.00000000       0.00051692       0.00766653       0.13879522       0.00107813      -0.00824042       0.14191859       0.00653410       0.08769438       0.10804179
Cu       3.63159954       7.66215988      20.15543677        1       0.00000000       0.00051016       0.00343875       0.13054382      -0.00247488       0.01017545       0.13957748      -0.00198985       0.01306491      -0.11059750
O        0.00347685       9.70401942      22.07065836        0       0.00000000      -0.00475857       0.05221059       0.04388488      -0.01425968       0.00745505       0.09225323      -0.01724135      -0.38272280       0.71214719
C       -0.01617437       8.43811345      22.03243414        0       0.00000000      -0.00477423       0.00467875       0.06700373      -0.00531185       0.03312714       0.05630851       0.01017467      -0.01469185       0.32827815
O       -0.04488015       7.55958645      22.89628878        0       0.00000000      -0.01049989       0.02278442       0.04531811      -0.01051393       0.00795903       0.04083524      -0.03590272       0.02543777       0.22865323
H        0.05315797       5.89553133      22.58928422        0       0.00000000       0.02531969       0.05787299       0.00287970       0.02874298      -0.00785534       0.01051588       0.01167898      -0.01908113      -0.56702052
O        0.14602673       4.96283691      22.23431742        0       0.50000000      -0.00089103      -0.04320201       0.01007782      -0.00020488      -0.01686346       0.03976009      -0.00818313       0.17381903       0.01726091
H       -0.59647395       4.44233708      22.58685823        0       0.50000000      -0.03258961       0.00348155       0.00124504      -0.03603079       0.02690367       0.01870782      -0.02641029       0.01913430       0.08808374
62
Lattice="7.26 0.0 0.0 0.0 10.26719046282867 0.0 0.0 0.0 30.392" Properties=species:S:1:pos:R:3:tags:I:1:initial_magmoms:R:1:MACE_forces:R:3:forces:R:3:DFT_forces:R:3 MACE_energy=-252.1081182255309 energy=-252.087500241033 stress="0.0044975561111709125 8.810443933857045e-07 0.00010728813243967474 8.810443933857045e-07 0.006489355393789003 -5.9733471431731176e-05 0.00010728813243967474 -5.9733471431731176e-05 -0.0008584545804065417" free_energy=-252.087500241033 DFT_energy=-257.59367623 pbc="T T T"
Cu       0.00033949      -0.00174187      12.59832408        7       0.00000000       0.00000000       0.00000000       0.00000000      -0.00070913       0.00998676       0.41835467       0.00002750       0.02064883       0.67519030
Cu       3.62961954      -0.00066879      12.59861168        7       0.00000000       0.00000000       0.00000000       0.00000000       0.00090900       0.00364844       0.41590338       0.00024169      -0.00704734       0.67240250
Cu       0.00101862       2.56771771      12.59716078        7       0.00000000       0.00000000       0.00000000       0.00000000      -0.00267556      -0.00613596       0.41962782      -0.00331029      -0.00564099       0.67713864
Cu       3.62969450       2.56712490      12.59897555        7       0.00000000       0.00000000       0.00000000       0.00000000       0.00042427      -0.00121001       0.41446946       0.00100776      -0.00202977       0.66269241
Cu      -0.00047342       5.13341180      12.59689367        7       0.00000000       0.00000000       0.00000000       0.00000000       0.00153747       0.00294579       0.42343874       0.00363286      -0.01313830       0.67874886
Cu       3.62881816       5.13439800      12.59935624        7       0.00000000       0.00000000       0.00000000       0.00000000       0.00315459      -0.00237382       0.41353843       0.00437420       0.00955572       0.67632687
Cu      -0.00007115       7.70138433      12.59836164        7       0.00000000       0.00000000       0.00000000       0.00000000       0.00019302      -0.00676376       0.41725205       0.00218669       0.00221184       0.68327579
Cu       3.62936263       7.70074990      12.59953804        7       0.00000000       0.00000000       0.00000000       0.00000000       0.00153043      -0.00113798       0.41318645       0.00106871       0.00313705       0.65475002
Cu       1.81500000       1.28339881      13.89700000        6       0.00000000       0.00000000       0.00000000       0.00000000      -0.00246142      -0.00126101      -0.17829908      -0.00094305       0.01295067      -0.17924065
Cu       5.44500000       1.28339881      13.89700000        6       0.00000000       0.00000000       0.00000000       0.00000000       0.00331907      -0.00088895      -0.18028805       0.00235097       0.01666445      -0.17910535
Cu       1.81500000       3.85019642      13.89700000        6       0.00000000       0.00000000       0.00000000       0.00000000      -0.00313913       0.00194142      -0.17643421      -0.01221203      -0.01194528      -0.17689024
Cu       5.44500000       3.85019642      13.89700000        6       0.00000000       0.00000000       0.00000000       0.00000000       0.00203186       0.00138981      -0.17817199       0.01209659      -0.01115206      -0.17733086
Cu       1.81500000       6.41699404      13.89700000        6       0.00000000       0.00000000       0.00000000       0.00000000      -0.00581862      -0.00059563      -0.17377469       0.00421403      -0.00487238      -0.16150848
Cu       5.44500000       6.41699404      13.89700000        6       0.00000000       0.00000000       0.00000000       0.00000000       0.00297185      -0.00069911      -0.17500980      -0.00831314      -0.00607486      -0.16035073
Cu       1.81500000       8.98379165      13.89700000        6       0.00000000       0.00000000       0.00000000       0.00000000      -0.00154084       0.00053551      -0.17360904       0.00907897       0.00622463      -0.16457701
Cu       5.44500000       8.98379165      13.89700000        6       0.00000000       0.00000000       0.00000000       0.00000000       0.00066255       0.00081423      -0.17500788      -0.00904883       0.00422191      -0.16234981
Cu       0.00000000       0.00000000      15.19600000        5       0.00000000       0.00000000       0.00000000       0.00000000       0.00021243       0.00059097      -0.19187055       0.00142133       0.02799095      -0.07125741
Cu       3.63000000       0.00000000      15.19600000        5       0.00000000       0.00000000       0.00000000       0.00000000      -0.00011050      -0.00014670      -0.25461776      -0.00020219      -0.00619413      -0.14670270
Cu       0.00000000       2.56679762      15.19600000        5       0.00000000       0.00000000       0.00000000       0.00000000       0.00004872       0.00014753      -0.29541027       0.00064891      -0.00317155      -0.15063238
Cu       3.63000000       2.56679762      15.19600000        5       0.00000000       0.00000000       0.00000000       0.00000000       0.00017466       0.00025569      -0.25507050      -0.00040519       0.00537571      -0.17559243
Cu       0.00000000       5.13359523      15.19600000        5       0.00000000       0.00000000       0.00000000       0.00000000      -0.00014161       0.00110793      -0.17818187      -0.00064872      -0.01437426      -0.04881804
Cu       3.63000000       5.13359523      15.19600000        5       0.00000000       0.00000000       0.00000000       0.00000000       0.00023213       0.00097673      -0.24605226       0.00052687       0.01454214      -0.11673326
Cu       0.00000000       7.70039285      15.19600000        5       0.00000000       0.00000000       0.00000000       0.00000000       0.00009970      -0.00048701      -0.23835327       0.00042158      -0.00042551      -0.14774135
Cu       3.63000000       7.70039285      15.19600000        5       0.00000000       0.00000000       0.00000000       0.00000000       0.00008192      -0.00093302      -0.24174196      -0.00007330      -0.00359842      -0.13563541
Cu       1.81500000       1.28339881      16.49500000        4       0.00000000       0.00000000       0.00000000       0.00000000      -0.00133813      -0.02138125      -0.37622213      -0.00622344      -0.01137527      -0.43335818
Cu       5.44500000       1.28339881      16.49500000        4       0.00000000       0.00000000       0.00000000       0.00000000       0.01010472      -0.02531666      -0.37865269       0.01020222      -0.01337463      -0.43137210
Cu       1.81500000       3.85019642      16.49500000        4       0.00000000       0.00000000       0.00000000       0.00000000      -0.00567597       0.02575148      -0.38429260      -0.01127442      -0.02360373      -0.43130387
Cu       5.44500000       3.85019642      16.49500000        4       0.00000000       0.00000000       0.00000000       0.00000000       0.01670741       0.02755879      -0.36921811       0.01841135      -0.02395613      -0.41312279
Cu       1.81500000       6.41699404      16.49500000        4       0.00000000       0.00000000       0.00000000       0.00000000      -0.02339864      -0.01711700      -0.35815562      -0.03269945      -0.01645549      -0.38681426
Cu       5.44500000       6.41699404      16.49500000        4       0.00000000       0.00000000       0.00000000       0.00000000       0.03455620      -0.01750500      -0.34866026       0.03838219      -0.01757276      -0.37437264
Cu       1.81500000       8.98379165      16.49500000        4       0.00000000       0.00000000       0.00000000       0.00000000      -0.01901416       0.00243212      -0.37367758      -0.03109279      -0.02755829      -0.40684415
Cu       5.44500000       8.98379165      16.49500000        4       0.00000000       0.00000000       0.00000000       0.00000000       0.02800231       0.00537876      -0.37882485       0.03656118      -0.02625278      -0.40738427
Cu       0.00029235      -0.01276392      17.72959911        3       0.00000000      -0.00018491       0.00498303       0.05587927      -0.00010231       0.00503394       0.07309809       0.00032124       0.01107615       0.10965286
Cu       3.63066069      -0.01176117      17.69250931        3       0.00000000      -0.00030967       0.00467406       0.07173658      -0.00000088       0.00981996       0.07368551       0.00151562       0.01465068       0.09157743
Cu      -0.00021558       2.55713476      17.67794918        3       0.00000000      -0.00004895       0.00353078       0.06756291       0.00022094       0.00741686       0.06788930       0.00109561      -0.02214302       0.09726923
Cu       3.63184535       2.55700026      17.69368399        3       0.00000000       0.00089330      -0.00101295       0.07156128      -0.00022450      -0.00386054       0.08323682      -0.00187641      -0.00240315       0.06053417
Cu       0.00057702       5.11942134      17.73747657        3       0.00000000       0.00062883      -0.00015794       0.05199155      -0.00004810       0.00054276       0.06794487       0.00147379       0.02536023       0.14375563
Cu       3.63138089       5.12325264      17.69512819        3       0.00000000       0.00170094      -0.00026360       0.07011383       0.00042705      -0.00088652       0.07532795      -0.00227409      -0.02307048       0.06262524
Cu      -0.00007570       7.68625421      17.70226401        3       0.00000000       0.00000865       0.00191132       0.05274582       0.00040345       0.00131056       0.05151725       0.00179723      -0.00089877       0.03268668
Cu       3.63141255       7.68463895      17.69633839        3       0.00000000       0.00099075       0.00219946       0.06423269      -0.00011202       0.00449470       0.06832870       0.00128529      -0.02316867       0.04432677
Cu       1.82454558       1.25232142      18.99785593        2       0.00000000       0.00433585       0.00479373       0.12185453       0.00353755       0.00049239       0.13416602      -0.00981475       0.07379529      -0.01823616
Cu       5.43735308       1.25214323      18.99925386        2       0.00000000      -0.00457625       0.00563390       0.12076524      -0.00390571       0.00180217       0.13225739       0.00992544       0.07502218      -0.01444583
Cu       1.82064666       3.82686217      18.99436133        2       0.00000000       0.00778999      -0.00621710       0.11440549       0.00266902      -0.00525274       0.12782357       0.01320989      -0.05586295      -0.00678241
Cu       5.44472061       3.82970374      19.00220134        2       0.00000000      -0.00553145      -0.00523239       0.11577788      -0.00206751      -0.00569652       0.12701125      -0.01749679      -0.06056688       0.01623828
Cu       1.81182855       6.38509662      19.00116667        2       0.00000000       0.01172860       0.00078218       0.10520062       0.02046726      -0.00372950       0.11040127       0.01197573       0.06588695      -0.00820184
Cu       5.45302683       6.38123887      19.00683608        2       0.00000000      -0.00980851       0.00039369       0.10736822      -0.02034143      -0.00276807       0.10916709      -0.01281712       0.06641512      -0.01063625
Cu       1.82401737       8.96056214      18.98853358        2       0.00000000       0.00614942       0.00340273       0.11102106       0.00851408      -0.00058847       0.11826583       0.03712639      -0.07613351      -0.01479943
Cu       5.43800781       8.96097620      18.98927944        2       0.00000000      -0.00645707       0.00362251       0.11005050      -0.00849401      -0.00173539       0.11645568      -0.03885115      -0.07588487      -0.01317405
Cu       0.00373472       0.00977150      20.21215505        1       0.00000000      -0.00186790      -0.00567255       0.14165489      -0.00121756      -0.01747399       0.14026274       0.00044442       0.18221858      -0.42913993
Cu       3.63017235      -0.03559743      20.15851201        1       0.00000000       0.00013154       0.01016246       0.13903873      -0.00028584       0.01481363       0.14096840      -0.00127011       0.03061183      -0.12179297
Cu       0.00071484       2.52108210      20.10036448        1       0.00000000       0.00093350      -0.00399414       0.13690556       0.00126239      -0.01583875       0.14775614       0.00662288       0.01101169      -0.02250672
Cu       3.63039362       2.53993984      20.15296420        1       0.00000000      -0.00017676      -0.00092974       0.14446809      -0.00085552      -0.00122332       0.15095710       0.00829925       0.00244922      -0.06357221
Cu       0.00961981       5.07058612      20.24134682        1       0.00000000       0.00199020      -0.01569747       0.12472867      -0.00106420      -0.02322139       0.13647589       0.02107195       0.02036626      -0.39129073
Cu       3.63023491       5.10337676      20.15496098        1       0.00000000      -0.00161043      -0.00052046       0.13666596      -0.00073784       0.00237801       0.15095227       0.00054385      -0.00707412      -0.10136292
Cu      -0.00009337       7.67465674      20.16228030        1       0.00000000       0.00053582       0.00653227       0.13833173       0.00107813      -0.00824042       0.14191859       0.00590698       0.08522052       0.10730874
Cu       3.63182014       7.66418010      20.15509293        1       0.00000000       0.00030631       0.00390308       0.13113218      -0.00247488       0.01017545       0.13957748      -0.00328101       0.01306727      -0.11002999
O        0.00095437       9.70849610      22.06934549        0       0.00000000      -0.00517493       0.05379349       0.04654182      -0.01425968       0.00745505       0.09225323      -0.02141229      -0.38113426       0.71748797
C       -0.02255361       8.44267782      22.03113585        0       0.00000000      -0.00495960       0.00307776       0.06771142      -0.00531185       0.03312714       0.05630851       0.01084302      -0.01736438       0.33082503
O       -0.05799983       7.56439189      22.89498342        0       0.00000000      -0.01082388       0.02194699       0.04600159      -0.01051393       0.00795903       0.04083524      -0.03554332       0.02229902       0.23126912
H        0.04671402       5.90111374      22.58739662        0       0.00000000       0.02607939       0.06030867       0.00476781       0.02874298      -0.00785534       0.01051588       0.01559973      -0.02268262      -0.57018894
O        0.14705500       4.96918653      22.23260774        0       0.50000000       0.00023179      -0.04700103       0.01097643      -0.00020488      -0.01686346       0.03976009      -0.00702658       0.17657276       0.01931619
H       -0.59083265       4.44240446      22.58539154        0       0.50000000      -0.03408616       0.00222941       0.00234522      -0.03603079       0.02690367       0.01870782      -0.02780346       0.01865397       0.08980006
62
Lattice="7.26 0.0 0.0 0.0 10.26719046282867 0.0 0.0 0.0 30.392" Properties=species:S:1:pos:R:3:tags:I:1:initial_magmoms:R:1:MACE_forces:R:3:forces:R:3:DFT_forces:R:3 MACE_energy=-252.10684625953834 energy=-252.087500241033 stress="0.0044975561111709125 8.810443933857045e-07 0.00010728813243967474 8.810443933857045e-07 0.006489355393789003 -5.9733471431731176e-05 0.00010728813243967474 -5.9733471431731176e-05 -0.0008584545804065417" free_energy=-252.087500241033 DFT_energy=-257.59326286 pbc="T T T"
Cu       0.00033949      -0.00174187      12.59832408        7       0.00000000       0.00000000       0.00000000       0.00000000      -0.00070913       0.00998676       0.41835467      -0.00004339       0.02073108       0.67515452
Cu       3.62961954      -0.00066879      12.59861168        7       0.00000000       0.00000000       0.00000000       0.00000000       0.00090900       0.00364844       0.41590338       0.00017137      -0.00688210       0.67232878
Cu       0.00101862       2.56771771      12.59716078        7       0.00000000       0.00000000       0.00000000       0.00000000      -0.00267556      -0.00613596       0.41962782      -0.00336754      -0.00554837       0.67710442
Cu       3.62969450       2.56712490      12.59897555        7       0.00000000       0.00000000       0.00000000       0.00000000       0.00042427      -0.00121001       0.41446946       0.00087923      -0.00192628       0.66260043
Cu      -0.00047342       5.13341180      12.59689367        7       0.00000000       0.00000000       0.00000000       0.00000000       0.00153747       0.00294579       0.42343874       0.00362146      -0.01288439       0.67871178
Cu       3.62881816       5.13439800      12.59935624        7       0.00000000       0.00000000       0.00000000       0.00000000       0.00315459      -0.00237382       0.41353843       0.00430650       0.00962397       0.67635294
Cu      -0.00007115       7.70138433      12.59836164        7       0.00000000       0.00000000       0.00000000       0.00000000       0.00019302      -0.00676376       0.41725205       0.00227489       0.00224863       0.68320031
Cu       3.62936263       7.70074990      12.59953804        7       0.00000000       0.00000000       0.00000000       0.00000000       0.00153043      -0.00113798       0.41318645       0.00095216       0.00328533       0.65477428
Cu       1.81500000       1.28339881      13.89700000        6       0.00000000       0.00000000       0.00000000       0.00000000      -0.00246142      -0.00126101      -0.17829908      -0.00090940       0.01302297      -0.17935455
Cu       5.44500000       1.28339881      13.89700000        6       0.00000000       0.00000000       0.00000000       0.00000000       0.00331907      -0.00088895      -0.18028805       0.00230418       0.01677763      -0.17918624
Cu       1.81500000       3.85019642      13.89700000        6       0.00000000       0.00000000       0.00000000       0.00000000      -0.00313913       0.00194142      -0.17643421      -0.01223899      -0.01198066      -0.17710581
Cu       5.44500000       3.85019642      13.89700000        6       0.00000000       0.00000000       0.00000000       0.00000000       0.00203186       0.00138981      -0.17817199       0.01204479      -0.01100887      -0.17747018
Cu       1.81500000       6.41699404      13.89700000        6       0.00000000       0.00000000       0.00000000       0.00000000      -0.00581862      -0.00059563      -0.17377469       0.00409832      -0.00461037      -0.16165824
Cu       5.44500000       6.41699404      13.89700000        6       0.00000000       0.00000000       0.00000000       0.00000000       0.00297185      -0.00069911      -0.17500980      -0.00836944      -0.00603620      -0.16048658
Cu       1.81500000       8.98379165      13.89700000        6       0.00000000       0.00000000       0.00000000       0.00000000      -0.00154084       0.00053551      -0.17360904       0.00907549       0.00628901      -0.16485949
Cu       5.44500000       8.98379165      13.89700000        6       0.00000000       0.00000000       0.00000000       0.00000000       0.00066255       0.00081423      -0.17500788      -0.00917080       0.00428493      -0.16244685
Cu       0.00000000       0.00000000      15.19600000        5       0.00000000       0.00000000       0.00000000       0.00000000       0.00021243       0.00059097      -0.19187055       0.00140270       0.02799782      -0.07280296
Cu       3.63000000       0.00000000      15.19600000        5       0.00000000       0.00000000       0.00000000       0.00000000      -0.00011050      -0.00014670      -0.25461776      -0.00033705      -0.00608808      -0.14738545
Cu       0.00000000       2.56679762      15.19600000        5       0.00000000       0.00000000       0.00000000       0.00000000       0.00004872       0.00014753      -0.29541027       0.00052141      -0.00326651      -0.15136713
Cu       3.63000000       2.56679762      15.19600000        5       0.00000000       0.00000000       0.00000000       0.00000000       0.00017466       0.00025569      -0.25507050      -0.00041045       0.00547492      -0.17660958
Cu       0.00000000       5.13359523      15.19600000        5       0.00000000       0.00000000       0.00000000       0.00000000      -0.00014161       0.00110793      -0.17818187      -0.00086030      -0.01425023      -0.05026868
Cu       3.63000000       5.13359523      15.19600000        5       0.00000000       0.00000000       0.00000000       0.00000000       0.00023213       0.00097673      -0.24605226       0.00053936       0.01452203      -0.11758134
Cu       0.00000000       7.70039285      15.19600000        5       0.00000000       0.00000000       0.00000000       0.00000000       0.00009970      -0.00048701      -0.23835327       0.00039998      -0.00046265      -0.14831066
Cu       3.63000000       7.70039285      15.19600000        5       0.00000000       0.00000000       0.00000000       0.00000000       0.00008192      -0.00093302      -0.24174196      -0.00011800      -0.00371764      -0.13625169
Cu       1.81500000       1.28339881      16.49500000        4       0.00000000       0.00000000       0.00000000       0.00000000      -0.00133813      -0.02138125      -0.37622213      -0.00566344      -0.00976720      -0.43511141
Cu       5.44500000       1.28339881      16.49500000        4       0.00000000       0.00000000       0.00000000       0.00000000       0.01010472      -0.02531666      -0.37865269       0.01013824      -0.01183305      -0.43329102
Cu       1.81500000       3.85019642      16.49500000        4       0.00000000       0.00000000       0.00000000       0.00000000      -0.00567597       0.02575148      -0.38429260      -0.01092096      -0.02221990      -0.43352579
Cu       5.44500000       3.85019642      16.49500000        4       0.00000000       0.00000000       0.00000000       0.00000000       0.01670741       0.02755879      -0.36921811       0.01864868      -0.02253873      -0.41523826
Cu       1.81500000       6.41699404      16.49500000        4       0.00000000       0.00000000       0.00000000       0.00000000      -0.02339864      -0.01711700      -0.35815562      -0.03249265      -0.01466729      -0.38867159
Cu       5.44500000       6.41699404      16.49500000        4       0.00000000       0.00000000       0.00000000       0.00000000       0.03455620      -0.01750500      -0.34866026       0.03850053      -0.01570895      -0.37596233
Cu       1.81500000       8.98379165      16.49500000        4       0.00000000       0.00000000       0.00000000       0.00000000      -0.01901416       0.00243212      -0.37367758      -0.03062078      -0.02637998      -0.40859872
Cu       5.44500000       8.98379165      16.49500000        4       0.00000000       0.00000000       0.00000000       0.00000000       0.02800231       0.00537876      -0.37882485       0.03625748      -0.02498507      -0.40900978
Cu       0.00033645      -0.01193591      17.72899743        3       0.00000000      -0.00017364       0.00504697       0.05712753      -0.00010231       0.00503394       0.07309809       0.00028844       0.01128316       0.11125718
Cu       3.63068657      -0.01095157      17.69230664        3       0.00000000      -0.00028733       0.00501661       0.07187498      -0.00000088       0.00981996       0.07368551       0.00185709       0.01494569       0.09202753
Cu      -0.00019270       2.55784237      17.67769163        3       0.00000000      -0.00003091       0.00382449       0.06759068       0.00022094       0.00741686       0.06788930       0.00100933      -0.02183103       0.09727471
Cu       3.63191276       2.55791719      17.69329460        3       0.00000000       0.00081622      -0.00121186       0.07240728      -0.00022450      -0.00386054       0.08323682      -0.00218325      -0.00211308       0.06177563
Cu       0.00063967       5.12022946      17.73683295        3       0.00000000       0.00058642      -0.00005260       0.05321452      -0.00004810       0.00054276       0.06794487       0.00177230       0.02587637       0.14489859
Cu       3.63144305       5.12420707      17.69479300        3       0.00000000       0.00159855      -0.00031891       0.07052286       0.00042705      -0.00088652       0.07532795      -0.00232870      -0.02213220       0.06352718
Cu      -0.00005503       7.68711582      17.70200674        3       0.00000000       0.00004755       0.00185848       0.05265063       0.00040345       0.00131056       0.05151725       0.00206066      -0.00055734       0.03277908
Cu       3.63149100       7.68545682      17.69612757        3       0.00000000       0.00089432       0.00237388       0.06453241      -0.00011202       0.00449470       0.06832870       0.00106805      -0.02265443       0.04459378
Cu       1.82476075       1.25444710      18.99738324        2       0.00000000       0.00420936       0.00446985       0.12276467       0.00353755       0.00049239       0.13416602      -0.01046529       0.07297903      -0.01708072
Cu       5.43731408       1.25427063      18.99873163        2       0.00000000      -0.00447125       0.00534862       0.12161156      -0.00390571       0.00180217       0.13225739       0.01062542       0.07387080      -0.01378501
Cu       1.82092753       3.82882460      18.99382444        2       0.00000000       0.00743681      -0.00617009       0.11537183       0.00266902      -0.00525274       0.12782357       0.01182786      -0.05600880      -0.00510205
Cu       5.44468327       3.83177846      19.00180689        2       0.00000000      -0.00528068      -0.00528748       0.11662762      -0.00206751      -0.00569652       0.12701125      -0.01728010      -0.06167704       0.01680247
Cu       1.81178555       6.38734127      19.00076954        2       0.00000000       0.01233558       0.00036526       0.10556790       0.02046726      -0.00372950       0.11040127       0.01336242       0.06489836      -0.00832556
Cu       5.45330033       6.38325066      19.00652124        2       0.00000000      -0.01056904       0.00009571       0.10748735      -0.02034143      -0.00276807       0.10916709      -0.01377583       0.06549882      -0.01103017
Cu       1.82423428       8.96267869      18.98826293        2       0.00000000       0.00633675       0.00308639       0.11157794       0.00851408      -0.00058847       0.11826583       0.03718110      -0.07725568      -0.01400097
Cu       5.43796696       8.96307020      18.98890632        2       0.00000000      -0.00662706       0.00322459       0.11052263      -0.00849401      -0.00173539       0.11645568      -0.03870921      -0.07691634      -0.01177593
Cu       0.00398902       0.01320090      20.21100489        1       0.00000000      -0.00186839      -0.00636088       0.14138717      -0.00121756      -0.01747399       0.14026274       0.00155451       0.18072915      -0.42963004
Cu       3.63029586      -0.03345147      20.15830188        1       0.00000000       0.00011480       0.01047563       0.13925807      -0.00028584       0.01481363       0.14096840      -0.00173467       0.02943394      -0.12213319
Cu       0.00078820       2.52428830      20.09985726        1       0.00000000       0.00093145      -0.00493965       0.13767812       0.00126239      -0.01583875       0.14775614       0.00665582       0.00846457      -0.02225698
Cu       3.63052204       2.54211432      20.15258470        1       0.00000000      -0.00023197      -0.00093603       0.14501680      -0.00085552      -0.00122332       0.15095710       0.00841873       0.00197104      -0.06324239
Cu       0.01010460       5.07372233      20.24017183        1       0.00000000       0.00173784      -0.01628182       0.12534576      -0.00106420      -0.02322139       0.13647589       0.02071174       0.02081681      -0.39215480
Cu       3.63020737       5.10557579      20.15436847        1       0.00000000      -0.00155625      -0.00030636       0.13777878      -0.00073784       0.00237801       0.15095227       0.00077161      -0.00815607      -0.10055807
Cu      -0.00003679       7.67817764      20.16164041        1       0.00000000       0.00056338       0.00541109       0.13799026       0.00107813      -0.00824042       0.14191859       0.00541424       0.08182543       0.10686059
Cu       3.63204072       7.66620020      20.15474920        1       0.00000000       0.00010209       0.00436718       0.13173288      -0.00247488       0.01017545       0.13957748      -0.00477161       0.01261713      -0.10965962
O       -0.00156796       9.71296352      22.06803506        0       0.00000000      -0.00559562       0.05469060       0.04926171      -0.01425968       0.00745505       0.09225323      -0.02565978      -0.38042161       0.72364162
C       -0.02893271       8.44723194      22.02984874        0       0.00000000      -0.00515572       0.00199198       0.06823359      -0.00531185       0.03312714       0.05630851       0.01545244      -0.01901037       0.33374489
O       -0.07111841       7.56921270      22.89366186        0       0.00000000      -0.01112255       0.02106154       0.04650077      -0.01051393       0.00795903       0.04083524      -0.03575730       0.01881313       0.23189710
H        0.04026976       5.90667828      22.58550334        0       0.00000000       0.02664814       0.06167478       0.00645120       0.02874298      -0.00785534       0.01051588       0.01745199      -0.01963672      -0.57061144
O        0.14805909       4.97553804      22.23091431        0       0.50000000       0.00127466      -0.04991609       0.01206226      -0.00020488      -0.01686346       0.03976009      -0.00613468       0.17822383       0.02113636
H       -0.58516718       4.44248995      22.58391445        0       0.50000000      -0.03535102       0.00139689       0.00347266      -0.03603079       0.02690367       0.01870782      -0.02929691       0.01862765       0.09145709
62
Lattice="7.26 0.0 0.0 0.0 10.26719046282867 0.0 0.0 0.0 30.392" Properties=species:S:1:pos:R:3:tags:I:1:initial_magmoms:R:1:MACE_forces:R:3:forces:R:3:DFT_forces:R:3 MACE_energy=-252.10552227226228 energy=-252.087500241033 stress="0.0044975561111709125 8.810443933857045e-07 0.00010728813243967474 8.810443933857045e-07 0.006489355393789003 -5.9733471431731176e-05 0.00010728813243967474 -5.9733471431731176e-05 -0.0008584545804065417" free_energy=-252.087500241033 DFT_energy=-257.59272854 pbc="T T T"
Cu       0.00033949      -0.00174187      12.59832408        7       0.00000000       0.00000000       0.00000000       0.00000000      -0.00070913       0.00998676       0.41835467       0.00002943       0.02079711       0.67529436
Cu       3.62961954      -0.00066879      12.59861168        7       0.00000000       0.00000000       0.00000000       0.00000000       0.00090900       0.00364844       0.41590338       0.00024691      -0.00672630       0.67242861
Cu       0.00101862       2.56771771      12.59716078        7       0.00000000       0.00000000       0.00000000       0.00000000      -0.00267556      -0.00613596       0.41962782      -0.00328123      -0.00547611       0.67729589
Cu       3.62969450       2.56712490      12.59897555        7       0.00000000       0.00000000       0.00000000       0.00000000       0.00042427      -0.00121001       0.41446946       0.00089477      -0.00183988       0.66266753
Cu      -0.00047342       5.13341180      12.59689367        7       0.00000000       0.00000000       0.00000000       0.00000000       0.00153747       0.00294579       0.42343874       0.00375330      -0.01265333       0.67883106
Cu       3.62881816       5.13439800      12.59935624        7       0.00000000       0.00000000       0.00000000       0.00000000       0.00315459      -0.00237382       0.41353843       0.00438201       0.00966833       0.67655592
Cu      -0.00007115       7.70138433      12.59836164        7       0.00000000       0.00000000       0.00000000       0.00000000       0.00019302      -0.00676376       0.41725205       0.00250765       0.00226604       0.68319839
Cu       3.62936263       7.70074990      12.59953804        7       0.00000000       0.00000000       0.00000000       0.00000000       0.00153043      -0.00113798       0.41318645       0.00098079       0.00340033       0.65494824
Cu       1.81500000       1.28339881      13.89700000        6       0.00000000       0.00000000       0.00000000       0.00000000      -0.00246142      -0.00126101      -0.17829908      -0.00073206       0.01307588      -0.17927880
Cu       5.44500000       1.28339881      13.89700000        6       0.00000000       0.00000000       0.00000000       0.00000000       0.00331907      -0.00088895      -0.18028805       0.00240269       0.01687084      -0.17908774
Cu       1.81500000       3.85019642      13.89700000        6       0.00000000       0.00000000       0.00000000       0.00000000      -0.00313913       0.00194142      -0.17643421      -0.01211782      -0.01203208      -0.17712855
Cu       5.44500000       3.85019642      13.89700000        6       0.00000000       0.00000000       0.00000000       0.00000000       0.00203186       0.00138981      -0.17817199       0.01213672      -0.01088886      -0.17741659
Cu       1.81500000       6.41699404      13.89700000        6       0.00000000       0.00000000       0.00000000       0.00000000      -0.00581862      -0.00059563      -0.17377469       0.00412468      -0.00437159      -0.16163629
Cu       5.44500000       6.41699404      13.89700000        6       0.00000000       0.00000000       0.00000000       0.00000000       0.00297185      -0.00069911      -0.17500980      -0.00828041      -0.00602045      -0.16044885
Cu       1.81500000       8.98379165      13.89700000        6       0.00000000       0.00000000       0.00000000       0.00000000      -0.00154084       0.00053551      -0.17360904       0.00921762       0.00632346      -0.16495917
Cu       5.44500000       8.98379165      13.89700000        6       0.00000000       0.00000000       0.00000000       0.00000000       0.00066255       0.00081423      -0.17500788      -0.00914976       0.00431824      -0.16236173
Cu       0.00000000       0.00000000      15.19600000        5       0.00000000       0.00000000       0.00000000       0.00000000       0.00021243       0.00059097      -0.19187055       0.00152846       0.02798200      -0.07416196
Cu       3.63000000       0.00000000      15.19600000        5       0.00000000       0.00000000       0.00000000       0.00000000      -0.00011050      -0.00014670      -0.25461776      -0.00032846      -0.00600730      -0.14788308
Cu       0.00000000       2.56679762      15.19600000        5       0.00000000       0.00000000       0.00000000       0.00000000       0.00004872       0.00014753      -0.29541027       0.00053813      -0.00337167      -0.15192889
Cu       3.63000000       2.56679762      15.19600000        5       0.00000000       0.00000000       0.00000000       0.00000000       0.00017466       0.00025569      -0.25507050      -0.00027247       0.00555321      -0.17744464
Cu       0.00000000       5.13359523      15.19600000        5       0.00000000       0.00000000       0.00000000       0.00000000      -0.00014161       0.00110793      -0.17818187      -0.00092143      -0.01414348      -0.05153738
Cu       3.63000000       5.13359523      15.19600000        5       0.00000000       0.00000000       0.00000000       0.00000000       0.00023213       0.00097673      -0.24605226       0.00069728       0.01448196      -0.11824310
Cu       0.00000000       7.70039285      15.19600000        5       0.00000000       0.00000000       0.00000000       0.00000000       0.00009970      -0.00048701      -0.23835327       0.00052476      -0.00051366      -0.14869033
Cu       3.63000000       7.70039285      15.19600000        5       0.00000000       0.00000000       0.00000000       0.00000000       0.00008192      -0.00093302      -0.24174196      -0.00002242      -0.00384782      -0.13667740
Cu       1.81500000       1.28339881      16.49500000        4       0.00000000       0.00000000       0.00000000       0.00000000      -0.00133813      -0.02138125      -0.37622213      -0.00495885      -0.00817833      -0.43667758
Cu       5.44500000       1.28339881      16.49500000        4       0.00000000       0.00000000       0.00000000       0.00000000       0.01010472      -0.02531666      -0.37865269       0.01022014      -0.01031544      -0.43501413
Cu       1.81500000       3.85019642      16.49500000        4       0.00000000       0.00000000       0.00000000       0.00000000      -0.00567597       0.02575148      -0.38429260      -0.01042729      -0.02085639      -0.43555557
Cu       5.44500000       3.85019642      16.49500000        4       0.00000000       0.00000000       0.00000000       0.00000000       0.01670741       0.02755879      -0.36921811       0.01902971      -0.02114245      -0.41716869
Cu       1.81500000       6.41699404      16.49500000        4       0.00000000       0.00000000       0.00000000       0.00000000      -0.02339864      -0.01711700      -0.35815562      -0.03214135      -0.01289871      -0.39034003
Cu       5.44500000       6.41699404      16.49500000        4       0.00000000       0.00000000       0.00000000       0.00000000       0.03455620      -0.01750500      -0.34866026       0.03876382      -0.01386204      -0.37737137
Cu       1.81500000       8.98379165      16.49500000        4       0.00000000       0.00000000       0.00000000       0.00000000      -0.01901416       0.00243212      -0.37367758      -0.03000673      -0.02521993      -0.41016743
Cu       5.44500000       8.98379165      16.49500000        4       0.00000000       0.00000000       0.00000000       0.00000000       0.02800231       0.00537876      -0.37882485       0.03609889      -0.02373269      -0.41044520
Cu       0.00038054      -0.01110802      17.72839581        3       0.00000000      -0.00016298       0.00510080       0.05837652      -0.00010231       0.00503394       0.07309809       0.00031249       0.01127928       0.11325181
Cu       3.63071244      -0.01014197      17.69210397        3       0.00000000      -0.00026498       0.00536156       0.07201224      -0.00000088       0.00981996       0.07368551       0.00255397       0.01577925       0.09265808
Cu      -0.00016980       2.55854990      17.67743413        3       0.00000000      -0.00001242       0.00411394       0.06762258       0.00022094       0.00741686       0.06788930       0.00085698      -0.02104469       0.09738267
Cu       3.63198015       2.55883410      17.69290523        3       0.00000000       0.00073778      -0.00140997       0.07325369      -0.00022450      -0.00386054       0.08323682      -0.00243055      -0.00192542       0.06270549
Cu       0.00070231       5.12103749      17.73618940        3       0.00000000       0.00054251       0.00004588       0.05443849      -0.00004810       0.00054276       0.06794487       0.00172095       0.02611135       0.14654891
Cu       3.63150520       5.12516144      17.69445779        3       0.00000000       0.00149665      -0.00037571       0.07092875       0.00042705      -0.00088652       0.07532795      -0.00214928      -0.02242267       0.06436742
Cu      -0.00003438       7.68797738      17.70174949        3       0.00000000       0.00008504       0.00180484       0.05256336       0.00040345       0.00131056       0.05151725       0.00246586       0.00000235       0.03280370
Cu       3.63156946       7.68627466      17.69591678        3       0.00000000       0.00079959       0.00254810       0.06483465      -0.00011202       0.00449470       0.06832870       0.00124136      -0.02236446       0.04509031
Cu       1.82497605       1.25657272      18.99691056        2       0.00000000       0.00409488       0.00414804       0.12367503       0.00353755       0.00049239       0.13416602      -0.01131662       0.07254935      -0.01626964
Cu       5.43727497       1.25639796      18.99820942        2       0.00000000      -0.00437613       0.00506475       0.12245866      -0.00390571       0.00180217       0.13225739       0.01083091       0.07383317      -0.01308081
Cu       1.82120837       3.83078699      18.99328765        2       0.00000000       0.00707873      -0.00611865       0.11634808       0.00266902      -0.00525274       0.12782357       0.01146190      -0.05641209      -0.00418636
Cu       5.44464593       3.83385314      19.00141247        2       0.00000000      -0.00502966      -0.00533962       0.11747845      -0.00206751      -0.00569652       0.12701125      -0.01656982      -0.06256554       0.01854267
Cu       1.81174265       6.38958595      19.00037243        2       0.00000000       0.01294683      -0.00004081       0.10594237       0.02046726      -0.00372950       0.11040127       0.01444676       0.06293590      -0.00802634
Cu       5.45357378       6.38526242      19.00620644        2       0.00000000      -0.01133166      -0.00019396       0.10761146      -0.02034143      -0.00276807       0.10916709      -0.01495490       0.06389434      -0.01090624
Cu       1.82445119       8.96479519      18.98799226        2       0.00000000       0.00652262       0.00277198       0.11213470       0.00851408      -0.00058847       0.11826583       0.03752180      -0.07795948      -0.01316777
Cu       5.43792613       8.96516412      18.98853322        2       0.00000000      -0.00679339       0.00282486       0.11099898      -0.00849401      -0.00173539       0.11645568      -0.03873056      -0.07848302      -0.01042178
Cu       0.00424343       0.01662995      20.20985489        1       0.00000000      -0.00185860      -0.00710027       0.14119566      -0.00121756      -0.01747399       0.14026274       0.00248944       0.17967879      -0.43027083
Cu       3.63041934      -0.03130555      20.15809170        1       0.00000000       0.00009564       0.01079236       0.13947196      -0.00028584       0.01481363       0.14096840      -0.00187943       0.02754037      -0.12273027
Cu       0.00086159       2.52749453      20.09935018        1       0.00000000       0.00093343      -0.00587334       0.13846103       0.00126239      -0.01583875       0.14775614       0.00661050       0.00455375      -0.02194399
Cu       3.63065047       2.54428872      20.15220518        1       0.00000000      -0.00028661      -0.00094214       0.14556318      -0.00085552      -0.00122332       0.15095710       0.00850704       0.00084068      -0.06280525
Cu       0.01058934       5.07685854      20.23899749        1       0.00000000       0.00148957      -0.01686238       0.12601307      -0.00106420      -0.02322139       0.13647589       0.01979919       0.02138422      -0.39292023
Cu       3.63017987       5.10777470      20.15377596        1       0.00000000      -0.00150051      -0.00009485       0.13888902      -0.00073784       0.00237801       0.15095227       0.00128768      -0.00926344      -0.09918079
Cu       0.00001984       7.68169868      20.16100257        1       0.00000000       0.00059809       0.00430294       0.13777112       0.00107813      -0.00824042       0.14191859       0.00514721       0.07928401       0.10588799
Cu       3.63226129       7.66822021      20.15440559        1       0.00000000      -0.00010275       0.00483107       0.13234578      -0.00247488       0.01017545       0.13957748      -0.00536351       0.01190260      -0.10993044
O       -0.00409033       9.71742180      22.06672706        0       0.00000000      -0.00602824       0.05490113       0.05204375      -0.01425968       0.00745505       0.09225323      -0.02978602      -0.37993499       0.72797010
C       -0.03531206       8.45177588      22.02857279        0       0.00000000      -0.00535563       0.00142628       0.06856549      -0.00531185       0.03312714       0.05630851       0.01560831      -0.02163409       0.33169545
O       -0.08423578       7.57404901      22.89232401        0       0.00000000      -0.01138881       0.02012321       0.04681970      -0.01051393       0.00795903       0.04083524      -0.03544388       0.01609100       0.23255181
H        0.03382549       5.91222503      22.58360432        0       0.00000000       0.02705299       0.06196745       0.00793026       0.02874298      -0.00785534       0.01051588       0.01588720      -0.01197158      -0.57141400
O        0.14903893       4.98189093      22.22923720        0       0.50000000       0.00222688      -0.05194125       0.01332967      -0.00020488      -0.01686346       0.03976009      -0.00533427       0.17855814       0.02291076
H       -0.57947777       4.44259426      22.58242684        0       0.50000000      -0.03640458       0.00098302       0.00463160      -0.03603079       0.02690367       0.01870782      -0.03022818       0.01912403       0.09329209
62
Lattice="7.26 0.0 0.0 0.0 10.26719046282867 0.0 0.0 0.0 30.392" Properties=species:S:1:pos:R:3:tags:I:1:initial_magmoms:R:1:MACE_forces:R:3:forces:R:3:DFT_forces:R:3 MACE_energy=-252.10414670590734 energy=-252.087500241033 stress="0.0044975561111709125 8.810443933857045e-07 0.00010728813243967474 8.810443933857045e-07 0.006489355393789003 -5.9733471431731176e-05 0.00010728813243967474 -5.9733471431731176e-05 -0.0008584545804065417" free_energy=-252.087500241033 DFT_energy=-257.59214465 pbc="T T T"
Cu       0.00033949      -0.00174187      12.59832408        7       0.00000000       0.00000000       0.00000000       0.00000000      -0.00070913       0.00998676       0.41835467       0.00011347       0.02078577       0.67525852
Cu       3.62961954      -0.00066879      12.59861168        7       0.00000000       0.00000000       0.00000000       0.00000000       0.00090900       0.00364844       0.41590338       0.00032831      -0.00665737       0.67237840
Cu       0.00101862       2.56771771      12.59716078        7       0.00000000       0.00000000       0.00000000       0.00000000      -0.00267556      -0.00613596       0.41962782      -0.00318605      -0.00548106       0.67725527
Cu       3.62969450       2.56712490      12.59897555        7       0.00000000       0.00000000       0.00000000       0.00000000       0.00042427      -0.00121001       0.41446946       0.00091946      -0.00183441       0.66256183
Cu      -0.00047342       5.13341180      12.59689367        7       0.00000000       0.00000000       0.00000000       0.00000000       0.00153747       0.00294579       0.42343874       0.00389624      -0.01249744       0.67878099
Cu       3.62881816       5.13439800      12.59935624        7       0.00000000       0.00000000       0.00000000       0.00000000       0.00315459      -0.00237382       0.41353843       0.00446480       0.00963562       0.67655966
Cu      -0.00007115       7.70138433      12.59836164        7       0.00000000       0.00000000       0.00000000       0.00000000       0.00019302      -0.00676376       0.41725205       0.00274849       0.00220380       0.68312727
Cu       3.62936263       7.70074990      12.59953804        7       0.00000000       0.00000000       0.00000000       0.00000000       0.00153043      -0.00113798       0.41318645       0.00101678       0.00344605       0.65488830
Cu       1.81500000       1.28339881      13.89700000        6       0.00000000       0.00000000       0.00000000       0.00000000      -0.00246142      -0.00126101      -0.17829908      -0.00054669       0.01304627      -0.17939962
Cu       5.44500000       1.28339881      13.89700000        6       0.00000000       0.00000000       0.00000000       0.00000000       0.00331907      -0.00088895      -0.18028805       0.00251016       0.01688360      -0.17918017
Cu       1.81500000       3.85019642      13.89700000        6       0.00000000       0.00000000       0.00000000       0.00000000      -0.00313913       0.00194142      -0.17643421      -0.01198606      -0.01216257      -0.17734492
Cu       5.44500000       3.85019642      13.89700000        6       0.00000000       0.00000000       0.00000000       0.00000000       0.00203186       0.00138981      -0.17817199       0.01223812      -0.01084781      -0.17755528
Cu       1.81500000       6.41699404      13.89700000        6       0.00000000       0.00000000       0.00000000       0.00000000      -0.00581862      -0.00059563      -0.17377469       0.00416581      -0.00420571      -0.16181039
Cu       5.44500000       6.41699404      13.89700000        6       0.00000000       0.00000000       0.00000000       0.00000000       0.00297185      -0.00069911      -0.17500980      -0.00818388      -0.00607929      -0.16060072
Cu       1.81500000       8.98379165      13.89700000        6       0.00000000       0.00000000       0.00000000       0.00000000      -0.00154084       0.00053551      -0.17360904       0.00936910       0.00628698      -0.16524903
Cu       5.44500000       8.98379165      13.89700000        6       0.00000000       0.00000000       0.00000000       0.00000000       0.00066255       0.00081423      -0.17500788      -0.00911699       0.00428094      -0.16247056
Cu       0.00000000       0.00000000      15.19600000        5       0.00000000       0.00000000       0.00000000       0.00000000       0.00021243       0.00059097      -0.19187055       0.00166130       0.02787917      -0.07571427
Cu       3.63000000       0.00000000      15.19600000        5       0.00000000       0.00000000       0.00000000       0.00000000      -0.00011050      -0.00014670      -0.25461776      -0.00030665      -0.00599660      -0.14856262
Cu       0.00000000       2.56679762      15.19600000        5       0.00000000       0.00000000       0.00000000       0.00000000       0.00004872       0.00014753      -0.29541027       0.00056481      -0.00356143      -0.15267375
Cu       3.63000000       2.56679762      15.19600000        5       0.00000000       0.00000000       0.00000000       0.00000000       0.00017466       0.00025569      -0.25507050      -0.00012767       0.00555903      -0.17846782
Cu       0.00000000       5.13359523      15.19600000        5       0.00000000       0.00000000       0.00000000       0.00000000      -0.00014161       0.00110793      -0.17818187      -0.00097912      -0.01412594      -0.05299806
Cu       3.63000000       5.13359523      15.19600000        5       0.00000000       0.00000000       0.00000000       0.00000000       0.00023213       0.00097673      -0.24605226       0.00086520       0.01436227      -0.11910172
Cu       0.00000000       7.70039285      15.19600000        5       0.00000000       0.00000000       0.00000000       0.00000000       0.00009970      -0.00048701      -0.23835327       0.00065893      -0.00065621      -0.14926534
Cu       3.63000000       7.70039285      15.19600000        5       0.00000000       0.00000000       0.00000000       0.00000000       0.00008192      -0.00093302      -0.24174196       0.00008571      -0.00406546      -0.13728302
Cu       1.81500000       1.28339881      16.49500000        4       0.00000000       0.00000000       0.00000000       0.00000000      -0.00133813      -0.02138125      -0.37622213      -0.00424170      -0.00666394      -0.43843879
Cu       5.44500000       1.28339881      16.49500000        4       0.00000000       0.00000000       0.00000000       0.00000000       0.01010472      -0.02531666      -0.37865269       0.01030597      -0.00887299      -0.43693363
Cu       1.81500000       3.85019642      16.49500000        4       0.00000000       0.00000000       0.00000000       0.00000000      -0.00567597       0.02575148      -0.38429260      -0.00992495      -0.01957369      -0.43777292
Cu       5.44500000       3.85019642      16.49500000        4       0.00000000       0.00000000       0.00000000       0.00000000       0.01670741       0.02755879      -0.36921811       0.01942528      -0.01982157      -0.41928479
Cu       1.81500000       6.41699404      16.49500000        4       0.00000000       0.00000000       0.00000000       0.00000000      -0.02339864      -0.01711700      -0.35815562      -0.03178066      -0.01120706      -0.39219401
Cu       5.44500000       6.41699404      16.49500000        4       0.00000000       0.00000000       0.00000000       0.00000000       0.03455620      -0.01750500      -0.34866026       0.03904217      -0.01208769      -0.37897213
Cu       1.81500000       8.98379165      16.49500000        4       0.00000000       0.00000000       0.00000000       0.00000000      -0.01901416       0.00243212      -0.37367758      -0.02938150      -0.02413375      -0.41192433
Cu       5.44500000       8.98379165      16.49500000        4       0.00000000       0.00000000       0.00000000       0.00000000       0.02800231       0.00537876      -0.37882485       0.03594886      -0.02255032      -0.41207027
Cu       0.00042462      -0.01028025      17.72779422        3       0.00000000      -0.00015296       0.00514449       0.05962637      -0.00010231       0.00503394       0.07309809       0.00061340       0.01137829       0.11492763
Cu       3.63073831      -0.00933236      17.69190129        3       0.00000000      -0.00024262       0.00570887       0.07214838      -0.00000088       0.00981996       0.07368551       0.00310005       0.01662604       0.09325314
Cu      -0.00014691       2.55925739      17.67717667        3       0.00000000       0.00000653       0.00439919       0.06765865       0.00022094       0.00741686       0.06788930       0.00099078      -0.02030737       0.09705238
Cu       3.63204752       2.55975100      17.69251588        3       0.00000000       0.00065798      -0.00160730       0.07410057      -0.00022450      -0.00386054       0.08323682      -0.00249927      -0.00144562       0.06363557
Cu       0.00076492       5.12184544      17.73554591        3       0.00000000       0.00049713       0.00013748       0.05566353      -0.00004810       0.00054276       0.06794487       0.00212460       0.02650222       0.14794401
Cu       3.63156737       5.12611578      17.69412255        3       0.00000000       0.00139524      -0.00043401       0.07133155       0.00042705      -0.00088652       0.07532795      -0.00196998      -0.02249744       0.06538005
Cu      -0.00001373       7.68883892      17.70149227        3       0.00000000       0.00012112       0.00175046       0.05248401       0.00040345       0.00131056       0.05151725       0.00288166       0.00032505       0.03277163
Cu       3.63164794       7.68709248      17.69570604        3       0.00000000       0.00070655       0.00272212       0.06513944      -0.00011202       0.00449470       0.06832870       0.00137892      -0.02186601       0.04542994
Cu       1.82519148       1.25869832      18.99643787        2       0.00000000       0.00399242       0.00382835       0.12458565       0.00353755       0.00049239       0.13416602      -0.01123443       0.07203369      -0.01545805
Cu       5.43723574       1.25852528      18.99768721        2       0.00000000      -0.00429082       0.00478228       0.12330658      -0.00390571       0.00180217       0.13225739       0.01102504       0.07323661      -0.01221085
Cu       1.82148917       3.83274938      18.99275093        2       0.00000000       0.00671578      -0.00606275       0.11733418       0.00266902      -0.00525274       0.12782357       0.01122584      -0.05716539      -0.00245531
Cu       5.44460858       3.83592783      19.00101808        2       0.00000000      -0.00477847      -0.00538879       0.11833033      -0.00206751      -0.00569652       0.12701125      -0.01594019      -0.06372541       0.01928738
Cu       1.81169984       6.39183070      18.99997532        2       0.00000000       0.01356230      -0.00043608       0.10632415       0.02046726      -0.00372950       0.11040127       0.01534916       0.06193034      -0.00811950
Cu       5.45384718       6.38727420      19.00589167        2       0.00000000      -0.01209640      -0.00047535       0.10774049      -0.02034143      -0.00276807       0.10916709      -0.01578869       0.06257694      -0.01116067
Cu       1.82466811       8.96691169      18.98772157        2       0.00000000       0.00670701       0.00245947       0.11269137       0.00851408      -0.00058847       0.11826583       0.03798097      -0.07891289      -0.01339247
Cu       5.43788531       8.96725800      18.98816014        2       0.00000000      -0.00695616       0.00242335       0.11147946      -0.00849401      -0.00173539       0.11645568      -0.03872764      -0.07912872      -0.01029382
Cu       0.00449795       0.02005872      20.20870503        1       0.00000000      -0.00183934      -0.00789132       0.14108156      -0.00121756      -0.01747399       0.14026274       0.00332820       0.17757140      -0.43027074
Cu       3.63054280      -0.02915961      20.15788147        1       0.00000000       0.00007398       0.01111264       0.13968041      -0.00028584       0.01481363       0.14096840      -0.00245175       0.02756194      -0.12251331
Cu       0.00093501       2.53070087      20.09884324        1       0.00000000       0.00093954      -0.00679536       0.13925420       0.00126239      -0.01583875       0.14775614       0.00676538       0.00113035      -0.02218734
Cu       3.63077892       2.54646307      20.15182565        1       0.00000000      -0.00034067      -0.00094808       0.14610724      -0.00085552      -0.00122332       0.15095710       0.00876203       0.00024994      -0.06312946
Cu       0.01107405       5.07999483      20.23782377        1       0.00000000       0.00124537      -0.01743884       0.12673145      -0.00106420      -0.02322139       0.13647589       0.01824339       0.02203062      -0.39385747
Cu       3.63015240       5.10997356      20.15318343        1       0.00000000      -0.00144308       0.00011406       0.13999672      -0.00073784       0.00237801       0.15095227       0.00103836      -0.00959124      -0.09839135
Cu       0.00007650       7.68521995      20.16036678        1       0.00000000       0.00063842       0.00320776       0.13767468       0.00107813      -0.00824042       0.14191859       0.00453078       0.07679550       0.10597669
Cu       3.63248185       7.67024018      20.15406207        1       0.00000000      -0.00030847       0.00529481       0.13297073      -0.00247488       0.01017545       0.13957748      -0.00614520       0.01138277      -0.10982199
O       -0.00661291       9.72187102      22.06542142        0       0.00000000      -0.00648038       0.05442498       0.05488742      -0.01425968       0.00745505       0.09225323      -0.03408481      -0.37771717       0.73234784
C       -0.04169205       8.45630976      22.02730800        0       0.00000000      -0.00555235       0.00138231       0.06870449      -0.00531185       0.03312714       0.05630851       0.01592943      -0.02517441       0.33189075
O       -0.09735183       7.57890094      22.89096984        0       0.00000000      -0.01161562       0.01912993       0.04696028      -0.01051393       0.00795903       0.04083524      -0.03570497       0.01743273       0.23498221
H        0.02738149       5.91775413      22.58169952        0       0.00000000       0.02732128       0.06118283       0.00920504       0.02874298      -0.00785534       0.01051588       0.01433147      -0.01028972      -0.56648928
O        0.14999450       4.98824473      22.22757641        0       0.50000000       0.00307254      -0.05307383       0.01477577      -0.00020488      -0.01686346       0.03976009      -0.00454378       0.17777185       0.02432845
H       -0.57376474       4.44271803      22.58092860        0       0.50000000      -0.03726218       0.00098977       0.00582375      -0.03603079       0.02690367       0.01870782      -0.03107580       0.01999791       0.09500184
62
Lattice="7.26 0.0 0.0 0.0 10.26719046282867 0.0 0.0 0.0 30.392" Properties=species:S:1:pos:R:3:tags:I:1:initial_magmoms:R:1:MACE_forces:R:3:forces:R:3:DFT_forces:R:3 MACE_energy=-252.1027197231349 energy=-252.087500241033 stress="0.0044975561111709125 8.810443933857045e-07 0.00010728813243967474 8.810443933857045e-07 0.006489355393789003 -5.9733471431731176e-05 0.00010728813243967474 -5.9733471431731176e-05 -0.0008584545804065417" free_energy=-252.087500241033 DFT_energy=-257.5914746 pbc="T T T"
Cu       0.00033949      -0.00174187      12.59832408        7       0.00000000       0.00000000       0.00000000       0.00000000      -0.00070913       0.00998676       0.41835467       0.00014662       0.02087003       0.67534449
Cu       3.62961954      -0.00066879      12.59861168        7       0.00000000       0.00000000       0.00000000       0.00000000       0.00090900       0.00364844       0.41590338       0.00036148      -0.00650132       0.67236833
Cu       0.00101862       2.56771771      12.59716078        7       0.00000000       0.00000000       0.00000000       0.00000000      -0.00267556      -0.00613596       0.41962782      -0.00314163      -0.00539660       0.67736723
Cu       3.62969450       2.56712490      12.59897555        7       0.00000000       0.00000000       0.00000000       0.00000000       0.00042427      -0.00121001       0.41446946       0.00089126      -0.00172813       0.66258181
Cu      -0.00047342       5.13341180      12.59689367        7       0.00000000       0.00000000       0.00000000       0.00000000       0.00153747       0.00294579       0.42343874       0.00398481      -0.01225088       0.67887580
Cu       3.62881816       5.13439800      12.59935624        7       0.00000000       0.00000000       0.00000000       0.00000000       0.00315459      -0.00237382       0.41353843       0.00449585       0.00969084       0.67670546
Cu      -0.00007115       7.70138433      12.59836164        7       0.00000000       0.00000000       0.00000000       0.00000000       0.00019302      -0.00676376       0.41725205       0.00293690       0.00224180       0.68318427
Cu       3.62936263       7.70074990      12.59953804        7       0.00000000       0.00000000       0.00000000       0.00000000       0.00153043      -0.00113798       0.41318645       0.00100401       0.00357736       0.65496187
Cu       1.81500000       1.28339881      13.89700000        6       0.00000000       0.00000000       0.00000000       0.00000000      -0.00246142      -0.00126101      -0.17829908      -0.00041627       0.01310087      -0.17938661
Cu       5.44500000       1.28339881      13.89700000        6       0.00000000       0.00000000       0.00000000       0.00000000       0.00331907      -0.00088895      -0.18028805       0.00256656       0.01698453      -0.17914195
Cu       1.81500000       3.85019642      13.89700000        6       0.00000000       0.00000000       0.00000000       0.00000000      -0.00313913       0.00194142      -0.17643421      -0.01190734      -0.01219980      -0.17743079
Cu       5.44500000       3.85019642      13.89700000        6       0.00000000       0.00000000       0.00000000       0.00000000       0.00203186       0.00138981      -0.17817199       0.01228248      -0.01071296      -0.17755907
Cu       1.81500000       6.41699404      13.89700000        6       0.00000000       0.00000000       0.00000000       0.00000000      -0.00581862      -0.00059563      -0.17377469       0.00414952      -0.00395255      -0.16185311
Cu       5.44500000       6.41699404      13.89700000        6       0.00000000       0.00000000       0.00000000       0.00000000       0.00297185      -0.00069911      -0.17500980      -0.00813685      -0.00604994      -0.16061498
Cu       1.81500000       8.98379165      13.89700000        6       0.00000000       0.00000000       0.00000000       0.00000000      -0.00154084       0.00053551      -0.17360904       0.00946204       0.00633721      -0.16540689
Cu       5.44500000       8.98379165      13.89700000        6       0.00000000       0.00000000       0.00000000       0.00000000       0.00066255       0.00081423      -0.17500788      -0.00913565       0.00433066      -0.16244514
Cu       0.00000000       0.00000000      15.19600000        5       0.00000000       0.00000000       0.00000000       0.00000000       0.00021243       0.00059097      -0.19187055       0.00174243       0.02786207      -0.07714605
Cu       3.63000000       0.00000000      15.19600000        5       0.00000000       0.00000000       0.00000000       0.00000000      -0.00011050      -0.00014670      -0.25461776      -0.00034002      -0.00589985      -0.14912115
Cu       0.00000000       2.56679762      15.19600000        5       0.00000000       0.00000000       0.00000000       0.00000000       0.00004872       0.00014753      -0.29541027       0.00053406      -0.00365985      -0.15331012
Cu       3.63000000       2.56679762      15.19600000        5       0.00000000       0.00000000       0.00000000       0.00000000       0.00017466       0.00025569      -0.25507050      -0.00003506       0.00564256      -0.17936843
Cu       0.00000000       5.13359523      15.19600000        5       0.00000000       0.00000000       0.00000000       0.00000000      -0.00014161       0.00110793      -0.17818187      -0.00109256      -0.01401458      -0.05433880
Cu       3.63000000       5.13359523      15.19600000        5       0.00000000       0.00000000       0.00000000       0.00000000       0.00023213       0.00097673      -0.24605226       0.00098023       0.01432341      -0.11984248
Cu       0.00000000       7.70039285      15.19600000        5       0.00000000       0.00000000       0.00000000       0.00000000       0.00009970      -0.00048701      -0.23835327       0.00074192      -0.00070957      -0.14972724
Cu       3.63000000       7.70039285      15.19600000        5       0.00000000       0.00000000       0.00000000       0.00000000       0.00008192      -0.00093302      -0.24174196       0.00013920      -0.00418867      -0.13776524
Cu       1.81500000       1.28339881      16.49500000        4       0.00000000       0.00000000       0.00000000       0.00000000      -0.00133813      -0.02138125      -0.37622213      -0.00357567      -0.00505943      -0.44006143
Cu       5.44500000       1.28339881      16.49500000        4       0.00000000       0.00000000       0.00000000       0.00000000       0.01010472      -0.02531666      -0.37865269       0.01033808      -0.00734224      -0.43872027
Cu       1.81500000       3.85019642      16.49500000        4       0.00000000       0.00000000       0.00000000       0.00000000      -0.00567597       0.02575148      -0.38429260      -0.00947587      -0.01819683      -0.43985693
Cu       5.44500000       3.85019642      16.49500000        4       0.00000000       0.00000000       0.00000000       0.00000000       0.01670741       0.02755879      -0.36921811       0.01976709      -0.01840694      -0.42126727
Cu       1.81500000       6.41699404      16.49500000        4       0.00000000       0.00000000       0.00000000       0.00000000      -0.02339864      -0.01711700      -0.35815562      -0.03147298      -0.00942818      -0.39391144
Cu       5.44500000       6.41699404      16.49500000        4       0.00000000       0.00000000       0.00000000       0.00000000       0.03455620      -0.01750500      -0.34866026       0.03926776      -0.01022645      -0.38044890
Cu       1.81500000       8.98379165      16.49500000        4       0.00000000       0.00000000       0.00000000       0.00000000      -0.01901416       0.00243212      -0.37367758      -0.02880974      -0.02295894      -0.41354564
Cu       5.44500000       8.98379165      16.49500000        4       0.00000000       0.00000000       0.00000000       0.00000000       0.02800231       0.00537876      -0.37882485       0.03574615      -0.02128262      -0.41355885
Cu       0.00046870      -0.00945257      17.72719266        3       0.00000000      -0.00014359       0.00517797       0.06087724      -0.00010231       0.00503394       0.07309809       0.00066970       0.01196353       0.11587386
Cu       3.63076419      -0.00852271      17.69169861        3       0.00000000      -0.00022025       0.00605851       0.07228341      -0.00000088       0.00981996       0.07368551       0.00323558       0.01701543       0.09354439
Cu      -0.00012400       2.55996484      17.67691925        3       0.00000000       0.00002593       0.00468026       0.06769894       0.00022094       0.00741686       0.06788930       0.00076955      -0.01980848       0.09755187
Cu       3.63211488       2.56066791      17.69212653        3       0.00000000       0.00057682      -0.00180386       0.07494793      -0.00022450      -0.00386054       0.08323682      -0.00248304      -0.00023420       0.06452219
Cu       0.00082752       5.12265334      17.73490245        3       0.00000000       0.00045027       0.00022219       0.05688967      -0.00004810       0.00054276       0.06794487       0.00173188       0.02690435       0.15002799
Cu       3.63162953       5.12707012      17.69378728        3       0.00000000       0.00129434      -0.00049385       0.07173130       0.00042705      -0.00088652       0.07532795      -0.00189737      -0.02159335       0.06637156
Cu       0.00000689       7.68970044      17.70123506        3       0.00000000       0.00015580       0.00169543       0.05241260       0.00040345       0.00131056       0.05151725       0.00324465       0.00062998       0.03295838
Cu       3.63172643       7.68791031      17.69549532        3       0.00000000       0.00061521       0.00289594       0.06544680      -0.00011202       0.00449470       0.06832870       0.00148875      -0.02113218       0.04571627
Cu       1.82540704       1.26082397      18.99596516        2       0.00000000       0.00390196       0.00351081       0.12549657       0.00353755       0.00049239       0.13416602      -0.01103668       0.07124151      -0.01404354
Cu       5.43719640       1.26065263      18.99716499        2       0.00000000      -0.00421525       0.00450123       0.12415534      -0.00390571       0.00180217       0.13225739       0.01097670       0.07285727      -0.01122484
Cu       1.82176994       3.83471182      18.99221427        2       0.00000000       0.00634801      -0.00600238       0.11833008       0.00266902      -0.00525274       0.12782357       0.01049730      -0.05830592      -0.00071058
Cu       5.44457124       3.83800257      19.00062371        2       0.00000000      -0.00452717      -0.00543502       0.11918321      -0.00206751      -0.00569652       0.12701125      -0.01572924      -0.06509156       0.02148633
Cu       1.81165714       6.39407558      18.99957820        2       0.00000000       0.01418199      -0.00082060       0.10671338       0.02046726      -0.00372950       0.11040127       0.01699236       0.06175760      -0.00829155
Cu       5.45412053       6.38928605      19.00557692        2       0.00000000      -0.01286327      -0.00074848       0.10787441      -0.02034143      -0.00276807       0.10916709      -0.01678836       0.06140669      -0.01133849
Cu       1.82488503       8.96902825      18.98745083        2       0.00000000       0.00688990       0.00214886       0.11324799       0.00851408      -0.00058847       0.11826583       0.03854607      -0.07958977      -0.01283637
Cu       5.43784450       8.96935190      18.98778706        2       0.00000000      -0.00711545       0.00202010       0.11196403      -0.00849401      -0.00173539       0.11645568      -0.03875694      -0.08062569      -0.00885897
Cu       0.00475258       0.02348729      20.20755530        1       0.00000000      -0.00181143      -0.00873451       0.14104593      -0.00121756      -0.01747399       0.14026274       0.00403481       0.17499409      -0.43028413
Cu       3.63066624      -0.02701361      20.15767117        1       0.00000000       0.00004975       0.01143647       0.13988343      -0.00028584       0.01481363       0.14096840      -0.00310531       0.02678807      -0.12315529
Cu       0.00100845       2.53390740      20.09833642        1       0.00000000       0.00094991      -0.00770584       0.14005754       0.00126239      -0.01583875       0.14775614       0.00770612      -0.00244908      -0.02163374
Cu       3.63090738       2.54863745      20.15144608        1       0.00000000      -0.00039415      -0.00095383       0.14664900      -0.00085552      -0.00122332       0.15095710       0.00883873       0.00033626      -0.06351964
Cu       0.01155872       5.08313128      20.23665064        1       0.00000000       0.00100520      -0.01801086       0.12750171      -0.00106420      -0.02322139       0.13647589       0.01657038       0.02168084      -0.39452604
Cu       3.63012498       5.11217240      20.15259088        1       0.00000000      -0.00138379       0.00032039       0.14110195      -0.00073784       0.00237801       0.15095227       0.00126805      -0.01106955      -0.09699260
Cu       0.00013318       7.68874153      20.15973301        1       0.00000000       0.00068281       0.00212549       0.13770137       0.00107813      -0.00824042       0.14191859       0.00418388       0.07586399       0.10553934
Cu       3.63270241       7.67226017      20.15371865        1       0.00000000      -0.00051529       0.00575844       0.13360756      -0.00247488       0.01017545       0.13957748      -0.00739781       0.01076583      -0.10958246
O       -0.00913588       9.72631130      22.06411813        0       0.00000000      -0.00695961       0.05326274       0.05779246      -0.01425968       0.00745505       0.09225323      -0.03691896      -0.37831908       0.73581045
C       -0.04807309       8.46083372      22.02605430        0       0.00000000      -0.00573902       0.00185831       0.06865013      -0.00531185       0.03312714       0.05630851       0.01599774      -0.02798635       0.33092366
O       -0.11046645       7.58376857      22.88959932        0       0.00000000      -0.01179587       0.01808241       0.04692222      -0.01051393       0.00795903       0.04083524      -0.03673152       0.01512892       0.23829538
H        0.02093808       5.92326575      22.57978891        0       0.00000000       0.02748065       0.05931703       0.01027526       0.02874298      -0.00785534       0.01051588       0.01576608      -0.00509842      -0.56964800
O        0.15092585       4.99459896      22.22593191        0       0.50000000       0.00379061      -0.05331450       0.01640044      -0.00020488      -0.01686346       0.03976009      -0.00396459       0.17584047       0.02567565
H       -0.56802846       4.44286188      22.57941967        0       0.50000000      -0.03793433       0.00142223       0.00704832      -0.03603079       0.02690367       0.01870782      -0.03170734       0.02133377       0.09678847
62
Lattice="7.26 0.0 0.0 0.0 10.26719046282867 0.0 0.0 0.0 30.392" Properties=species:S:1:pos:R:3:tags:I:1:initial_magmoms:R:1:MACE_forces:R:3:forces:R:3:DFT_forces:R:3 MACE_energy=-252.10124120647234 energy=-252.087500241033 stress="0.0044975561111709125 8.810443933857045e-07 0.00010728813243967474 8.810443933857045e-07 0.006489355393789003 -5.9733471431731176e-05 0.00010728813243967474 -5.9733471431731176e-05 -0.0008584545804065417" free_energy=-252.087500241033 DFT_energy=-257.59069534 pbc="T T T"
Cu       0.00033949      -0.00174187      12.59832408        7       0.00000000       0.00000000       0.00000000       0.00000000      -0.00070913       0.00998676       0.41835467       0.00008960       0.02093301       0.67535413
Cu       3.62961954      -0.00066879      12.59861168        7       0.00000000       0.00000000       0.00000000       0.00000000       0.00090900       0.00364844       0.41590338       0.00030127      -0.00635771       0.67229025
Cu       0.00101862       2.56771771      12.59716078        7       0.00000000       0.00000000       0.00000000       0.00000000      -0.00267556      -0.00613596       0.41962782      -0.00319100      -0.00533148       0.67743555
Cu       3.62969450       2.56712490      12.59897555        7       0.00000000       0.00000000       0.00000000       0.00000000       0.00042427      -0.00121001       0.41446946       0.00077088      -0.00165544       0.66255908
Cu      -0.00047342       5.13341180      12.59689367        7       0.00000000       0.00000000       0.00000000       0.00000000       0.00153747       0.00294579       0.42343874       0.00398277      -0.01203287       0.67891496
Cu       3.62881816       5.13439800      12.59935624        7       0.00000000       0.00000000       0.00000000       0.00000000       0.00315459      -0.00237382       0.41353843       0.00443400       0.00972140       0.67680448
Cu      -0.00007115       7.70138433      12.59836164        7       0.00000000       0.00000000       0.00000000       0.00000000       0.00019302      -0.00676376       0.41725205       0.00303026       0.00224664       0.68327148
Cu       3.62936263       7.70074990      12.59953804        7       0.00000000       0.00000000       0.00000000       0.00000000       0.00153043      -0.00113798       0.41318645       0.00089588       0.00369342       0.65499630
Cu       1.81500000       1.28339881      13.89700000        6       0.00000000       0.00000000       0.00000000       0.00000000      -0.00246142      -0.00126101      -0.17829908      -0.00037770       0.01313323      -0.17942043
Cu       5.44500000       1.28339881      13.89700000        6       0.00000000       0.00000000       0.00000000       0.00000000       0.00331907      -0.00088895      -0.18028805       0.00252975       0.01706632      -0.17915023
Cu       1.81500000       3.85019642      13.89700000        6       0.00000000       0.00000000       0.00000000       0.00000000      -0.00313913       0.00194142      -0.17643421      -0.01192408      -0.01226141      -0.17756962
Cu       5.44500000       3.85019642      13.89700000        6       0.00000000       0.00000000       0.00000000       0.00000000       0.00203186       0.00138981      -0.17817199       0.01223735      -0.01060410      -0.17761093
Cu       1.81500000       6.41699404      13.89700000        6       0.00000000       0.00000000       0.00000000       0.00000000      -0.00581862      -0.00059563      -0.17377469       0.00404259      -0.00372244      -0.16194032
Cu       5.44500000       6.41699404      13.89700000        6       0.00000000       0.00000000       0.00000000       0.00000000       0.00297185      -0.00069911      -0.17500980      -0.00818534      -0.00604770      -0.16068282
Cu       1.81500000       8.98379165      13.89700000        6       0.00000000       0.00000000       0.00000000       0.00000000      -0.00154084       0.00053551      -0.17360904       0.00946798       0.00635943      -0.16561750
Cu       5.44500000       8.98379165      13.89700000        6       0.00000000       0.00000000       0.00000000       0.00000000       0.00066255       0.00081423      -0.17500788      -0.00924806       0.00435372      -0.16246871
Cu       0.00000000       0.00000000      15.19600000        5       0.00000000       0.00000000       0.00000000       0.00000000       0.00021243       0.00059097      -0.19187055       0.00173356       0.02781635      -0.07861977
Cu       3.63000000       0.00000000      15.19600000        5       0.00000000       0.00000000       0.00000000       0.00000000      -0.00011050      -0.00014670      -0.25461776      -0.00047075      -0.00583384      -0.14971483
Cu       0.00000000       2.56679762      15.19600000        5       0.00000000       0.00000000       0.00000000       0.00000000       0.00004872       0.00014753      -0.29541027       0.00041199      -0.00378822      -0.15398070
Cu       3.63000000       2.56679762      15.19600000        5       0.00000000       0.00000000       0.00000000       0.00000000       0.00017466       0.00025569      -0.25507050      -0.00003367       0.00570635      -0.18031125
Cu       0.00000000       5.13359523      15.19600000        5       0.00000000       0.00000000       0.00000000       0.00000000      -0.00014161       0.00110793      -0.17818187      -0.00130300      -0.01393528      -0.05572888
Cu       3.63000000       5.13359523      15.19600000        5       0.00000000       0.00000000       0.00000000       0.00000000       0.00023213       0.00097673      -0.24605226       0.00100104       0.01426394      -0.12062754
Cu       0.00000000       7.70039285      15.19600000        5       0.00000000       0.00000000       0.00000000       0.00000000       0.00009970      -0.00048701      -0.23835327       0.00073126      -0.00079566      -0.15023199
Cu       3.63000000       7.70039285      15.19600000        5       0.00000000       0.00000000       0.00000000       0.00000000       0.00008192      -0.00093302      -0.24174196       0.00009835      -0.00433904      -0.13828792
Cu       1.81500000       1.28339881      16.49500000        4       0.00000000       0.00000000       0.00000000       0.00000000      -0.00133813      -0.02138125      -0.37622213      -0.00300053      -0.00347567      -0.44173011
Cu       5.44500000       1.28339881      16.49500000        4       0.00000000       0.00000000       0.00000000       0.00000000       0.01010472      -0.02531666      -0.37865269       0.01027819      -0.00583494      -0.44055062
Cu       1.81500000       3.85019642      16.49500000        4       0.00000000       0.00000000       0.00000000       0.00000000      -0.00567597       0.02575148      -0.38429260      -0.00912240      -0.01684356      -0.44197738
Cu       5.44500000       3.85019642      16.49500000        4       0.00000000       0.00000000       0.00000000       0.00000000       0.01670741       0.02755879      -0.36921811       0.02002259      -0.01701339      -0.42329183
Cu       1.81500000       6.41699404      16.49500000        4       0.00000000       0.00000000       0.00000000       0.00000000      -0.02339864      -0.01711700      -0.35815562      -0.03126050      -0.00767766      -0.39567503
Cu       5.44500000       6.41699404      16.49500000        4       0.00000000       0.00000000       0.00000000       0.00000000       0.03455620      -0.01750500      -0.34866026       0.03940436      -0.00839350      -0.38196424
Cu       1.81500000       8.98379165      16.49500000        4       0.00000000       0.00000000       0.00000000       0.00000000      -0.01901416       0.00243212      -0.37367758      -0.02833256      -0.02181093      -0.41521049
Cu       5.44500000       8.98379165      16.49500000        4       0.00000000       0.00000000       0.00000000       0.00000000       0.02800231       0.00537876      -0.37882485       0.03545149      -0.02003655      -0.41509003
Cu       0.00051278      -0.00862496      17.72659112        3       0.00000000      -0.00013488       0.00520120       0.06212928      -0.00010231       0.00503394       0.07309809       0.00087739       0.01223697       0.11762265
Cu       3.63079006      -0.00771302      17.69149591        3       0.00000000      -0.00019783       0.00641049       0.07241736      -0.00000088       0.00981996       0.07368551       0.00309716       0.01788245       0.09428700
Cu      -0.00010109       2.56067226      17.67666186        3       0.00000000       0.00004580       0.00495722       0.06774347       0.00022094       0.00741686       0.06788930       0.00080169      -0.01900425       0.09817914
Cu       3.63218223       2.56158485      17.69173717        3       0.00000000       0.00049429      -0.00199968       0.07579582      -0.00022450      -0.00386054       0.08323682      -0.00287317       0.00043311       0.06504581
Cu       0.00089011       5.12346120      17.73425902        3       0.00000000       0.00040194       0.00030003       0.05811701      -0.00004810       0.00054276       0.06794487       0.00158989       0.02691904       0.15188361
Cu       3.63169170       5.12802446      17.69345195        3       0.00000000       0.00119395      -0.00055524       0.07212800       0.00042705      -0.00088652       0.07532795      -0.00214283      -0.02111175       0.06704495
Cu       0.00002751       7.69056198      17.70097786        3       0.00000000       0.00018906       0.00163979       0.05234915       0.00040345       0.00131056       0.05151725       0.00351313       0.00122789       0.03294027
Cu       3.63180495       7.68872816      17.69528464        3       0.00000000       0.00052560       0.00306954       0.06575678      -0.00011202       0.00449470       0.06832870       0.00148236      -0.02032200       0.04615746
Cu       1.82562275       1.26294970      18.99549243        2       0.00000000       0.00382350       0.00319546       0.12640781       0.00353755       0.00049239       0.13416602      -0.01127662       0.07099637      -0.01271706
Cu       5.43715694       1.26278007      18.99664275        2       0.00000000      -0.00414936       0.00422158       0.12500501      -0.00390571       0.00180217       0.13225739       0.01066833       0.07288248      -0.00956264
Cu       1.82205069       3.83667437      18.99167766        2       0.00000000       0.00597547      -0.00593755       0.11933570       0.00266902      -0.00525274       0.12782357       0.00971061      -0.05902345       0.00062664
Cu       5.44453389       3.84007743      19.00022934        2       0.00000000      -0.00427585      -0.00547830       0.12003707      -0.00206751      -0.00569652       0.12701125      -0.01543444      -0.06603783       0.02268206
Cu       1.81161453       6.39632064      18.99918107        2       0.00000000       0.01480587      -0.00119440       0.10711017       0.02046726      -0.00372950       0.11040127       0.01828707       0.06134359      -0.00789002
Cu       5.45439384       6.39129802      19.00526217        2       0.00000000      -0.01363228      -0.00101339       0.10801318      -0.02034143      -0.00276807       0.10916709      -0.01792539       0.06076192      -0.01123069
Cu       1.82510197       8.97114490      18.98718006        2       0.00000000       0.00707122       0.00184010       0.11380460       0.00851408      -0.00058847       0.11826583       0.03933969      -0.08099945      -0.01214143
Cu       5.43780371       8.97144586      18.98741398        2       0.00000000      -0.00727136       0.00161520       0.11245260      -0.00849401      -0.00173539       0.11645568      -0.03915090      -0.08213782      -0.00796976
Cu       0.00500733       0.02691575      20.20640567        1       0.00000000      -0.00177568      -0.00963020       0.14108962      -0.00121756      -0.01747399       0.14026274       0.00513346       0.17262838      -0.43040584
Cu       3.63078965      -0.02486750      20.15746080        1       0.00000000       0.00002291       0.01176385       0.14008104      -0.00028584       0.01481363       0.14096840      -0.00355063       0.02589643      -0.12370752
Cu       0.00108192       2.53711421      20.09782971        1       0.00000000       0.00096465      -0.00860498       0.14087096       0.00126239      -0.01583875       0.14775614       0.00724114      -0.00660505      -0.02190783
Cu       3.63103586       2.55081189      20.15106648        1       0.00000000      -0.00044704      -0.00095942       0.14718849      -0.00085552      -0.00122332       0.15095710       0.00860845       0.00056369      -0.06358731
Cu       0.01204337       5.08626797      20.23547807        1       0.00000000       0.00076897      -0.01857806       0.12832464      -0.00106420      -0.02322139       0.13647589       0.01473373       0.02017391      -0.39510202
Cu       3.63009758       5.11437129      20.15199828        1       0.00000000      -0.00132250       0.00052415       0.14220475      -0.00073784       0.00237801       0.15095227       0.00149226      -0.01107344      -0.09646894
Cu       0.00018985       7.69226351      20.15910126        1       0.00000000       0.00072970       0.00105610       0.13785169       0.00107813      -0.00824042       0.14191859       0.00350226       0.07607674       0.10606299
Cu       3.63292297       7.67428022      20.15337531        1       0.00000000      -0.00072341       0.00622202       0.13425606      -0.00247488       0.01017545       0.13957748      -0.00845722       0.01133204      -0.10928340
O       -0.01165941       9.73074276      22.06281714        0       0.00000000      -0.00747350       0.05141569       0.06075888      -0.01425968       0.00745505       0.09225323      -0.03981633      -0.37998301       0.73853430
C       -0.05445555       8.46534790      22.02481165        0       0.00000000      -0.00590900       0.00284917       0.06840422      -0.00531185       0.03312714       0.05630851       0.01212156      -0.02836656       0.32890405
O       -0.12357954       7.58865196      22.88821246        0       0.00000000      -0.01192234       0.01698420       0.04670298      -0.01051393       0.00795903       0.04083524      -0.03538211       0.01576401       0.24167135
H        0.01449554       5.92876008      22.57787248        0       0.00000000       0.02755909       0.05636624       0.01114030       0.02874298      -0.00785534       0.01051588       0.02515808      -0.00567919      -0.56921501
O        0.15183309       5.00095316      22.22430364        0       0.50000000       0.00435509      -0.05266773       0.01820638      -0.00020488      -0.01686346       0.03976009      -0.00354678       0.17263309       0.02676853
H       -0.56226938       4.44302636      22.57790002        0       0.50000000      -0.03842677       0.00228891       0.00830195      -0.03603079       0.02690367       0.01870782      -0.03226742       0.02308926       0.09860562
62
Lattice="7.26 0.0 0.0 0.0 10.26719046282867 0.0 0.0 0.0 30.392" Properties=species:S:1:pos:R:3:tags:I:1:initial_magmoms:R:1:MACE_forces:R:3:forces:R:3:DFT_forces:R:3 MACE_energy=-252.0997107574504 energy=-252.087500241033 stress="0.0044975561111709125 8.810443933857045e-07 0.00010728813243967474 8.810443933857045e-07 0.006489355393789003 -5.9733471431731176e-05 0.00010728813243967474 -5.9733471431731176e-05 -0.0008584545804065417" free_energy=-252.087500241033 DFT_energy=-257.58977058 pbc="T T T"
Cu       0.00033949      -0.00174187      12.59832408        7       0.00000000       0.00000000       0.00000000       0.00000000      -0.00070913       0.00998676       0.41835467      -0.00001294       0.02112031       0.67530566
Cu       3.62961954      -0.00066879      12.59861168        7       0.00000000       0.00000000       0.00000000       0.00000000       0.00090900       0.00364844       0.41590338       0.00020229      -0.00609496       0.67215963
Cu       0.00101862       2.56771771      12.59716078        7       0.00000000       0.00000000       0.00000000       0.00000000      -0.00267556      -0.00613596       0.41962782      -0.00327586      -0.00514429       0.67734102
Cu       3.62969450       2.56712490      12.59897555        7       0.00000000       0.00000000       0.00000000       0.00000000       0.00042427      -0.00121001       0.41446946       0.00061663      -0.00145325       0.66238783
Cu      -0.00047342       5.13341180      12.59689367        7       0.00000000       0.00000000       0.00000000       0.00000000       0.00153747       0.00294579       0.42343874       0.00395196      -0.01168178       0.67878236
Cu       3.62881816       5.13439800      12.59935624        7       0.00000000       0.00000000       0.00000000       0.00000000       0.00315459      -0.00237382       0.41353843       0.00434521       0.00987058       0.67673090
Cu      -0.00007115       7.70138433      12.59836164        7       0.00000000       0.00000000       0.00000000       0.00000000       0.00019302      -0.00676376       0.41725205       0.00308978       0.00237840       0.68311555
Cu       3.62936263       7.70074990      12.59953804        7       0.00000000       0.00000000       0.00000000       0.00000000       0.00153043      -0.00113798       0.41318645       0.00075858       0.00393115       0.65487235
Cu       1.81500000       1.28339881      13.89700000        6       0.00000000       0.00000000       0.00000000       0.00000000      -0.00246142      -0.00126101      -0.17829908      -0.00037085       0.01329212      -0.17960929
Cu       5.44500000       1.28339881      13.89700000        6       0.00000000       0.00000000       0.00000000       0.00000000       0.00331907      -0.00088895      -0.18028805       0.00246203       0.01727384      -0.17931140
Cu       1.81500000       3.85019642      13.89700000        6       0.00000000       0.00000000       0.00000000       0.00000000      -0.00313913       0.00194142      -0.17643421      -0.01197174      -0.01220182      -0.17785685
Cu       5.44500000       3.85019642      13.89700000        6       0.00000000       0.00000000       0.00000000       0.00000000       0.00203186       0.00138981      -0.17817199       0.01215763      -0.01038067      -0.17782600
Cu       1.81500000       6.41699404      13.89700000        6       0.00000000       0.00000000       0.00000000       0.00000000      -0.00581862      -0.00059563      -0.17377469       0.00389855      -0.00337099      -0.16217037
Cu       5.44500000       6.41699404      13.89700000        6       0.00000000       0.00000000       0.00000000       0.00000000       0.00297185      -0.00069911      -0.17500980      -0.00826593      -0.00592426      -0.16089382
Cu       1.81500000       8.98379165      13.89700000        6       0.00000000       0.00000000       0.00000000       0.00000000      -0.00154084       0.00053551      -0.17360904       0.00943445       0.00650491      -0.16597349
Cu       5.44500000       8.98379165      13.89700000        6       0.00000000       0.00000000       0.00000000       0.00000000       0.00066255       0.00081423      -0.17500788      -0.00939112       0.00449624      -0.16263470
Cu       0.00000000       0.00000000      15.19600000        5       0.00000000       0.00000000       0.00000000       0.00000000       0.00021243       0.00059097      -0.19187055       0.00169203       0.02788678      -0.08026232
Cu       3.63000000       0.00000000      15.19600000        5       0.00000000       0.00000000       0.00000000       0.00000000      -0.00011050      -0.00014670      -0.25461776      -0.00063335      -0.00564385      -0.15046611
Cu       0.00000000       2.56679762      15.19600000        5       0.00000000       0.00000000       0.00000000       0.00000000       0.00004872       0.00014753      -0.29541027       0.00025419      -0.00378661      -0.15481487
Cu       3.63000000       2.56679762      15.19600000        5       0.00000000       0.00000000       0.00000000       0.00000000       0.00017466       0.00025569      -0.25507050      -0.00006485       0.00589070      -0.18140917
Cu       0.00000000       5.13359523      15.19600000        5       0.00000000       0.00000000       0.00000000       0.00000000      -0.00014161       0.00110793      -0.17818187      -0.00154417      -0.01374252      -0.05727536
Cu       3.63000000       5.13359523      15.19600000        5       0.00000000       0.00000000       0.00000000       0.00000000       0.00023213       0.00097673      -0.24605226       0.00098725       0.01432896      -0.12157513
Cu       0.00000000       7.70039285      15.19600000        5       0.00000000       0.00000000       0.00000000       0.00000000       0.00009970      -0.00048701      -0.23835327       0.00068639      -0.00078738      -0.15089600
Cu       3.63000000       7.70039285      15.19600000        5       0.00000000       0.00000000       0.00000000       0.00000000       0.00008192      -0.00093302      -0.24174196       0.00002296      -0.00436648      -0.13896824
Cu       1.81500000       1.28339881      16.49500000        4       0.00000000       0.00000000       0.00000000       0.00000000      -0.00133813      -0.02138125      -0.37622213      -0.00246250      -0.00177155      -0.44355243
Cu       5.44500000       1.28339881      16.49500000        4       0.00000000       0.00000000       0.00000000       0.00000000       0.01010472      -0.02531666      -0.37865269       0.01018537      -0.00420399      -0.44252934
Cu       1.81500000       3.85019642      16.49500000        4       0.00000000       0.00000000       0.00000000       0.00000000      -0.00567597       0.02575148      -0.38429260      -0.00880034      -0.01536673      -0.44425684
Cu       5.44500000       3.85019642      16.49500000        4       0.00000000       0.00000000       0.00000000       0.00000000       0.01670741       0.02755879      -0.36921811       0.02024632      -0.01549075      -0.42547066
Cu       1.81500000       6.41699404      16.49500000        4       0.00000000       0.00000000       0.00000000       0.00000000      -0.02339864      -0.01711700      -0.35815562      -0.03107570      -0.00580013      -0.39759666
Cu       5.44500000       6.41699404      16.49500000        4       0.00000000       0.00000000       0.00000000       0.00000000       0.03455620      -0.01750500      -0.34866026       0.03950872      -0.00644174      -0.38364120
Cu       1.81500000       8.98379165      16.49500000        4       0.00000000       0.00000000       0.00000000       0.00000000      -0.01901416       0.00243212      -0.37367758      -0.02789423      -0.02053322      -0.41703147
Cu       5.44500000       8.98379165      16.49500000        4       0.00000000       0.00000000       0.00000000       0.00000000       0.02800231       0.00537876      -0.37882485       0.03512478      -0.01866380      -0.41677388
Cu       0.00055684      -0.00779741      17.72598958        3       0.00000000      -0.00012686       0.00521416       0.06338264      -0.00010231       0.00503394       0.07309809       0.00124325       0.01259178       0.11945410
Cu       3.63081594      -0.00690324      17.69129319        3       0.00000000      -0.00017537       0.00676474       0.07255025      -0.00000088       0.00981996       0.07368551       0.00320812       0.01888135       0.09394607
Cu      -0.00007818       2.56137969      17.67640450        3       0.00000000       0.00006612       0.00523004       0.06779232       0.00022094       0.00741686       0.06788930       0.00062855      -0.01856611       0.09848110
Cu       3.63224957       2.56250185      17.69134780        3       0.00000000       0.00041039      -0.00219474       0.07664425      -0.00022450      -0.00386054       0.08323682      -0.00282305       0.00123231       0.06591092
Cu       0.00095268       5.12426904      17.73361560        3       0.00000000       0.00035214       0.00037103       0.05934561      -0.00004810       0.00054276       0.06794487       0.00188967       0.02722608       0.15384920
Cu       3.63175388       5.12897885      17.69311658        3       0.00000000       0.00109407      -0.00061820       0.07252171       0.00042705      -0.00088652       0.07532795      -0.00253059      -0.02068901       0.06746887
Cu       0.00004812       7.69142356      17.70072065        3       0.00000000       0.00022093       0.00158354       0.05229368       0.00040345       0.00131056       0.05151725       0.00374563       0.00172402       0.03307883
Cu       3.63188349       7.68954605      17.69507397        3       0.00000000       0.00043769       0.00324291       0.06606939      -0.00011202       0.00449470       0.06832870       0.00156405      -0.01991436       0.04671148
Cu       1.82583860       1.26507558      18.99501965        2       0.00000000       0.00375703       0.00288234       0.12731939       0.00353755       0.00049239       0.13416602      -0.01164004       0.06991457      -0.01146326
Cu       5.43711737       1.26490765      18.99612047        2       0.00000000      -0.00409310       0.00394336       0.12585560      -0.00390571       0.00180217       0.13225739       0.01053228       0.07313383      -0.00864070
Cu       1.82233143       3.83863706      18.99114109        2       0.00000000       0.00559822      -0.00586820       0.12035097       0.00266902      -0.00525274       0.12782357       0.00983942      -0.05895884       0.00164416
Cu       5.44449654       3.84215246      18.99983497        2       0.00000000      -0.00402455      -0.00551870       0.12089190      -0.00206751      -0.00569652       0.12701125      -0.01470855      -0.06632076       0.02364927
Cu       1.81157202       6.39856593      18.99878391        2       0.00000000       0.01543395      -0.00155752       0.10751459       0.02046726      -0.00372950       0.11040127       0.01935053       0.06003727      -0.00767570
Cu       5.45466712       6.39331016      19.00494744        2       0.00000000      -0.01440346      -0.00127011       0.10815673      -0.02034143      -0.00276807       0.10916709      -0.01948825       0.05999766      -0.01140654
Cu       1.82531892       8.97326172      18.98690924        2       0.00000000       0.00725095       0.00153314       0.11436122       0.00851408      -0.00058847       0.11826583       0.03961606      -0.08211940      -0.01179571
Cu       5.43776292       8.97353994      18.98704089        2       0.00000000      -0.00742399       0.00120867       0.11294510      -0.00849401      -0.00173539       0.11645568      -0.03955155      -0.08291419      -0.00636064
Cu       0.00526219       0.03034416      20.20525613        1       0.00000000      -0.00173294      -0.01057870       0.14121337      -0.00121756      -0.01747399       0.14026274       0.00584580       0.17099624      -0.43060746
Cu       3.63091304      -0.02272122      20.15725036        1       0.00000000      -0.00000661       0.01209476       0.14027327      -0.00028584       0.01481363       0.14096840      -0.00364169       0.02537037      -0.12385375
Cu       0.00115542       2.54032135      20.09732310        1       0.00000000       0.00098383      -0.00949285       0.14169436       0.00126239      -0.01583875       0.14775614       0.00745301      -0.00862110      -0.02178465
Cu       3.63116436       2.55298645      20.15068684        1       0.00000000      -0.00049931      -0.00096485       0.14772573      -0.00085552      -0.00122332       0.15095710       0.00809670       0.00031051      -0.06337020
Cu       0.01252800       5.08940496      20.23430603        1       0.00000000       0.00053657      -0.01914009       0.12920096      -0.00106420      -0.02322139       0.13647589       0.01232855       0.01897356      -0.39595004
Cu       3.63007023       5.11657027      20.15140563        1       0.00000000      -0.00125907       0.00072539       0.14330518      -0.00073784       0.00237801       0.15095227       0.00167347      -0.01025390      -0.09596715
Cu       0.00024649       7.69578598      20.15847151        1       0.00000000       0.00077754      -0.00000046       0.13812619       0.00107813      -0.00824042       0.14191859       0.00287077       0.07667216       0.10655228
Cu       3.63314353       7.67630038      20.15303205        1       0.00000000      -0.00093302       0.00668558       0.13491601      -0.00247488       0.01017545       0.13957748      -0.00900695       0.01103952      -0.10915819
O       -0.01418368       9.73516551      22.06151841        0       0.00000000      -0.00802959       0.04888579       0.06378696      -0.01425968       0.00745505       0.09225323      -0.04275548      -0.38377245       0.74089403
C       -0.06083984       8.46985249      22.02357993        0       0.00000000      -0.00605595       0.00434655       0.06797063      -0.00531185       0.03312714       0.05630851       0.01347647      -0.03054563       0.32779659
O       -0.13669098       7.59355114      22.88680927        0       0.00000000      -0.01198757       0.01584155       0.04629794      -0.01051393       0.00795903       0.04083524      -0.03628191       0.01710108       0.24504347
H        0.00805416       5.93423736      22.57595021        0       0.00000000       0.02758484       0.05232666       0.01179924       0.02874298      -0.00785534       0.01051588       0.03130806      -0.01045381      -0.56222296
O        0.15271642       5.00730688      22.22269149        0       0.50000000       0.00473525      -0.05114177       0.02019898      -0.00020488      -0.01686346       0.03976009      -0.00334229       0.16842082       0.02753823
H       -0.55648799       4.44321196      22.57636963        0       0.50000000      -0.03874071       0.00360181       0.00957882      -0.03603079       0.02690367       0.01870782      -0.03276163       0.02538319       0.10033870
62
Lattice="7.26 0.0 0.0 0.0 10.26719046282867 0.0 0.0 0.0 30.392" Properties=species:S:1:pos:R:3:tags:I:1:initial_magmoms:R:1:MACE_forces:R:3:forces:R:3:DFT_forces:R:3 MACE_energy=-252.09812769504947 energy=-252.087500241033 stress="0.0044975561111709125 8.810443933857045e-07 0.00010728813243967474 8.810443933857045e-07 0.006489355393789003 -5.9733471431731176e-05 0.00010728813243967474 -5.9733471431731176e-05 -0.0008584545804065417" free_energy=-252.087500241033 DFT_energy=-257.58871828 pbc="T T T"
Cu       0.00033949      -0.00174187      12.59832408        7       0.00000000       0.00000000       0.00000000       0.00000000      -0.00070913       0.00998676       0.41835467       0.00004672       0.02107918       0.67531720
Cu       3.62961954      -0.00066879      12.59861168        7       0.00000000       0.00000000       0.00000000       0.00000000       0.00090900       0.00364844       0.41590338       0.00026045      -0.00606287       0.67205563
Cu       0.00101862       2.56771771      12.59716078        7       0.00000000       0.00000000       0.00000000       0.00000000      -0.00267556      -0.00613596       0.41962782      -0.00320216      -0.00518151       0.67737679
Cu       3.62969450       2.56712490      12.59897555        7       0.00000000       0.00000000       0.00000000       0.00000000       0.00042427      -0.00121001       0.41446946       0.00061732      -0.00148362       0.66231185
Cu      -0.00047342       5.13341180      12.59689367        7       0.00000000       0.00000000       0.00000000       0.00000000       0.00153747       0.00294579       0.42343874       0.00406931      -0.01157183       0.67880174
Cu       3.62881816       5.13439800      12.59935624        7       0.00000000       0.00000000       0.00000000       0.00000000       0.00315459      -0.00237382       0.41353843       0.00440291       0.00977671       0.67676445
Cu      -0.00007115       7.70138433      12.59836164        7       0.00000000       0.00000000       0.00000000       0.00000000       0.00019302      -0.00676376       0.41725205       0.00330248       0.00226940       0.68314588
Cu       3.62936263       7.70074990      12.59953804        7       0.00000000       0.00000000       0.00000000       0.00000000       0.00153043      -0.00113798       0.41318645       0.00077835       0.00393512       0.65489206
Cu       1.81500000       1.28339881      13.89700000        6       0.00000000       0.00000000       0.00000000       0.00000000      -0.00246142      -0.00126101      -0.17829908      -0.00021603       0.01320982      -0.17967485
Cu       5.44500000       1.28339881      13.89700000        6       0.00000000       0.00000000       0.00000000       0.00000000       0.00331907      -0.00088895      -0.18028805       0.00254672       0.01724270      -0.17935739
Cu       1.81500000       3.85019642      13.89700000        6       0.00000000       0.00000000       0.00000000       0.00000000      -0.00313913       0.00194142      -0.17643421      -0.01186278      -0.01237518      -0.17803161
Cu       5.44500000       3.85019642      13.89700000        6       0.00000000       0.00000000       0.00000000       0.00000000       0.00203186       0.00138981      -0.17817199       0.01222982      -0.01038441      -0.17791285
Cu       1.81500000       6.41699404      13.89700000        6       0.00000000       0.00000000       0.00000000       0.00000000      -0.00581862      -0.00059563      -0.17377469       0.00391040      -0.00325262      -0.16228434
Cu       5.44500000       6.41699404      13.89700000        6       0.00000000       0.00000000       0.00000000       0.00000000       0.00297185      -0.00069911      -0.17500980      -0.00819285      -0.00603352      -0.16099478
Cu       1.81500000       8.98379165      13.89700000        6       0.00000000       0.00000000       0.00000000       0.00000000      -0.00154084       0.00053551      -0.17360904       0.00955739       0.00641676      -0.16621865
Cu       5.44500000       8.98379165      13.89700000        6       0.00000000       0.00000000       0.00000000       0.00000000       0.00066255       0.00081423      -0.17500788      -0.00937987       0.00440657      -0.16269144
Cu       0.00000000       0.00000000      15.19600000        5       0.00000000       0.00000000       0.00000000       0.00000000       0.00021243       0.00059097      -0.19187055       0.00180468       0.02772179      -0.08178881
Cu       3.63000000       0.00000000      15.19600000        5       0.00000000       0.00000000       0.00000000       0.00000000      -0.00011050      -0.00014670      -0.25461776      -0.00063964      -0.00569347      -0.15109337
Cu       0.00000000       2.56679762      15.19600000        5       0.00000000       0.00000000       0.00000000       0.00000000       0.00004872       0.00014753      -0.29541027       0.00025007      -0.00400995      -0.15553181
Cu       3.63000000       2.56679762      15.19600000        5       0.00000000       0.00000000       0.00000000       0.00000000       0.00017466       0.00025569      -0.25507050       0.00005732       0.00583679      -0.18239392
Cu       0.00000000       5.13359523      15.19600000        5       0.00000000       0.00000000       0.00000000       0.00000000      -0.00014161       0.00110793      -0.17818187      -0.00163183      -0.01378349      -0.05871577
Cu       3.63000000       5.13359523      15.19600000        5       0.00000000       0.00000000       0.00000000       0.00000000       0.00023213       0.00097673      -0.24605226       0.00112847       0.01415501      -0.12240972
Cu       0.00000000       7.70039285      15.19600000        5       0.00000000       0.00000000       0.00000000       0.00000000       0.00009970      -0.00048701      -0.23835327       0.00079558      -0.00098603      -0.15144658
Cu       3.63000000       7.70039285      15.19600000        5       0.00000000       0.00000000       0.00000000       0.00000000       0.00008192      -0.00093302      -0.24174196       0.00010013      -0.00462804      -0.13953151
Cu       1.81500000       1.28339881      16.49500000        4       0.00000000       0.00000000       0.00000000       0.00000000      -0.00133813      -0.02138125      -0.37622213      -0.00176865      -0.00030383      -0.44525669
Cu       5.44500000       1.28339881      16.49500000        4       0.00000000       0.00000000       0.00000000       0.00000000       0.01010472      -0.02531666      -0.37865269       0.01024740      -0.00281321      -0.44439476
Cu       1.81500000       3.85019642      16.49500000        4       0.00000000       0.00000000       0.00000000       0.00000000      -0.00567597       0.02575148      -0.38429260      -0.00832712      -0.01412828      -0.44641165
Cu       5.44500000       3.85019642      16.49500000        4       0.00000000       0.00000000       0.00000000       0.00000000       0.01670741       0.02755879      -0.36921811       0.02063076      -0.01420415      -0.42753021
Cu       1.81500000       6.41699404      16.49500000        4       0.00000000       0.00000000       0.00000000       0.00000000      -0.02339864      -0.01711700      -0.35815562      -0.03073889      -0.00416018      -0.39940074
Cu       5.44500000       6.41699404      16.49500000        4       0.00000000       0.00000000       0.00000000       0.00000000       0.03455620      -0.01750500      -0.34866026       0.03977170      -0.00471973      -0.38519788
Cu       1.81500000       8.98379165      16.49500000        4       0.00000000       0.00000000       0.00000000       0.00000000      -0.01901416       0.00243212      -0.37367758      -0.02730165      -0.01949307      -0.41873914
Cu       5.44500000       8.98379165      16.49500000        4       0.00000000       0.00000000       0.00000000       0.00000000       0.02800231       0.00537876      -0.37882485       0.03495368      -0.01752417      -0.41834514
Cu       0.00060091      -0.00696990      17.72538801        3       0.00000000      -0.00011953       0.00521677       0.06463747      -0.00010231       0.00503394       0.07309809       0.00155243       0.01329193       0.12087341
Cu       3.63084181      -0.00609338      17.69109045        3       0.00000000      -0.00015283       0.00712125       0.07268211      -0.00000088       0.00981996       0.07368551       0.00356887       0.02054993       0.09453210
Cu      -0.00005525       2.56208713      17.67614716        3       0.00000000       0.00008692       0.00549879       0.06784551       0.00022094       0.00741686       0.06788930       0.00060969      -0.01810584       0.09846355
Cu       3.63231691       2.56341894      17.69095840        3       0.00000000       0.00032510      -0.00238908       0.07749325      -0.00022450      -0.00386054       0.08323682      -0.00271871       0.00174117       0.06682642
Cu       0.00101523       5.12507689      17.73297218        3       0.00000000       0.00030086       0.00043516       0.06057558      -0.00004810       0.00054276       0.06794487       0.00251427       0.02735402       0.15583183
Cu       3.63181607       5.12993329      17.69278115        3       0.00000000       0.00099470      -0.00068275       0.07291245       0.00042705      -0.00088652       0.07532795      -0.00206636      -0.02015426       0.06816917
Cu       0.00006872       7.69228519      17.70046345        3       0.00000000       0.00025142       0.00152683       0.05224619       0.00040345       0.00131056       0.05151725       0.00430107       0.00234261       0.03318146
Cu       3.63196205       7.69036400      17.69486332        3       0.00000000       0.00035154       0.00341608       0.06638465      -0.00011202       0.00449470       0.06832870       0.00146118      -0.01915244       0.04732995
Cu       1.82605460       1.26720166      18.99454682        2       0.00000000       0.00370255       0.00257147       0.12823134       0.00353755       0.00049239       0.13416602      -0.01142007       0.06895122      -0.00974875
Cu       5.43707768       1.26703542      18.99559813        2       0.00000000      -0.00404640       0.00366654       0.12670715      -0.00390571       0.00180217       0.13225739       0.01041931       0.07182006      -0.00809926
Cu       1.82261217       3.84059995      18.99060454        2       0.00000000       0.00521631      -0.00579438       0.12137581       0.00266902      -0.00525274       0.12782357       0.00910446      -0.05956058       0.00315537
Cu       5.44445918       3.84422768      18.99944059        2       0.00000000      -0.00377335      -0.00555611       0.12174765      -0.00206751      -0.00569652       0.12701125      -0.01435782      -0.06527850       0.02419981
Cu       1.81152960       6.40081152      18.99838673        2       0.00000000       0.01606625      -0.00190999       0.10792672       0.02046726      -0.00372950       0.11040127       0.02046675       0.05904610      -0.00702076
Cu       5.45494038       6.39532250      19.00463269        2       0.00000000      -0.01517683      -0.00151872       0.10830504      -0.02034143      -0.00276807       0.10916709      -0.02067381       0.05977640      -0.01241196
Cu       1.82553590       8.97537873      18.98663837        2       0.00000000       0.00742905       0.00122801       0.11491787       0.00851408      -0.00058847       0.11826583       0.04134253      -0.08258810      -0.01095233
Cu       5.43772215       8.97563418      18.98666777        2       0.00000000      -0.00757341       0.00080057       0.11344144      -0.00849401      -0.00173539       0.11645568      -0.03996336      -0.08361699      -0.00563575
Cu       0.00551717       0.03377260      20.20410666        1       0.00000000      -0.00168403      -0.01158021       0.14141772      -0.00121756      -0.01747399       0.14026274       0.00762490       0.16801689      -0.43067551
Cu       3.63103641      -0.02057473      20.15703984        1       0.00000000      -0.00003884       0.01242917       0.14046015      -0.00028584       0.01481363       0.14096840      -0.00416868       0.02431269      -0.12428785
Cu       0.00122895       2.54352891      20.09681657        1       0.00000000       0.00100756      -0.01036963       0.14252768       0.00126239      -0.01583875       0.14775614       0.00764661      -0.01175300      -0.02235356
Cu       3.63129289       2.55516118      20.15030713        1       0.00000000      -0.00055096      -0.00097013       0.14826074      -0.00085552      -0.00122332       0.15095710       0.00831923      -0.00024717      -0.06369064
Cu       0.01301262       5.09254233      20.23313449        1       0.00000000       0.00030783      -0.01969654       0.13013136      -0.00106420      -0.02322139       0.13647589       0.01101616       0.01644682      -0.39605232
Cu       3.63004291       5.11876940      20.15081291        1       0.00000000      -0.00119336       0.00092414       0.14440331      -0.00073784       0.00237801       0.15095227       0.00179525      -0.01066281      -0.09490109
Cu       0.00030306       7.69930901      20.15784376        1       0.00000000       0.00082471      -0.00104419       0.13852549       0.00107813      -0.00824042       0.14191859       0.00250949       0.07681777       0.10778799
Cu       3.63336409       7.67832070      20.15268884        1       0.00000000      -0.00114428       0.00714918       0.13558718      -0.00247488       0.01017545       0.13957748      -0.00980835       0.01093246      -0.10894663
O       -0.01670886       9.73957966      22.06022189        0       0.00000000      -0.00863542       0.04567560       0.06687719      -0.01425968       0.00745505       0.09225323      -0.04701775      -0.38614442       0.74667904
C       -0.06722633       8.47434768      22.02235905        0       0.00000000      -0.00617390       0.00633912       0.06735518      -0.00531185       0.03312714       0.05630851       0.01280713      -0.03070285       0.32983630
O       -0.14980067       7.59846612      22.88538981        0       0.00000000      -0.01198387       0.01466329       0.04570048      -0.01051393       0.00795903       0.04083524      -0.03781801       0.01924875       0.24785100
H        0.00161422       5.93969788      22.57402211        0       0.00000000       0.02758644       0.04719476       0.01225094       0.02874298      -0.00785534       0.01051588       0.03060007      -0.00680045      -0.56552486
O        0.15357607       5.01365971      22.22109529        0       0.50000000       0.00489575      -0.04874928       0.02238639      -0.00020488      -0.01686346       0.03976009      -0.00295647       0.16294087       0.02813607
H       -0.55068485       4.44341912      22.57482855        0       0.50000000      -0.03887290       0.00537679       0.01087052      -0.03603079       0.02690367       0.01870782      -0.03289020       0.02792101       0.10213584
62
Lattice="7.26 0.0 0.0 0.0 10.26719046282867 0.0 0.0 0.0 30.392" Properties=species:S:1:pos:R:3:tags:I:1:initial_magmoms:R:1:MACE_forces:R:3:forces:R:3:DFT_forces:R:3 MACE_energy=-252.0964910524994 energy=-252.087500241033 stress="0.0044975561111709125 8.810443933857045e-07 0.00010728813243967474 8.810443933857045e-07 0.006489355393789003 -5.9733471431731176e-05 0.00010728813243967474 -5.9733471431731176e-05 -0.0008584545804065417" free_energy=-252.087500241033 DFT_energy=-257.58759711 pbc="T T T"
Cu       0.00033949      -0.00174187      12.59832408        7       0.00000000       0.00000000       0.00000000       0.00000000      -0.00070913       0.00998676       0.41835467       0.00007414       0.02118416       0.67538633
Cu       3.62961954      -0.00066879      12.59861168        7       0.00000000       0.00000000       0.00000000       0.00000000       0.00090900       0.00364844       0.41590338       0.00028282      -0.00589017       0.67219975
Cu       0.00101862       2.56771771      12.59716078        7       0.00000000       0.00000000       0.00000000       0.00000000      -0.00267556      -0.00613596       0.41962782      -0.00316607      -0.00508971       0.67745099
Cu       3.62969450       2.56712490      12.59897555        7       0.00000000       0.00000000       0.00000000       0.00000000       0.00042427      -0.00121001       0.41446946       0.00058108      -0.00136140       0.66233074
Cu      -0.00047342       5.13341180      12.59689367        7       0.00000000       0.00000000       0.00000000       0.00000000       0.00153747       0.00294579       0.42343874       0.00414672      -0.01130506       0.67884531
Cu       3.62881816       5.13439800      12.59935624        7       0.00000000       0.00000000       0.00000000       0.00000000       0.00315459      -0.00237382       0.41353843       0.00442486       0.00984301       0.67688546
Cu      -0.00007115       7.70138433      12.59836164        7       0.00000000       0.00000000       0.00000000       0.00000000       0.00019302      -0.00676376       0.41725205       0.00347764       0.00231790       0.68316270
Cu       3.62936263       7.70074990      12.59953804        7       0.00000000       0.00000000       0.00000000       0.00000000       0.00153043      -0.00113798       0.41318645       0.00076253       0.00409375       0.65496700
Cu       1.81500000       1.28339881      13.89700000        6       0.00000000       0.00000000       0.00000000       0.00000000      -0.00246142      -0.00126101      -0.17829908      -0.00009786       0.01327535      -0.17969723
Cu       5.44500000       1.28339881      13.89700000        6       0.00000000       0.00000000       0.00000000       0.00000000       0.00331907      -0.00088895      -0.18028805       0.00259636       0.01736295      -0.17935603
Cu       1.81500000       3.85019642      13.89700000        6       0.00000000       0.00000000       0.00000000       0.00000000      -0.00313913       0.00194142      -0.17643421      -0.01179396      -0.01240079      -0.17815774
Cu       5.44500000       3.85019642      13.89700000        6       0.00000000       0.00000000       0.00000000       0.00000000       0.00203186       0.00138981      -0.17817199       0.01226578      -0.01024178      -0.17795272
Cu       1.81500000       6.41699404      13.89700000        6       0.00000000       0.00000000       0.00000000       0.00000000      -0.00581862      -0.00059563      -0.17377469       0.00388735      -0.00298630      -0.16235997
Cu       5.44500000       6.41699404      13.89700000        6       0.00000000       0.00000000       0.00000000       0.00000000       0.00297185      -0.00069911      -0.17500980      -0.00815490      -0.00599749      -0.16104504
Cu       1.81500000       8.98379165      13.89700000        6       0.00000000       0.00000000       0.00000000       0.00000000      -0.00154084       0.00053551      -0.17360904       0.00963965       0.00647791      -0.16641515
Cu       5.44500000       8.98379165      13.89700000        6       0.00000000       0.00000000       0.00000000       0.00000000       0.00066255       0.00081423      -0.17500788      -0.00940497       0.00446599      -0.16269865
Cu       0.00000000       0.00000000      15.19600000        5       0.00000000       0.00000000       0.00000000       0.00000000       0.00021243       0.00059097      -0.19187055       0.00188047       0.02770052      -0.08327503
Cu       3.63000000       0.00000000      15.19600000        5       0.00000000       0.00000000       0.00000000       0.00000000      -0.00011050      -0.00014670      -0.25461776      -0.00068486      -0.00559084      -0.15168137
Cu       0.00000000       2.56679762      15.19600000        5       0.00000000       0.00000000       0.00000000       0.00000000       0.00004872       0.00014753      -0.29541027       0.00020685      -0.00408524      -0.15619821
Cu       3.63000000       2.56679762      15.19600000        5       0.00000000       0.00000000       0.00000000       0.00000000       0.00017466       0.00025569      -0.25507050       0.00014135       0.00592070      -0.18333491
Cu       0.00000000       5.13359523      15.19600000        5       0.00000000       0.00000000       0.00000000       0.00000000      -0.00014161       0.00110793      -0.17818187      -0.00175465      -0.01368329      -0.06011429
Cu       3.63000000       5.13359523      15.19600000        5       0.00000000       0.00000000       0.00000000       0.00000000       0.00023213       0.00097673      -0.24605226       0.00123248       0.01412577      -0.12320836
Cu       0.00000000       7.70039285      15.19600000        5       0.00000000       0.00000000       0.00000000       0.00000000       0.00009970      -0.00048701      -0.23835327       0.00087056      -0.00103525      -0.15195893
Cu       3.63000000       7.70039285      15.19600000        5       0.00000000       0.00000000       0.00000000       0.00000000       0.00008192      -0.00093302      -0.24174196       0.00013947      -0.00474503      -0.14004664
Cu       1.81500000       1.28339881      16.49500000        4       0.00000000       0.00000000       0.00000000       0.00000000      -0.00133813      -0.02138125      -0.37622213      -0.00110894       0.00131416      -0.44691074
Cu       5.44500000       1.28339881      16.49500000        4       0.00000000       0.00000000       0.00000000       0.00000000       0.01010472      -0.02531666      -0.37865269       0.01027062      -0.00127275      -0.44621434
Cu       1.81500000       3.85019642      16.49500000        4       0.00000000       0.00000000       0.00000000       0.00000000      -0.00567597       0.02575148      -0.38429260      -0.00789096      -0.01273981      -0.44851782
Cu       5.44500000       3.85019642      16.49500000        4       0.00000000       0.00000000       0.00000000       0.00000000       0.01670741       0.02755879      -0.36921811       0.02097957      -0.01276525      -0.42953779
Cu       1.81500000       6.41699404      16.49500000        4       0.00000000       0.00000000       0.00000000       0.00000000      -0.02339864      -0.01711700      -0.35815562      -0.03043762      -0.00237479      -0.40115082
Cu       5.44500000       6.41699404      16.49500000        4       0.00000000       0.00000000       0.00000000       0.00000000       0.03455620      -0.01750500      -0.34866026       0.04000212      -0.00284966      -0.38670683
Cu       1.81500000       8.98379165      16.49500000        4       0.00000000       0.00000000       0.00000000       0.00000000      -0.01901416       0.00243212      -0.37367758      -0.02674273      -0.01830229      -0.42039265
Cu       5.44500000       8.98379165      16.49500000        4       0.00000000       0.00000000       0.00000000       0.00000000       0.02800231       0.00537876      -0.37882485       0.03474070      -0.01623162      -0.41986239
Cu       0.00064498      -0.00614239      17.72478642        3       0.00000000      -0.00011294       0.00520899       0.06589394      -0.00010231       0.00503394       0.07309809       0.00169689       0.01394945       0.12214542
Cu       3.63086769      -0.00528340      17.69088768        3       0.00000000      -0.00013022       0.00748001       0.07281294      -0.00000088       0.00981996       0.07368551       0.00374393       0.02144663       0.09472730
Cu      -0.00003232       2.56279461      17.67588984        3       0.00000000       0.00010818       0.00576351       0.06790310       0.00022094       0.00741686       0.06788930       0.00055713      -0.01676911       0.09914106
Cu       3.63238423       2.56433612      17.69056897        3       0.00000000       0.00023842      -0.00258271       0.07834286      -0.00022450      -0.00386054       0.08323682      -0.00304058       0.00309314       0.06687105
Cu       0.00107778       5.12588476      17.73232873        3       0.00000000       0.00024811       0.00049244       0.06180701      -0.00004810       0.00054276       0.06794487       0.00278073       0.02750414       0.15796523
Cu       3.63187826       5.13088782      17.69244564        3       0.00000000       0.00089584      -0.00074892       0.07330026       0.00042705      -0.00088652       0.07532795      -0.00222874      -0.01948946       0.06873011
Cu       0.00008930       7.69314690      17.70020623        3       0.00000000       0.00028051       0.00146965       0.05220670       0.00040345       0.00131056       0.05151725       0.00448269       0.00292218       0.03342535
Cu       3.63204063       7.69118204      17.69465269        3       0.00000000       0.00026713       0.00358901       0.06670261      -0.00011202       0.00449470       0.06832870       0.00131043      -0.01812827       0.04815432
Cu       1.82627077       1.26932797      18.99407393        2       0.00000000       0.00366007       0.00226292       0.12914369       0.00353755       0.00049239       0.13416602      -0.01159155       0.06829681      -0.00831715
Cu       5.43703788       1.26916343      18.99507574        2       0.00000000      -0.00400918       0.00339112       0.12755971      -0.00390571       0.00180217       0.13225739       0.01052990       0.07115208      -0.00651383
Cu       1.82289290       3.84256308      18.99006801        2       0.00000000       0.00482981      -0.00571603       0.12241010       0.00266902      -0.00525274       0.12782357       0.00884399      -0.05911098       0.00470248
Cu       5.44442182       3.84630316      18.99904619        2       0.00000000      -0.00352233      -0.00559056       0.12260431      -0.00206751      -0.00569652       0.12701125      -0.01378086      -0.06473663       0.02554839
Cu       1.81148728       6.40305745      18.99798950        2       0.00000000       0.01670277      -0.00225184       0.10834661       0.02046726      -0.00372950       0.11040127       0.02114240       0.05783317      -0.00646247
Cu       5.45521362       6.39733511      19.00431794        2       0.00000000      -0.01595239      -0.00175925       0.10845803      -0.02034143      -0.00276807       0.10916709      -0.02178327       0.06047297      -0.01196796
Cu       1.82575290       8.97749599      18.98636743        2       0.00000000       0.00760547       0.00092464       0.11547459       0.00851408      -0.00058847       0.11826583       0.04182056      -0.08346563      -0.01029430
Cu       5.43768138       8.97772864      18.98629462        2       0.00000000      -0.00771973       0.00039094       0.11394155      -0.00849401      -0.00173539       0.11645568      -0.04084021      -0.08345755      -0.00471703
Cu       0.00577226       0.03720115      20.20295725        1       0.00000000      -0.00162980      -0.01263479       0.14170308      -0.00121756      -0.01747399       0.14026274       0.00971512       0.16733263      -0.43112983
Cu       3.63115978      -0.01842797      20.15682924        1       0.00000000      -0.00007382       0.01276705       0.14064173      -0.00028584       0.01481363       0.14096840      -0.00433882       0.02419746      -0.12439807
Cu       0.00130252       2.54673696      20.09631013        1       0.00000000       0.00103591      -0.01123547       0.14337082       0.00126239      -0.01583875       0.14775614       0.00719309      -0.01460092      -0.02224744
Cu       3.63142144       2.55733613      20.14992737        1       0.00000000      -0.00060199      -0.00097527       0.14879354      -0.00085552      -0.00122332       0.15095710       0.00879885      -0.00002057      -0.06337972
Cu       0.01349724       5.09568016      20.23196341        1       0.00000000       0.00008257      -0.02024697       0.13111644      -0.00106420      -0.02322139       0.13647589       0.00973950       0.01416800      -0.39569123
Cu       3.63001562       5.12096873      20.15022010        1       0.00000000      -0.00112524       0.00112042       0.14549920      -0.00073784       0.00237801       0.15095227       0.00194063      -0.01112799      -0.09465789
Cu       0.00035956       7.70283270      20.15721798        1       0.00000000       0.00086963      -0.00207513       0.13905022       0.00107813      -0.00824042       0.14191859       0.00200457       0.07767922       0.10894731
Cu       3.63358465       7.68034123      20.15234567        1       0.00000000      -0.00135732       0.00761287       0.13626930      -0.00247488       0.01017545       0.13957748      -0.01036591       0.01098026      -0.10928546
O       -0.01923513       9.74398536      22.05892754        0       0.00000000      -0.00929846       0.04178841       0.07003031      -0.01425968       0.00745505       0.09225323      -0.05151061      -0.39177331       0.75025057
C       -0.07361539       8.47883369      22.02114887        0       0.00000000      -0.00625736       0.00881265       0.06656562      -0.00531185       0.03312714       0.05630851       0.01299332      -0.03323167       0.32874958
O       -0.16290851       7.60339688      22.88395416        0       0.00000000      -0.01190320       0.01346056       0.04490220      -0.01051393       0.00795903       0.04083524      -0.03806815       0.02044659       0.25276956
H       -0.00482401       5.94514192      22.57208821        0       0.00000000       0.02759266       0.04096723       0.01249402       0.02874298      -0.00785534       0.01051588       0.03235054      -0.01014118      -0.57005981
O        0.15441235       5.02001124      22.21951486        0       0.50000000       0.00479715      -0.04550715       0.02477927      -0.00020488      -0.01686346       0.03976009      -0.00263898       0.15627701       0.02853870
H       -0.54486057       4.44364823      22.57327680        0       0.50000000      -0.03881614       0.00763341       0.01216629      -0.03603079       0.02690367       0.01870782      -0.03282219       0.03116787       0.10402114
62
Lattice="7.26 0.0 0.0 0.0 10.26719046282867 0.0 0.0 0.0 30.392" Properties=species:S:1:pos:R:3:tags:I:1:initial_magmoms:R:1:MACE_forces:R:3:forces:R:3:DFT_forces:R:3 MACE_energy=-252.09479957525133 energy=-252.087500241033 stress="0.0044975561111709125 8.810443933857045e-07 0.00010728813243967474 8.810443933857045e-07 0.006489355393789003 -5.9733471431731176e-05 0.00010728813243967474 -5.9733471431731176e-05 -0.0008584545804065417" free_energy=-252.087500241033 DFT_energy=-257.58632502 pbc="T T T"
Cu       0.00033949      -0.00174187      12.59832408        7       0.00000000       0.00000000       0.00000000       0.00000000      -0.00070913       0.00998676       0.41835467      -0.00000287       0.02113713       0.67531814
Cu       3.62961954      -0.00066879      12.59861168        7       0.00000000       0.00000000       0.00000000       0.00000000       0.00090900       0.00364844       0.41590338       0.00020268      -0.00586919       0.67192406
Cu       0.00101862       2.56771771      12.59716078        7       0.00000000       0.00000000       0.00000000       0.00000000      -0.00267556      -0.00613596       0.41962782      -0.00323449      -0.00516160       0.67739025
Cu       3.62969450       2.56712490      12.59897555        7       0.00000000       0.00000000       0.00000000       0.00000000       0.00042427      -0.00121001       0.41446946       0.00044095      -0.00139037       0.66218545
Cu      -0.00047342       5.13341180      12.59689367        7       0.00000000       0.00000000       0.00000000       0.00000000       0.00153747       0.00294579       0.42343874       0.00412017      -0.01119713       0.67877936
Cu       3.62881816       5.13439800      12.59935624        7       0.00000000       0.00000000       0.00000000       0.00000000       0.00315459      -0.00237382       0.41353843       0.00434111       0.00974110       0.67682124
Cu      -0.00007115       7.70138433      12.59836164        7       0.00000000       0.00000000       0.00000000       0.00000000       0.00019302      -0.00676376       0.41725205       0.00355252       0.00220224       0.68310850
Cu       3.62936263       7.70074990      12.59953804        7       0.00000000       0.00000000       0.00000000       0.00000000       0.00153043      -0.00113798       0.41318645       0.00064234       0.00408625       0.65485709
Cu       1.81500000       1.28339881      13.89700000        6       0.00000000       0.00000000       0.00000000       0.00000000      -0.00246142      -0.00126101      -0.17829908      -0.00008528       0.01318090      -0.17984983
Cu       5.44500000       1.28339881      13.89700000        6       0.00000000       0.00000000       0.00000000       0.00000000       0.00331907      -0.00088895      -0.18028805       0.00254484       0.01732463      -0.17948369
Cu       1.81500000       3.85019642      13.89700000        6       0.00000000       0.00000000       0.00000000       0.00000000      -0.00313913       0.00194142      -0.17643421      -0.01182693      -0.01258121      -0.17841407
Cu       5.44500000       3.85019642      13.89700000        6       0.00000000       0.00000000       0.00000000       0.00000000       0.00203186       0.00138981      -0.17817199       0.01220518      -0.01025778      -0.17812459
Cu       1.81500000       6.41699404      13.89700000        6       0.00000000       0.00000000       0.00000000       0.00000000      -0.00581862      -0.00059563      -0.17377469       0.00376798      -0.00287700      -0.16256819
Cu       5.44500000       6.41699404      13.89700000        6       0.00000000       0.00000000       0.00000000       0.00000000       0.00297185      -0.00069911      -0.17500980      -0.00822608      -0.00611915      -0.16122156
Cu       1.81500000       8.98379165      13.89700000        6       0.00000000       0.00000000       0.00000000       0.00000000      -0.00154084       0.00053551      -0.17360904       0.00961912       0.00638062      -0.16673922
Cu       5.44500000       8.98379165      13.89700000        6       0.00000000       0.00000000       0.00000000       0.00000000       0.00066255       0.00081423      -0.17500788      -0.00953022       0.00437086      -0.16282787
Cu       0.00000000       0.00000000      15.19600000        5       0.00000000       0.00000000       0.00000000       0.00000000       0.00021243       0.00059097      -0.19187055       0.00185755       0.02751767      -0.08489031
Cu       3.63000000       0.00000000      15.19600000        5       0.00000000       0.00000000       0.00000000       0.00000000      -0.00011050      -0.00014670      -0.25461776      -0.00083736      -0.00565297      -0.15240112
Cu       0.00000000       2.56679762      15.19600000        5       0.00000000       0.00000000       0.00000000       0.00000000       0.00004872       0.00014753      -0.29541027       0.00006260      -0.00431356      -0.15700254
Cu       3.63000000       2.56679762      15.19600000        5       0.00000000       0.00000000       0.00000000       0.00000000       0.00017466       0.00025569      -0.25507050       0.00012486       0.00584575      -0.18440661
Cu       0.00000000       5.13359523      15.19600000        5       0.00000000       0.00000000       0.00000000       0.00000000      -0.00014161       0.00110793      -0.17818187      -0.00198138      -0.01373917      -0.06165426
Cu       3.63000000       5.13359523      15.19600000        5       0.00000000       0.00000000       0.00000000       0.00000000       0.00023213       0.00097673      -0.24605226       0.00123496       0.01393062      -0.12414277
Cu       0.00000000       7.70039285      15.19600000        5       0.00000000       0.00000000       0.00000000       0.00000000       0.00009970      -0.00048701      -0.23835327       0.00084332      -0.00124213      -0.15259796
Cu       3.63000000       7.70039285      15.19600000        5       0.00000000       0.00000000       0.00000000       0.00000000       0.00008192      -0.00093302      -0.24174196       0.00007645      -0.00501339      -0.14069512
Cu       1.81500000       1.28339881      16.49500000        4       0.00000000       0.00000000       0.00000000       0.00000000      -0.00133813      -0.02138125      -0.37622213      -0.00055233       0.00277370      -0.44869885
Cu       5.44500000       1.28339881      16.49500000        4       0.00000000       0.00000000       0.00000000       0.00000000       0.01010472      -0.02531666      -0.37865269       0.01019265       0.00010689      -0.44816275
Cu       1.81500000       3.85019642      16.49500000        4       0.00000000       0.00000000       0.00000000       0.00000000      -0.00567597       0.02575148      -0.38429260      -0.00755551      -0.01150748      -0.45075174
Cu       5.44500000       3.85019642      16.49500000        4       0.00000000       0.00000000       0.00000000       0.00000000       0.01670741       0.02755879      -0.36921811       0.02122869      -0.01147952      -0.43167378
Cu       1.81500000       6.41699404      16.49500000        4       0.00000000       0.00000000       0.00000000       0.00000000      -0.02339864      -0.01711700      -0.35815562      -0.03023602      -0.00075028      -0.40303190
Cu       5.44500000       6.41699404      16.49500000        4       0.00000000       0.00000000       0.00000000       0.00000000       0.03455620      -0.01750500      -0.34866026       0.04013167      -0.00113729      -0.38835098
Cu       1.81500000       8.98379165      16.49500000        4       0.00000000       0.00000000       0.00000000       0.00000000      -0.01901416       0.00243212      -0.37367758      -0.02628458      -0.01726678      -0.42217523
Cu       5.44500000       8.98379165      16.49500000        4       0.00000000       0.00000000       0.00000000       0.00000000       0.02800231       0.00537876      -0.37882485       0.03442090      -0.01509286      -0.42150856
Cu       0.00068904      -0.00531489      17.72418479        3       0.00000000      -0.00010707       0.00519079       0.06715220      -0.00010231       0.00503394       0.07309809       0.00199146       0.01456650       0.12359104
Cu       3.63089358      -0.00447330      17.69068488        3       0.00000000      -0.00010750       0.00784100       0.07294278      -0.00000088       0.00981996       0.07368551       0.00405119       0.02232520       0.09452794
Cu      -0.00000938       2.56350213      17.67563252        3       0.00000000       0.00012991       0.00602423       0.06796511       0.00022094       0.00741686       0.06788930       0.00039610      -0.01619973       0.09965072
Cu       3.63245155       2.56525342      17.69017950        3       0.00000000       0.00015034      -0.00277565       0.07919310      -0.00022450      -0.00386054       0.08323682      -0.00363445       0.00404015       0.06771870
Cu       0.00114032       5.12669266      17.73168525        3       0.00000000       0.00019389       0.00054288       0.06304000      -0.00004810       0.00054276       0.06794487       0.00263071       0.02805664       0.15990207
Cu       3.63194047       5.13184245      17.69211007        3       0.00000000       0.00079749      -0.00081671       0.07368516       0.00042705      -0.00088652       0.07532795      -0.00225496      -0.01885432       0.06887769
Cu       0.00010988       7.69400870      17.69994900        3       0.00000000       0.00030822       0.00141209       0.05217522       0.00040345       0.00131056       0.05151725       0.00472888       0.00369886       0.03330950
Cu       3.63211924       7.69200018      17.69444206        3       0.00000000       0.00018449       0.00376170       0.06702329      -0.00011202       0.00449470       0.06832870       0.00107444      -0.01787443       0.04877285
Cu       1.82648709       1.27145458      18.99360096        2       0.00000000       0.00362958       0.00195674       0.13005645       0.00353755       0.00049239       0.13416602      -0.01196041       0.06729045      -0.00730536
Cu       5.43699795       1.27129172      18.99455327        2       0.00000000      -0.00398140       0.00311714       0.12841328      -0.00390571       0.00180217       0.13225739       0.00996612       0.07032539      -0.00540635
Cu       1.82317364       3.84452649      18.98953146        2       0.00000000       0.00443878      -0.00563318       0.12345377       0.00266902      -0.00525274       0.12782357       0.00895854      -0.05842650       0.00630808
Cu       5.44438445       3.84837895      18.99865176        2       0.00000000      -0.00327154      -0.00562207       0.12346187      -0.00206751      -0.00569652       0.12701125      -0.01391807      -0.06366606       0.02698601
Cu       1.81144505       6.40530377      18.99759221        2       0.00000000       0.01734356      -0.00258309       0.10877430       0.02046726      -0.00372950       0.11040127       0.02192572       0.05647595      -0.00587994
Cu       5.45548685       6.39934803      19.00400316        2       0.00000000      -0.01673018      -0.00199174       0.10861566      -0.02034143      -0.00276807       0.10916709      -0.02254099       0.06021561      -0.01231379
Cu       1.82596994       8.97961356      18.98609643        2       0.00000000       0.00778019       0.00062299       0.11603141       0.00851408      -0.00058847       0.11826583       0.04194985      -0.08349302      -0.00958033
Cu       5.43764062       8.97982335      18.98592144        2       0.00000000      -0.00786304      -0.00002017       0.11444534      -0.00849401      -0.00173539       0.11645568      -0.04070214      -0.08356161      -0.00359058
Cu       0.00602747       0.04062989      20.20180788        1       0.00000000      -0.00157107      -0.01374248       0.14206974      -0.00121756      -0.01747399       0.14026274       0.01198450       0.16637918      -0.43267502
Cu       3.63128313      -0.01628090      20.15661855        1       0.00000000      -0.00011158       0.01310836       0.14081806      -0.00028584       0.01481363       0.14096840      -0.00533080       0.02487137      -0.12461425
Cu       0.00137613       2.54994559      20.09580374        1       0.00000000       0.00106894      -0.01209050       0.14422372       0.00126239      -0.01583875       0.14775614       0.00760070      -0.01849311      -0.02275140
Cu       3.63155003       2.55951136      20.14954753        1       0.00000000      -0.00065238      -0.00098028       0.14932414      -0.00085552      -0.00122332       0.15095710       0.00829939       0.00021332      -0.06331960
Cu       0.01398185       5.09881851      20.23079278        1       0.00000000      -0.00013943      -0.02079095       0.13215678      -0.00106420      -0.02322139       0.13647589       0.00910099       0.01131113      -0.39516750
Cu       3.62998838       5.12316830      20.14962720        1       0.00000000      -0.00105460       0.00131429       0.14659293      -0.00073784       0.00237801       0.15095227       0.00204504      -0.01146418      -0.09396343
Cu       0.00041595       7.70635712      20.15659417        1       0.00000000       0.00091067      -0.00309327       0.13970109       0.00107813      -0.00824042       0.14191859       0.00150984       0.07865205       0.11004843
Cu       3.63380523       7.68236201      20.15200255        1       0.00000000      -0.00157226       0.00807673       0.13696211      -0.00247488       0.01017545       0.13957748      -0.01093739       0.01141491      -0.10994310
O       -0.02176265       9.74838273      22.05763531        0       0.00000000      -0.01002617       0.03722787       0.07324722      -0.01425968       0.00745505       0.09225323      -0.05667272      -0.39724481       0.75448747
C       -0.08000740       8.48331075      22.01994925        0       0.00000000      -0.00630131       0.01175067       0.06561116      -0.00531185       0.03312714       0.05630851       0.01306722      -0.03622350       0.32979320
O       -0.17601439       7.60834338      22.88250239        0       0.00000000      -0.01173717       0.01224665       0.04389314      -0.01051393       0.00795903       0.04083524      -0.03944746       0.02486849       0.25656284
H       -0.01126024       5.95056982      22.57014854        0       0.00000000       0.02763244       0.03364122       0.01252701       0.02874298      -0.00785534       0.01051588       0.03978765      -0.00814990      -0.56734968
O        0.15522564       5.02636110      22.21794995        0       0.50000000       0.00439617      -0.04143703       0.02739069      -0.00020488      -0.01686346       0.03976009      -0.00233447       0.14821260       0.02859098
H       -0.53901583       4.44389961      22.57171449        0       0.50000000      -0.03855941       0.01039517       0.01345304      -0.03603079       0.02690367       0.01870782      -0.03259194       0.03478380       0.10572226
62
Lattice="7.26 0.0 0.0 0.0 10.26719046282867 0.0 0.0 0.0 30.392" Properties=species:S:1:pos:R:3:tags:I:1:initial_magmoms:R:1:MACE_forces:R:3:forces:R:3:DFT_forces:R:3 MACE_energy=-252.09305171813938 energy=-252.087500241033 stress="0.0044975561111709125 8.810443933857045e-07 0.00010728813243967474 8.810443933857045e-07 0.006489355393789003 -5.9733471431731176e-05 0.00010728813243967474 -5.9733471431731176e-05 -0.0008584545804065417" free_energy=-252.087500241033 DFT_energy=-257.5849629 pbc="T T T"
Cu       0.00033949      -0.00174187      12.59832408        7       0.00000000       0.00000000       0.00000000       0.00000000      -0.00070913       0.00998676       0.41835467       0.00008909       0.02100497       0.67539346
Cu       3.62961954      -0.00066879      12.59861168        7       0.00000000       0.00000000       0.00000000       0.00000000       0.00090900       0.00364844       0.41590338       0.00029281      -0.00593443       0.67201253
Cu       0.00101862       2.56771771      12.59716078        7       0.00000000       0.00000000       0.00000000       0.00000000      -0.00267556      -0.00613596       0.41962782      -0.00313265      -0.00530813       0.67747009
Cu       3.62969450       2.56712490      12.59897555        7       0.00000000       0.00000000       0.00000000       0.00000000       0.00042427      -0.00121001       0.41446946       0.00046772      -0.00150720       0.66216922
Cu      -0.00047342       5.13341180      12.59689367        7       0.00000000       0.00000000       0.00000000       0.00000000       0.00153747       0.00294579       0.42343874       0.00426165      -0.01117860       0.67883908
Cu       3.62881816       5.13439800      12.59935624        7       0.00000000       0.00000000       0.00000000       0.00000000       0.00315459      -0.00237382       0.41353843       0.00442452       0.00956139       0.67696286
Cu      -0.00007115       7.70138433      12.59836164        7       0.00000000       0.00000000       0.00000000       0.00000000       0.00019302      -0.00676376       0.41725205       0.00379415       0.00201164       0.68313951
Cu       3.62936263       7.70074990      12.59953804        7       0.00000000       0.00000000       0.00000000       0.00000000       0.00153043      -0.00113798       0.41318645       0.00069404       0.00399777       0.65490432
Cu       1.81500000       1.28339881      13.89700000        6       0.00000000       0.00000000       0.00000000       0.00000000      -0.00246142      -0.00126101      -0.17829908       0.00009315       0.01300231      -0.17986059
Cu       5.44500000       1.28339881      13.89700000        6       0.00000000       0.00000000       0.00000000       0.00000000       0.00331907      -0.00088895      -0.18028805       0.00266331       0.01720443      -0.17947955
Cu       1.81500000       3.85019642      13.89700000        6       0.00000000       0.00000000       0.00000000       0.00000000      -0.00313913       0.00194142      -0.17643421      -0.01169089      -0.01284464      -0.17853130
Cu       5.44500000       3.85019642      13.89700000        6       0.00000000       0.00000000       0.00000000       0.00000000       0.00203186       0.00138981      -0.17817199       0.01230943      -0.01035365      -0.17815401
Cu       1.81500000       6.41699404      13.89700000        6       0.00000000       0.00000000       0.00000000       0.00000000      -0.00581862      -0.00059563      -0.17377469       0.00381644      -0.00284339      -0.16264202
Cu       5.44500000       6.41699404      13.89700000        6       0.00000000       0.00000000       0.00000000       0.00000000       0.00297185      -0.00069911      -0.17500980      -0.00812111      -0.00632124      -0.16126479
Cu       1.81500000       8.98379165      13.89700000        6       0.00000000       0.00000000       0.00000000       0.00000000      -0.00154084       0.00053551      -0.17360904       0.00977012       0.00620158      -0.16692684
Cu       5.44500000       8.98379165      13.89700000        6       0.00000000       0.00000000       0.00000000       0.00000000       0.00066255       0.00081423      -0.17500788      -0.00948846       0.00419054      -0.16282353
Cu       0.00000000       0.00000000      15.19600000        5       0.00000000       0.00000000       0.00000000       0.00000000       0.00021243       0.00059097      -0.19187055       0.00200408       0.02724226      -0.08636675
Cu       3.63000000       0.00000000      15.19600000        5       0.00000000       0.00000000       0.00000000       0.00000000      -0.00011050      -0.00014670      -0.25461776      -0.00081968      -0.00579851      -0.15297280
Cu       0.00000000       2.56679762      15.19600000        5       0.00000000       0.00000000       0.00000000       0.00000000       0.00004872       0.00014753      -0.29541027       0.00008510      -0.00462480      -0.15766256
Cu       3.63000000       2.56679762      15.19600000        5       0.00000000       0.00000000       0.00000000       0.00000000       0.00017466       0.00025569      -0.25507050       0.00027975       0.00569439      -0.18533221
Cu       0.00000000       5.13359523      15.19600000        5       0.00000000       0.00000000       0.00000000       0.00000000      -0.00014161       0.00110793      -0.17818187      -0.00203750      -0.01388869      -0.06304591
Cu       3.63000000       5.13359523      15.19600000        5       0.00000000       0.00000000       0.00000000       0.00000000       0.00023213       0.00097673      -0.24605226       0.00140754       0.01365094      -0.12493310
Cu       0.00000000       7.70039285      15.19600000        5       0.00000000       0.00000000       0.00000000       0.00000000       0.00009970      -0.00048701      -0.23835327       0.00098607      -0.00152833      -0.15309872
Cu       3.63000000       7.70039285      15.19600000        5       0.00000000       0.00000000       0.00000000       0.00000000       0.00008192      -0.00093302      -0.24174196       0.00018054      -0.00536836      -0.14119993
Cu       1.81500000       1.28339881      16.49500000        4       0.00000000       0.00000000       0.00000000       0.00000000      -0.00133813      -0.02138125      -0.37622213       0.00016925       0.00414662      -0.45033402
Cu       5.44500000       1.28339881      16.49500000        4       0.00000000       0.00000000       0.00000000       0.00000000       0.01010472      -0.02531666      -0.37865269       0.01028815       0.00140139      -0.44996075
Cu       1.81500000       3.85019642      16.49500000        4       0.00000000       0.00000000       0.00000000       0.00000000      -0.00567597       0.02575148      -0.38429260      -0.00705114      -0.01035751      -0.45283983
Cu       5.44500000       3.85019642      16.49500000        4       0.00000000       0.00000000       0.00000000       0.00000000       0.01670741       0.02755879      -0.36921811       0.02164768      -0.01027582      -0.43366382
Cu       1.81500000       6.41699404      16.49500000        4       0.00000000       0.00000000       0.00000000       0.00000000      -0.02339864      -0.01711700      -0.35815562      -0.02986247       0.00079401      -0.40476746
Cu       5.44500000       6.41699404      16.49500000        4       0.00000000       0.00000000       0.00000000       0.00000000       0.03455620      -0.01750500      -0.34866026       0.04042998       0.00049456      -0.38984998
Cu       1.81500000       8.98379165      16.49500000        4       0.00000000       0.00000000       0.00000000       0.00000000      -0.01901416       0.00243212      -0.37367758      -0.02566441      -0.01631399      -0.42380879
Cu       5.44500000       8.98379165      16.49500000        4       0.00000000       0.00000000       0.00000000       0.00000000       0.02800231       0.00537876      -0.37882485       0.03427533      -0.01403816      -0.42300429
Cu       0.00073310      -0.00448736      17.72358311        3       0.00000000      -0.00010196       0.00516212       0.06841243      -0.00010231       0.00503394       0.07309809       0.00179619       0.01493314       0.12516424
Cu       3.63091946      -0.00366305      17.69048204        3       0.00000000      -0.00008467       0.00820418       0.07307166      -0.00000088       0.00981996       0.07368551       0.00418306       0.02308433       0.09448919
Cu       0.00001358       2.56420972      17.67537521        3       0.00000000       0.00015212       0.00628098       0.06803160       0.00022094       0.00741686       0.06788930       0.00040479      -0.01465752       0.10019264
Cu       3.63251886       2.56617086      17.68978997        3       0.00000000       0.00006087      -0.00296791       0.08004399      -0.00022450      -0.00386054       0.08323682      -0.00387344       0.00476345       0.06834095
Cu       0.00120285       5.12750063      17.73104173        3       0.00000000       0.00013820       0.00058648       0.06427469      -0.00004810       0.00054276       0.06794487       0.00276819       0.02812633       0.16219546
Cu       3.63200269       5.13279720      17.69177441        3       0.00000000       0.00069966      -0.00088617       0.07406719       0.00042705      -0.00088652       0.07532795      -0.00220449      -0.01847705       0.06933144
Cu       0.00013045       7.69487061      17.69969175        3       0.00000000       0.00033457       0.00135418       0.05215175       0.00040345       0.00131056       0.05151725       0.00522405       0.00413928       0.03308755
Cu       3.63219788       7.69281843      17.69423144        3       0.00000000       0.00010360       0.00393417       0.06734671      -0.00011202       0.00449470       0.06832870       0.00115754      -0.01759186       0.04945918
Cu       1.82670358       1.27358154      18.99312791        2       0.00000000       0.00361108       0.00165291       0.13096964       0.00353755       0.00049239       0.13416602      -0.01167408       0.06695330      -0.00594444
Cu       5.43695791       1.27342035      18.99403071        2       0.00000000      -0.00396300       0.00284457       0.12926790      -0.00390571       0.00180217       0.13225739       0.00929896       0.07030393      -0.00398341
Cu       1.82345440       3.84649023      18.98899491        2       0.00000000       0.00404327      -0.00554580       0.12450669       0.00266902      -0.00525274       0.12782357       0.00878140      -0.05798931       0.00817428
Cu       5.44434707       3.85045509      18.99825729        2       0.00000000      -0.00302104      -0.00565061       0.12432032      -0.00206751      -0.00569652       0.12701125      -0.01298412      -0.06276724       0.02801366
Cu       1.81140291       6.40755053      18.99719487        2       0.00000000       0.01798865      -0.00290374       0.10920980       0.02046726      -0.00372950       0.11040127       0.02250000       0.05613569      -0.00584203
Cu       5.45576007       6.40136130      19.00368836        2       0.00000000      -0.01751018      -0.00221627       0.10877788      -0.02034143      -0.00276807       0.10916709      -0.02316207       0.05935173      -0.01247668
Cu       1.82618702       8.98173148      18.98582535        2       0.00000000       0.00795316       0.00032303       0.11658834       0.00851408      -0.00058847       0.11826583       0.04295913      -0.08322083      -0.00897614
Cu       5.43759986       8.98191838      18.98554821        2       0.00000000      -0.00800343      -0.00043271       0.11495272      -0.00849401      -0.00173539       0.11645568      -0.04058779      -0.08318229      -0.00261439
Cu       0.00628280       0.04405888      20.20065853        1       0.00000000      -0.00150867      -0.01490322       0.14251785      -0.00121756      -0.01747399       0.14026274       0.01307500       0.16404253      -0.43276555
Cu       3.63140647      -0.01413346      20.15640778        1       0.00000000      -0.00015215       0.01345306       0.14098920      -0.00028584       0.01481363       0.14096840      -0.00590927       0.02472139      -0.12585967
Cu       0.00144977       2.55315486      20.09529741        1       0.00000000       0.00110672      -0.01293486       0.14508630       0.00126239      -0.01583875       0.14775614       0.00797728      -0.02057734      -0.02328682
Cu       3.63167865       2.56168690      20.14916760        1       0.00000000      -0.00070211      -0.00098518       0.14985259      -0.00085552      -0.00122332       0.15095710       0.00857831       0.00090554      -0.06356242
Cu       0.01446647       5.10195746      20.22962256        1       0.00000000      -0.00035845      -0.02132803       0.13325281      -0.00106420      -0.02322139       0.13647589       0.00868017       0.00862903      -0.39482097
Cu       3.62996117       5.12536818      20.14903418        1       0.00000000      -0.00098132       0.00150579       0.14768456      -0.00073784       0.00237801       0.15095227       0.00213087      -0.01052749      -0.09235311
Cu       0.00047221       7.70988236      20.15597230        1       0.00000000       0.00094618      -0.00409860       0.14047882       0.00107813      -0.00824042       0.14191859       0.00081821       0.07814464       0.11051457
Cu       3.63402583       7.68438309      20.15165946        1       0.00000000      -0.00178916       0.00854080       0.13766532      -0.00247488       0.01017545       0.13957748      -0.01246105       0.01169956      -0.11013556
O       -0.02429160       9.75277189      22.05634516        0       0.00000000      -0.01082600       0.03199805       0.07652903      -0.01425968       0.00745505       0.09225323      -0.06078784      -0.40376178       0.75873342
C       -0.08640272       8.48777911      22.01876002        0       0.00000000      -0.00630129       0.01513456       0.06450245      -0.00531185       0.03312714       0.05630851       0.01128416      -0.03839960       0.33095413
O       -0.18911821       7.61330556      22.88103463        0       0.00000000      -0.01147697       0.01103674       0.04266199      -0.01051393       0.00795903       0.04083524      -0.04337313       0.03071019       0.25905299
H       -0.01769422       5.95598193      22.56820314        0       0.00000000       0.02773490       0.02521443       0.01234838       0.02874298      -0.00785534       0.01051588       0.04263193      -0.00524292      -0.56957727
O        0.15601636       5.03270893      22.21640030        0       0.50000000       0.00364629      -0.03656517       0.03023588      -0.00020488      -0.01686346       0.03976009      -0.00172958       0.13871409       0.02859342
H       -0.53315133       4.44417354      22.57014172        0       0.50000000      -0.03808848       0.01368934       0.01471554      -0.03603079       0.02690367       0.01870782      -0.03206393       0.03892371       0.10753382
62
Lattice="7.26 0.0 0.0 0.0 10.26719046282867 0.0 0.0 0.0 30.392" Properties=species:S:1:pos:R:3:tags:I:1:initial_magmoms:R:1:MACE_forces:R:3:forces:R:3:DFT_forces:R:3 MACE_energy=-252.09124564000663 energy=-252.087500241033 stress="0.0044975561111709125 8.810443933857045e-07 0.00010728813243967474 8.810443933857045e-07 0.006489355393789003 -5.9733471431731176e-05 0.00010728813243967474 -5.9733471431731176e-05 -0.0008584545804065417" free_energy=-252.087500241033 DFT_energy=-257.58352356 pbc="T T T"
Cu       0.00033949      -0.00174187      12.59832408        7       0.00000000       0.00000000       0.00000000       0.00000000      -0.00070913       0.00998676       0.41835467       0.00004800       0.02073862       0.67540927
Cu       3.62961954      -0.00066879      12.59861168        7       0.00000000       0.00000000       0.00000000       0.00000000       0.00090900       0.00364844       0.41590338       0.00024056      -0.00613335       0.67185550
Cu       0.00101862       2.56771771      12.59716078        7       0.00000000       0.00000000       0.00000000       0.00000000      -0.00267556      -0.00613596       0.41962782      -0.00316940      -0.00558629       0.67751755
Cu       3.62969450       2.56712490      12.59897555        7       0.00000000       0.00000000       0.00000000       0.00000000       0.00042427      -0.00121001       0.41446946       0.00035638      -0.00176128       0.66213769
Cu      -0.00047342       5.13341180      12.59689367        7       0.00000000       0.00000000       0.00000000       0.00000000       0.00153747       0.00294579       0.42343874       0.00426319      -0.01128942       0.67888082
Cu       3.62881816       5.13439800      12.59935624        7       0.00000000       0.00000000       0.00000000       0.00000000       0.00315459      -0.00237382       0.41353843       0.00437190       0.00924984       0.67705338
Cu      -0.00007115       7.70138433      12.59836164        7       0.00000000       0.00000000       0.00000000       0.00000000       0.00019302      -0.00676376       0.41725205       0.00389663       0.00167801       0.68322651
Cu       3.62936263       7.70074990      12.59953804        7       0.00000000       0.00000000       0.00000000       0.00000000       0.00153043      -0.00113798       0.41318645       0.00060626       0.00377742       0.65490038
Cu       1.81500000       1.28339881      13.89700000        6       0.00000000       0.00000000       0.00000000       0.00000000      -0.00246142      -0.00126101      -0.17829908       0.00013481       0.01268722      -0.17989972
Cu       5.44500000       1.28339881      13.89700000        6       0.00000000       0.00000000       0.00000000       0.00000000       0.00331907      -0.00088895      -0.18028805       0.00264377       0.01694942      -0.17949585
Cu       1.81500000       3.85019642      13.89700000        6       0.00000000       0.00000000       0.00000000       0.00000000      -0.00313913       0.00194142      -0.17643421      -0.01169047      -0.01324042      -0.17867370
Cu       5.44500000       3.85019642      13.89700000        6       0.00000000       0.00000000       0.00000000       0.00000000       0.00203186       0.00138981      -0.17817199       0.01227345      -0.01058518      -0.17821110
Cu       1.81500000       6.41699404      13.89700000        6       0.00000000       0.00000000       0.00000000       0.00000000      -0.00581862      -0.00059563      -0.17377469       0.00372128      -0.00295216      -0.16273541
Cu       5.44500000       6.41699404      13.89700000        6       0.00000000       0.00000000       0.00000000       0.00000000       0.00297185      -0.00069911      -0.17500980      -0.00815354      -0.00666566      -0.16133174
Cu       1.81500000       8.98379165      13.89700000        6       0.00000000       0.00000000       0.00000000       0.00000000      -0.00154084       0.00053551      -0.17360904       0.00977531       0.00588487      -0.16713829
Cu       5.44500000       8.98379165      13.89700000        6       0.00000000       0.00000000       0.00000000       0.00000000       0.00066255       0.00081423      -0.17500788      -0.00957975       0.00387305      -0.16283730
Cu       0.00000000       0.00000000      15.19600000        5       0.00000000       0.00000000       0.00000000       0.00000000       0.00021243       0.00059097      -0.19187055       0.00200932       0.02683279      -0.08788068
Cu       3.63000000       0.00000000      15.19600000        5       0.00000000       0.00000000       0.00000000       0.00000000      -0.00011050      -0.00014670      -0.25461776      -0.00093890      -0.00609211      -0.15357214
Cu       0.00000000       2.56679762      15.19600000        5       0.00000000       0.00000000       0.00000000       0.00000000       0.00004872       0.00014753      -0.29541027      -0.00003085      -0.00506988      -0.15835528
Cu       3.63000000       2.56679762      15.19600000        5       0.00000000       0.00000000       0.00000000       0.00000000       0.00017466       0.00025569      -0.25507050       0.00029611       0.00540119      -0.18629188
Cu       0.00000000       5.13359523      15.19600000        5       0.00000000       0.00000000       0.00000000       0.00000000      -0.00014161       0.00110793      -0.17818187      -0.00223503      -0.01417289      -0.06447473
Cu       3.63000000       5.13359523      15.19600000        5       0.00000000       0.00000000       0.00000000       0.00000000       0.00023213       0.00097673      -0.24605226       0.00144369       0.01323741      -0.12575966
Cu       0.00000000       7.70039285      15.19600000        5       0.00000000       0.00000000       0.00000000       0.00000000       0.00009970      -0.00048701      -0.23835327       0.00099194      -0.00195620      -0.15363784
Cu       3.63000000       7.70039285      15.19600000        5       0.00000000       0.00000000       0.00000000       0.00000000       0.00008192      -0.00093302      -0.24174196       0.00014548      -0.00585877      -0.14173061
Cu       1.81500000       1.28339881      16.49500000        4       0.00000000       0.00000000       0.00000000       0.00000000      -0.00133813      -0.02138125      -0.37622213       0.00075641       0.00538616      -0.45200397
Cu       5.44500000       1.28339881      16.49500000        4       0.00000000       0.00000000       0.00000000       0.00000000       0.01010472      -0.02531666      -0.37865269       0.01024537       0.00255864      -0.45179593
Cu       1.81500000       3.85019642      16.49500000        4       0.00000000       0.00000000       0.00000000       0.00000000      -0.00567597       0.02575148      -0.38429260      -0.00668950      -0.00934392      -0.45496198
Cu       5.44500000       3.85019642      16.49500000        4       0.00000000       0.00000000       0.00000000       0.00000000       0.01670741       0.02755879      -0.36921811       0.02193101      -0.00920568      -0.43568682
Cu       1.81500000       6.41699404      16.49500000        4       0.00000000       0.00000000       0.00000000       0.00000000      -0.02339864      -0.01711700      -0.35815562      -0.02962372       0.00220599      -0.40653399
Cu       5.44500000       6.41699404      16.49500000        4       0.00000000       0.00000000       0.00000000       0.00000000       0.03455620      -0.01750500      -0.34866026       0.04058894       0.00199398      -0.39138606
Cu       1.81500000       8.98379165      16.49500000        4       0.00000000       0.00000000       0.00000000       0.00000000      -0.01901416       0.00243212      -0.37367758      -0.02517881      -0.01549476      -0.42547416
Cu       5.44500000       8.98379165      16.49500000        4       0.00000000       0.00000000       0.00000000       0.00000000       0.02800231       0.00537876      -0.37882485       0.03398726      -0.01311252      -0.42452897
Cu       0.00077717      -0.00365980      17.72298135        3       0.00000000      -0.00009762       0.00512297       0.06967477      -0.00010231       0.00503394       0.07309809       0.00185228       0.01537636       0.12675257
Cu       3.63094536      -0.00285265      17.69027916        3       0.00000000      -0.00006170       0.00856958       0.07319962      -0.00000088       0.00981996       0.07368551       0.00454568       0.02399455       0.09440590
Cu       0.00003654       2.56491739      17.67511790        3       0.00000000       0.00017481       0.00653380       0.06810261       0.00022094       0.00741686       0.06788930       0.00027507      -0.01354802       0.10084223
Cu       3.63258618       2.56708847      17.68940038        3       0.00000000      -0.00003002      -0.00315951       0.08089556      -0.00022450      -0.00386054       0.08323682      -0.00423006       0.00524248       0.06944048
Cu       0.00126538       5.12830867      17.73039814        3       0.00000000       0.00008103       0.00062324       0.06551119      -0.00004810       0.00054276       0.06794487       0.00266297       0.02808859       0.16411743
Cu       3.63206493       5.13375211      17.69143866        3       0.00000000       0.00060233      -0.00095729       0.07444639       0.00042705      -0.00088652       0.07532795      -0.00262751      -0.01760262       0.06899423
Cu       0.00015101       7.69573267      17.69943448        3       0.00000000       0.00035954       0.00129596       0.05213632       0.00040345       0.00131056       0.05151725       0.00542242       0.00472451       0.03296740
Cu       3.63227656       7.69363681      17.69402082        3       0.00000000       0.00002450       0.00410638       0.06767291      -0.00011202       0.00449470       0.06832870       0.00144020      -0.01681832       0.04985535
Cu       1.82692025       1.27570888      18.99265476        2       0.00000000       0.00360457       0.00135152       0.13188327       0.00353755       0.00049239       0.13416602      -0.01141058       0.06764640      -0.00425087
Cu       5.43691775       1.27554937      18.99350805        2       0.00000000      -0.00395391       0.00257340       0.13012359      -0.00390571       0.00180217       0.13225739       0.00869092       0.07054691      -0.00326494
Cu       1.82373518       3.84845434      18.98845832        2       0.00000000       0.00364336      -0.00545392       0.12556875       0.00266902      -0.00525274       0.12782357       0.00803398      -0.05769826       0.00979975
Cu       5.44430967       3.85253163      18.99786276        2       0.00000000      -0.00277090      -0.00567617       0.12517965      -0.00206751      -0.00569652       0.12701125      -0.01301359      -0.06129897       0.02974090
Cu       1.81136088       6.40979779      18.99679745        2       0.00000000       0.01863807      -0.00321383       0.10965311       0.02046726      -0.00372950       0.11040127       0.02320337       0.05602258      -0.00611888
Cu       5.45603330       6.40337497      19.00337352        2       0.00000000      -0.01829243      -0.00243288       0.10894462      -0.02034143      -0.00276807       0.10916709      -0.02376747       0.05856858      -0.01276204
Cu       1.82640414       8.98384979      18.98555420        2       0.00000000       0.00812434       0.00002476       0.11714543       0.00851408      -0.00058847       0.11826583       0.04365197      -0.08273238      -0.00815027
Cu       5.43755911       8.98401376      18.98517492        2       0.00000000      -0.00814101      -0.00084665       0.11546362      -0.00849401      -0.00173539       0.11645568      -0.04076735      -0.08290070      -0.00195730
Cu       0.00653824       0.04748820      20.19950920        1       0.00000000      -0.00144345      -0.01611689       0.14304747      -0.00121756      -0.01747399       0.14026274       0.01429082       0.16198130      -0.43297074
Cu       3.63152981      -0.01198562      20.15619691        1       0.00000000      -0.00019552       0.01380110       0.14115521      -0.00028584       0.01481363       0.14096840      -0.00670679       0.02386039      -0.12665159
Cu       0.00152346       2.55636484      20.09479113        1       0.00000000       0.00114930      -0.01376865       0.14595851       0.00126239      -0.01583875       0.14775614       0.00804159      -0.02178325      -0.02354691
Cu       3.63180730       2.56386281      20.14878759        1       0.00000000      -0.00075118      -0.00098996       0.15037888      -0.00085552      -0.00122332       0.15095710       0.00908674       0.00202799      -0.06356402
Cu       0.01495110       5.10509708      20.22845274        1       0.00000000      -0.00057478      -0.02185774       0.13440495      -0.00106420      -0.02322139       0.13647589       0.00860053       0.00616802      -0.39444767
Cu       3.62993399       5.12756841      20.14844104        1       0.00000000      -0.00090529       0.00169499       0.14877418      -0.00073784       0.00237801       0.15095227       0.00225940      -0.01000114      -0.09192390
Cu       0.00052832       7.71340850      20.15535238        1       0.00000000       0.00097452      -0.00509113       0.14138413       0.00107813      -0.00824042       0.14191859       0.00059217       0.07655080       0.11276674
Cu       3.63424644       7.68640452      20.15131638        1       0.00000000      -0.00200807       0.00900515       0.13837865      -0.00247488       0.01017545       0.13957748      -0.01320523       0.01183682      -0.10998347
O       -0.02682214       9.75715299      22.05505704        0       0.00000000      -0.01170531       0.02610338       0.07987695      -0.01425968       0.00745505       0.09225323      -0.06475869      -0.41153466       0.76219521
C       -0.09280170       8.49223901      22.01758100        0       0.00000000      -0.00625337       0.01894452       0.06325092      -0.00531185       0.03312714       0.05630851       0.01390912      -0.04124318       0.33147529
O       -0.20221987       7.61828334      22.87955100        0       0.00000000      -0.01111346       0.00984716       0.04119673      -0.01051393       0.00795903       0.04083524      -0.04481027       0.03666514       0.26344936
H       -0.02412570       5.96137860      22.56625206        0       0.00000000       0.02792918       0.01568519       0.01195662       0.02874298      -0.00785534       0.01051588       0.04383400       0.00250275      -0.57140804
O        0.15678496       5.03905443      22.21486562        0       0.50000000       0.00249840      -0.03092244       0.03333185      -0.00020488      -0.01686346       0.03976009      -0.00114488       0.12787361       0.02835159
H       -0.52726782       4.44447023      22.56855862        0       0.50000000      -0.03738644       0.01754679       0.01593669      -0.03603079       0.02690367       0.01870782      -0.03138788       0.04354961       0.10926293
62
Lattice="7.26 0.0 0.0 0.0 10.26719046282867 0.0 0.0 0.0 30.392" Properties=species:S:1:pos:R:3:tags:I:1:initial_magmoms:R:1:MACE_forces:R:3:forces:R:3:DFT_forces:R:3 MACE_energy=-252.08943883734034 energy=-252.087500241033 stress="0.0044975561111709125 8.810443933857045e-07 0.00010728813243967474 8.810443933857045e-07 0.006489355393789003 -5.9733471431731176e-05 0.00010728813243967474 -5.9733471431731176e-05 -0.0008584545804065417" free_energy=-252.087500241033 DFT_energy=-257.58158318 pbc="T T T"
Cu       0.00033949      -0.00174187      12.59832408        7       0.00000000       0.00000000       0.00000000       0.00000000      -0.00070913       0.00998676       0.41835467       0.00006093       0.02040303       0.67554267
Cu       3.62961954      -0.00066879      12.59861168        7       0.00000000       0.00000000       0.00000000       0.00000000       0.00090900       0.00364844       0.41590338       0.00024733      -0.00637570       0.67198014
Cu       0.00101862       2.56771771      12.59716078        7       0.00000000       0.00000000       0.00000000       0.00000000      -0.00267556      -0.00613596       0.41962782      -0.00314784      -0.00589936       0.67766398
Cu       3.62969450       2.56712490      12.59897555        7       0.00000000       0.00000000       0.00000000       0.00000000       0.00042427      -0.00121001       0.41446946       0.00029867      -0.00205049       0.66218181
Cu      -0.00047342       5.13341180      12.59689367        7       0.00000000       0.00000000       0.00000000       0.00000000       0.00153747       0.00294579       0.42343874       0.00432030      -0.01143916       0.67897130
Cu       3.62881816       5.13439800      12.59935624        7       0.00000000       0.00000000       0.00000000       0.00000000       0.00315459      -0.00237382       0.41353843       0.00436750       0.00887661       0.67720676
Cu      -0.00007115       7.70138433      12.59836164        7       0.00000000       0.00000000       0.00000000       0.00000000       0.00019302      -0.00676376       0.41725205       0.00404932       0.00125893       0.68334596
Cu       3.62936263       7.70074990      12.59953804        7       0.00000000       0.00000000       0.00000000       0.00000000       0.00153043      -0.00113798       0.41318645       0.00057644       0.00349569       0.65502599
Cu       1.81500000       1.28339881      13.89700000        6       0.00000000       0.00000000       0.00000000       0.00000000      -0.00246142      -0.00126101      -0.17829908       0.00021955       0.01232074      -0.17982069
Cu       5.44500000       1.28339881      13.89700000        6       0.00000000       0.00000000       0.00000000       0.00000000       0.00331907      -0.00088895      -0.18028805       0.00268632       0.01664082      -0.17940096
Cu       1.81500000       3.85019642      13.89700000        6       0.00000000       0.00000000       0.00000000       0.00000000      -0.00313913       0.00194142      -0.17643421      -0.01163328      -0.01369779      -0.17871354
Cu       5.44500000       3.85019642      13.89700000        6       0.00000000       0.00000000       0.00000000       0.00000000       0.00203186       0.00138981      -0.17817199       0.01229012      -0.01088618      -0.17816091
Cu       1.81500000       6.41699404      13.89700000        6       0.00000000       0.00000000       0.00000000       0.00000000      -0.00581862      -0.00059563      -0.17377469       0.00370404      -0.00312140      -0.16272293
Cu       5.44500000       6.41699404      13.89700000        6       0.00000000       0.00000000       0.00000000       0.00000000       0.00297185      -0.00069911      -0.17500980      -0.00815321      -0.00706635      -0.16129003
Cu       1.81500000       8.98379165      13.89700000        6       0.00000000       0.00000000       0.00000000       0.00000000      -0.00154084       0.00053551      -0.17360904       0.00983438       0.00552022      -0.16721036
Cu       5.44500000       8.98379165      13.89700000        6       0.00000000       0.00000000       0.00000000       0.00000000       0.00066255       0.00081423      -0.17500788      -0.00961073       0.00351718      -0.16271307
Cu       0.00000000       0.00000000      15.19600000        5       0.00000000       0.00000000       0.00000000       0.00000000       0.00021243       0.00059097      -0.19187055       0.00206637       0.02638547      -0.08939948
Cu       3.63000000       0.00000000      15.19600000        5       0.00000000       0.00000000       0.00000000       0.00000000      -0.00011050      -0.00014670      -0.25461776      -0.00100170      -0.00644153      -0.15403393
Cu       0.00000000       2.56679762      15.19600000        5       0.00000000       0.00000000       0.00000000       0.00000000       0.00004872       0.00014753      -0.29541027      -0.00009357      -0.00556265      -0.15882266
Cu       3.63000000       2.56679762      15.19600000        5       0.00000000       0.00000000       0.00000000       0.00000000       0.00017466       0.00025569      -0.25507050       0.00036615       0.00505258      -0.18735611
Cu       0.00000000       5.13359523      15.19600000        5       0.00000000       0.00000000       0.00000000       0.00000000      -0.00014161       0.00110793      -0.17818187      -0.00237611      -0.01454896      -0.06571422
Cu       3.63000000       5.13359523      15.19600000        5       0.00000000       0.00000000       0.00000000       0.00000000       0.00023213       0.00097673      -0.24605226       0.00153222       0.01279984      -0.12652820
Cu       0.00000000       7.70039285      15.19600000        5       0.00000000       0.00000000       0.00000000       0.00000000       0.00009970      -0.00048701      -0.23835327       0.00105475      -0.00242851      -0.15378750
Cu       3.63000000       7.70039285      15.19600000        5       0.00000000       0.00000000       0.00000000       0.00000000       0.00008192      -0.00093302      -0.24174196       0.00016421      -0.00639181      -0.14201683
Cu       1.81500000       1.28339881      16.49500000        4       0.00000000       0.00000000       0.00000000       0.00000000      -0.00133813      -0.02138125      -0.37622213       0.00147601       0.00651009      -0.45366465
Cu       5.44500000       1.28339881      16.49500000        4       0.00000000       0.00000000       0.00000000       0.00000000       0.01010472      -0.02531666      -0.37865269       0.01018492       0.00358867      -0.45359113
Cu       1.81500000       3.85019642      16.49500000        4       0.00000000       0.00000000       0.00000000       0.00000000      -0.00567597       0.02575148      -0.38429260      -0.00647934      -0.00838189      -0.45695592
Cu       5.44500000       3.85019642      16.49500000        4       0.00000000       0.00000000       0.00000000       0.00000000       0.01670741       0.02755879      -0.36921811       0.02246987      -0.00816230      -0.43757774
Cu       1.81500000       6.41699404      16.49500000        4       0.00000000       0.00000000       0.00000000       0.00000000      -0.02339864      -0.01711700      -0.35815562      -0.02948917       0.00358715      -0.40789614
Cu       5.44500000       6.41699404      16.49500000        4       0.00000000       0.00000000       0.00000000       0.00000000       0.03455620      -0.01750500      -0.34866026       0.04094530       0.00345243      -0.39251383
Cu       1.81500000       8.98379165      16.49500000        4       0.00000000       0.00000000       0.00000000       0.00000000      -0.01901416       0.00243212      -0.37367758      -0.02471948      -0.01494493      -0.42685177
Cu       5.44500000       8.98379165      16.49500000        4       0.00000000       0.00000000       0.00000000       0.00000000       0.02800231       0.00537876      -0.37882485       0.03382312      -0.01245212      -0.42573191
Cu       0.00082357      -0.00285949      17.72236645        3       0.00000000      -0.00010660       0.00508708       0.07171805      -0.00010231       0.00503394       0.07309809       0.00203366       0.01568291       0.12959503
Cu       3.63097057      -0.00213335      17.69008457        3       0.00000000      -0.00002521       0.00942644       0.07355939      -0.00000088       0.00981996       0.07368551       0.00477842       0.02539503       0.09467387
Cu       0.00005796       2.56554940      17.67490947        3       0.00000000       0.00019528       0.00715699       0.06784284       0.00022094       0.00741686       0.06788930       0.00020228      -0.01264290       0.10074889
Cu       3.63265472       2.56804251      17.68894510        3       0.00000000      -0.00012761      -0.00365003       0.08235130      -0.00022450      -0.00386054       0.08323682      -0.00468813       0.00556101       0.07029704
Cu       0.00132863       5.12909572      17.72980382        3       0.00000000       0.00001671       0.00051679       0.06661351      -0.00004810       0.00054276       0.06794487       0.00324828       0.02837006       0.16589914
Cu       3.63212119       5.13471080      17.69110113        3       0.00000000       0.00052874      -0.00082910       0.07495784       0.00042705      -0.00088652       0.07532795      -0.00267861      -0.01682504       0.07054344
Cu       0.00016951       7.69657126      17.69931823        3       0.00000000       0.00037957       0.00137679       0.05159169       0.00040345       0.00131056       0.05151725       0.00575473       0.00510957       0.03256241
Cu       3.63235443       7.69440890      17.69386814        3       0.00000000      -0.00003383       0.00432124       0.06797802      -0.00011202       0.00449470       0.06832870       0.00134781      -0.01629809       0.05033014
Cu       1.82714571       1.27786405      18.99212518        2       0.00000000       0.00351948       0.00081258       0.13323524       0.00353755       0.00049239       0.13416602      -0.01108363       0.06753239      -0.00166719
Cu       5.43687167       1.27769580      18.99294157        2       0.00000000      -0.00389207       0.00208912       0.13138428      -0.00390571       0.00180217       0.13225739       0.00809919       0.07069213      -0.00134547
Cu       1.82403174       3.85043568      18.98791650        2       0.00000000       0.00308290      -0.00536282       0.12674870       0.00266902      -0.00525274       0.12782357       0.00817865      -0.05656266       0.01184526
Cu       5.44424587       3.85462480      18.99745923        2       0.00000000      -0.00233652      -0.00570618       0.12611840      -0.00206751      -0.00569652       0.12701125      -0.01185785      -0.06106642       0.03210109
Cu       1.81120927       6.41204713      18.99648331        2       0.00000000       0.01973339      -0.00342807       0.11001657       0.02046726      -0.00372950       0.11040127       0.02472358       0.05578139      -0.00558126
Cu       5.45641147       6.40538213      19.00313727        2       0.00000000      -0.01950858      -0.00252620       0.10901902      -0.02034143      -0.00276807       0.10916709      -0.02514952       0.05776981      -0.01249162
Cu       1.82661571       8.98599075      18.98531083        2       0.00000000       0.00831782      -0.00030631       0.11772888       0.00851408      -0.00058847       0.11826583       0.04295169      -0.08245974      -0.00772584
Cu       5.43752723       8.98614317      18.98484271        2       0.00000000      -0.00833652      -0.00132486       0.11595570      -0.00849401      -0.00173539       0.11645568      -0.04040607      -0.08237620      -0.00047118
Cu       0.00680429       0.05101020      20.19864464        1       0.00000000      -0.00131872      -0.01654478       0.14046301      -0.00121756      -0.01747399       0.14026274       0.01577440       0.16068318      -0.43840223
Cu       3.63164394      -0.00991720      20.15609252        1       0.00000000      -0.00023752       0.01443631       0.14082866      -0.00028584       0.01481363       0.14096840      -0.00692573       0.02472086      -0.12754192
Cu       0.00159089       2.55971639      20.09430117        1       0.00000000       0.00122551      -0.01504966       0.14681263       0.00126239      -0.01583875       0.14775614       0.00885423      -0.02222409      -0.02389725
Cu       3.63193668       2.56603308      20.14846606        1       0.00000000      -0.00081509      -0.00120211       0.15044242      -0.00085552      -0.00122332       0.15095710       0.00915159       0.00305891      -0.06386074
Cu       0.01545149       5.10834827      20.22744548        1       0.00000000      -0.00076255      -0.02276806       0.13517692      -0.00106420      -0.02322139       0.13647589       0.00853464       0.00358328      -0.39422216
Cu       3.62989948       5.12970003      20.14784520        1       0.00000000      -0.00083946       0.00218350       0.14984756      -0.00073784       0.00237801       0.15095227       0.00221041      -0.00934694      -0.09095613
Cu       0.00057102       7.71710589      20.15493610        1       0.00000000       0.00111885      -0.00736492       0.14001759       0.00107813      -0.00824042       0.14191859       0.00030052       0.07248315       0.11276802
Cu       3.63447388       7.68831572      20.15104124        1       0.00000000      -0.00225350       0.00969774       0.13887282      -0.00247488       0.01017545       0.13957748      -0.01412679       0.01207734      -0.11017584
O       -0.02921765       9.76136337      22.05339433        0       0.00000000      -0.01297342       0.01642095       0.08676914      -0.01425968       0.00745505       0.09225323      -0.07068170      -0.42340243       0.77163009
C       -0.09914113       8.49640472      22.01656404        0       0.00000000      -0.00371819       0.04372975       0.04511766      -0.00531185       0.03312714       0.05630851       0.01185390      -0.05478980       0.34757832
O       -0.21515867       7.62336450      22.87795078        0       0.00000000      -0.01302212      -0.00675949       0.05702501      -0.01051393       0.00795903       0.04083524      -0.02507992       0.05235695       0.25151120
H       -0.03080211       5.96662003      22.56444040        0       0.00000000       0.02623729       0.00988414       0.01475980       0.02874298      -0.00785534       0.01051588       0.04629670       0.02940468      -0.59589241
O        0.15729595       5.04547502      22.21363937        0       0.50000000       0.02246644      -0.01461775       0.02263835      -0.00020488      -0.01686346       0.03976009      -0.00242668       0.12087484       0.03140134
H       -0.52079881       4.44470373      22.56698370        0       0.50000000      -0.05590281       0.00591829       0.02782236      -0.03603079       0.02690367       0.01870782      -0.04922346       0.03329849       0.12130187
62
Lattice="7.26 0.0 0.0 0.0 10.26719046282867 0.0 0.0 0.0 30.392" Properties=species:S:1:pos:R:3:tags:I:1:initial_magmoms:R:1:MACE_forces:R:3:forces:R:3:DFT_forces:R:3 MACE_energy=-252.087500241033 energy=-252.087500241033 stress="0.0044975561111709125 8.810443933857045e-07 0.00010728813243967474 8.810443933857045e-07 0.006489355393789003 -5.9733471431731176e-05 0.00010728813243967474 -5.9733471431731176e-05 -0.0008584545804065417" free_energy=-252.087500241033 DFT_energy=-257.58010889 pbc="T T T"
Cu       0.00033949      -0.00174187      12.59832408        7       0.00000000       0.00000000       0.00000000       0.00000000      -0.00070913       0.00998676       0.41835467       0.00008009       0.02018699       0.67548282
Cu       3.62961954      -0.00066879      12.59861168        7       0.00000000       0.00000000       0.00000000       0.00000000       0.00090900       0.00364844       0.41590338       0.00025337      -0.00653717       0.67191152
Cu       0.00101862       2.56771771      12.59716078        7       0.00000000       0.00000000       0.00000000       0.00000000      -0.00267556      -0.00613596       0.41962782      -0.00312580      -0.00614331       0.67762444
Cu       3.62969450       2.56712490      12.59897555        7       0.00000000       0.00000000       0.00000000       0.00000000       0.00042427      -0.00121001       0.41446946       0.00024783      -0.00225182       0.66204860
Cu      -0.00047342       5.13341180      12.59689367        7       0.00000000       0.00000000       0.00000000       0.00000000       0.00153747       0.00294579       0.42343874       0.00437940      -0.01150568       0.67894418
Cu       3.62881816       5.13439800      12.59935624        7       0.00000000       0.00000000       0.00000000       0.00000000       0.00315459      -0.00237382       0.41353843       0.00436933       0.00860435       0.67722191
Cu      -0.00007115       7.70138433      12.59836164        7       0.00000000       0.00000000       0.00000000       0.00000000       0.00019302      -0.00676376       0.41725205       0.00421089       0.00097218       0.68327269
Cu       3.62936263       7.70074990      12.59953804        7       0.00000000       0.00000000       0.00000000       0.00000000       0.00153043      -0.00113798       0.41318645       0.00055043       0.00333886       0.65502290
Cu       1.81500000       1.28339881      13.89700000        6       0.00000000       0.00000000       0.00000000       0.00000000      -0.00246142      -0.00126101      -0.17829908       0.00031987       0.01205127      -0.17995339
Cu       5.44500000       1.28339881      13.89700000        6       0.00000000       0.00000000       0.00000000       0.00000000       0.00331907      -0.00088895      -0.18028805       0.00272413       0.01643770      -0.17951996
Cu       1.81500000       3.85019642      13.89700000        6       0.00000000       0.00000000       0.00000000       0.00000000      -0.00313913       0.00194142      -0.17643421      -0.01157427      -0.01404330      -0.17895590
Cu       5.44500000       3.85019642      13.89700000        6       0.00000000       0.00000000       0.00000000       0.00000000       0.00203186       0.00138981      -0.17817199       0.01231631      -0.01107301      -0.17831620
Cu       1.81500000       6.41699404      13.89700000        6       0.00000000       0.00000000       0.00000000       0.00000000      -0.00581862      -0.00059563      -0.17377469       0.00366871      -0.00317443      -0.16293477
Cu       5.44500000       6.41699404      13.89700000        6       0.00000000       0.00000000       0.00000000       0.00000000       0.00297185      -0.00069911      -0.17500980      -0.00812538      -0.00735832      -0.16146652
Cu       1.81500000       8.98379165      13.89700000        6       0.00000000       0.00000000       0.00000000       0.00000000      -0.00154084       0.00053551      -0.17360904       0.00989550       0.00525082      -0.16752947
Cu       5.44500000       8.98379165      13.89700000        6       0.00000000       0.00000000       0.00000000       0.00000000       0.00066255       0.00081423      -0.17500788      -0.00964107       0.00324363      -0.16283874
Cu       0.00000000       0.00000000      15.19600000        5       0.00000000       0.00000000       0.00000000       0.00000000       0.00021243       0.00059097      -0.19187055       0.00213417       0.02600585      -0.09104016
Cu       3.63000000       0.00000000      15.19600000        5       0.00000000       0.00000000       0.00000000       0.00000000      -0.00011050      -0.00014670      -0.25461776      -0.00106178      -0.00667237      -0.15473229
Cu       0.00000000       2.56679762      15.19600000        5       0.00000000       0.00000000       0.00000000       0.00000000       0.00004872       0.00014753      -0.29541027      -0.00015116      -0.00596290      -0.15960672
Cu       3.63000000       2.56679762      15.19600000        5       0.00000000       0.00000000       0.00000000       0.00000000       0.00017466       0.00025569      -0.25507050       0.00044010       0.00479459      -0.18843122
Cu       0.00000000       5.13359523      15.19600000        5       0.00000000       0.00000000       0.00000000       0.00000000      -0.00014161       0.00110793      -0.17818187      -0.00251609      -0.01478232      -0.06727026
Cu       3.63000000       5.13359523      15.19600000        5       0.00000000       0.00000000       0.00000000       0.00000000       0.00023213       0.00097673      -0.24605226       0.00162966       0.01242723      -0.12745973
Cu       0.00000000       7.70039285      15.19600000        5       0.00000000       0.00000000       0.00000000       0.00000000       0.00009970      -0.00048701      -0.23835327       0.00111693      -0.00280654      -0.15441703
Cu       3.63000000       7.70039285      15.19600000        5       0.00000000       0.00000000       0.00000000       0.00000000       0.00008192      -0.00093302      -0.24174196       0.00018561      -0.00683574      -0.14263685
Cu       1.81500000       1.28339881      16.49500000        4       0.00000000       0.00000000       0.00000000       0.00000000      -0.00133813      -0.02138125      -0.37622213       0.00213179       0.00778937      -0.45546962
Cu       5.44500000       1.28339881      16.49500000        4       0.00000000       0.00000000       0.00000000       0.00000000       0.01010472      -0.02531666      -0.37865269       0.01019123       0.00478227      -0.45555328
Cu       1.81500000       3.85019642      16.49500000        4       0.00000000       0.00000000       0.00000000       0.00000000      -0.00567597       0.02575148      -0.38429260      -0.00606737      -0.00732023      -0.45920443
Cu       5.44500000       3.85019642      16.49500000        4       0.00000000       0.00000000       0.00000000       0.00000000       0.01670741       0.02755879      -0.36921811       0.02283278      -0.00704144      -0.43972623
Cu       1.81500000       6.41699404      16.49500000        4       0.00000000       0.00000000       0.00000000       0.00000000      -0.02339864      -0.01711700      -0.35815562      -0.02918934       0.00504288      -0.40977825
Cu       5.44500000       6.41699404      16.49500000        4       0.00000000       0.00000000       0.00000000       0.00000000       0.03455620      -0.01750500      -0.34866026       0.04116538       0.00500212      -0.39416755
Cu       1.81500000       8.98379165      16.49500000        4       0.00000000       0.00000000       0.00000000       0.00000000      -0.01901416       0.00243212      -0.37367758      -0.02417778      -0.01408638      -0.42864452
Cu       5.44500000       8.98379165      16.49500000        4       0.00000000       0.00000000       0.00000000       0.00000000       0.02800231       0.00537876      -0.37882485       0.03359034      -0.01148493      -0.42737609
Cu       0.00086762      -0.00203274      17.72175156        3       0.00000000      -0.00010231       0.00503394       0.07309809      -0.00010231       0.00503394       0.07309809       0.00229369       0.01604004       0.13157238
Cu       3.63099612      -0.00132784      17.68988071        3       0.00000000      -0.00000088       0.00981996       0.07368551      -0.00000088       0.00981996       0.07368551       0.00495165       0.02623550       0.09491623
Cu       0.00008066       2.56625350      17.67465222        3       0.00000000       0.00022094       0.00741686       0.06788930       0.00022094       0.00741686       0.06788930       0.00014004      -0.01214035       0.10121607
Cu       3.63272289       2.56896106      17.68854720        3       0.00000000      -0.00022450      -0.00386054       0.08323682      -0.00022450      -0.00386054       0.08323682      -0.00520343       0.00589109       0.07132170
Cu       0.00139172       5.12990228      17.72914781        3       0.00000000      -0.00004810       0.00054276       0.06794487      -0.00004810       0.00054276       0.06794487       0.00344888       0.02903649       0.16801832
Cu       3.63218434       5.13566499      17.69076212        3       0.00000000       0.00042705      -0.00088652       0.07532795       0.00042705      -0.00088652       0.07532795      -0.00260238      -0.01631163       0.07123526
Cu       0.00018991       7.69743274      17.69906213        3       0.00000000       0.00040345       0.00131056       0.05151725       0.00040345       0.00131056       0.05151725       0.00605429       0.00589953       0.03293007
Cu       3.63243372       7.69522445      17.69365444        3       0.00000000      -0.00011202       0.00449470       0.06832870      -0.00011202       0.00449470       0.06832870       0.00177540      -0.01588808       0.05089753
Cu       1.82736223       1.27999181      18.99164348        2       0.00000000       0.00353755       0.00049239       0.13416602       0.00353755       0.00049239       0.13416602      -0.01107144       0.06755844      -0.00051212
Cu       5.43683141       1.27982516      18.99241073        2       0.00000000      -0.00390571       0.00180217       0.13225739      -0.00390571       0.00180217       0.13225739       0.00829569       0.07156707       0.00009867
Cu       1.82431622       3.85239629      18.98737018        2       0.00000000       0.00266902      -0.00525274       0.12782357       0.00266902      -0.00525274       0.12782357       0.00675147      -0.05572970       0.01267711
Cu       5.44420579       3.85669857      18.99705646        2       0.00000000      -0.00206751      -0.00569652       0.12701125      -0.00206751      -0.00569652       0.12701125      -0.01166531      -0.06042744       0.03297734
Cu       1.81116014       6.41429473      18.99608304        2       0.00000000       0.02046726      -0.00372950       0.11040127       0.02046726      -0.00372950       0.11040127       0.02545704       0.05628667      -0.00526963
Cu       5.45669259       6.40739548      19.00282119        2       0.00000000      -0.02034143      -0.00276807       0.10916709      -0.02034143      -0.00276807       0.10916709      -0.02483752       0.05797273      -0.01219515
Cu       1.82683072       8.98810906      18.98503489        2       0.00000000       0.00851408      -0.00058847       0.11826583       0.00851408      -0.00058847       0.11826583       0.04277548      -0.08214930      -0.00760548
Cu       5.43748825       8.98823991      18.98446490        2       0.00000000      -0.00849401      -0.00173539       0.11645568      -0.00849401      -0.00173539       0.11645568      -0.04110778      -0.08179332      -0.00011414
Cu       0.00705828       0.05444319      20.19749989        1       0.00000000      -0.00121756      -0.01747399       0.14026274      -0.00121756      -0.01747399       0.14026274       0.01750390       0.15857882      -0.43864232
Cu       3.63176683      -0.00777579      20.15588053        1       0.00000000      -0.00028584       0.01481363       0.14096840      -0.00028584       0.01481363       0.14096840      -0.00748260       0.02546064      -0.12750215
Cu       0.00166425       2.56293050      20.09378663        1       0.00000000       0.00126239      -0.01583875       0.14775614       0.00126239      -0.01583875       0.14775614       0.00862920      -0.02104499      -0.02436602
Cu       3.63206553       2.56820649      20.14808161        1       0.00000000      -0.00085552      -0.00122332       0.15095710      -0.00085552      -0.00122332       0.15095710       0.00917237       0.00429388      -0.06374146
Cu       0.01593871       5.11148858      20.22626561        1       0.00000000      -0.00106420      -0.02322139       0.13647589      -0.00106420      -0.02322139       0.13647589       0.00804140       0.00091055      -0.39356148
Cu       3.62987100       5.13189529      20.14724203        1       0.00000000      -0.00073784       0.00237801       0.15095227      -0.00073784       0.00237801       0.15095227       0.00267053      -0.00831329      -0.09063729
Cu       0.00062681       7.72063673      20.15430274        1       0.00000000       0.00107813      -0.00824042       0.14191859       0.00107813      -0.00824042       0.14191859       0.00007132       0.07148766       0.11660717
Cu       3.63469535       7.69032968      20.15069186        1       0.00000000      -0.00247488       0.01017545       0.13957748      -0.00247488       0.01017545       0.13957748      -0.01497855       0.01295631      -0.11044878
O       -0.03173443       9.76581068      22.05205787        0       0.00000000      -0.01425968       0.00745505       0.09225323      -0.01425968       0.00745505       0.09225323      -0.07428479      -0.43437140       0.77777268
C       -0.10552044       8.50094692      22.01529425        0       0.00000000      -0.00531185       0.03312714       0.05630851      -0.00531185       0.03312714       0.05630851       0.01339490      -0.04078423       0.33211742
O       -0.22825782       7.62821761      22.87660041        0       0.00000000      -0.01051393       0.00795903       0.04083524      -0.01051393       0.00795903       0.04083524      -0.04865512       0.04884937       0.26714202
H       -0.03724142       5.97215470      22.56252399        0       0.00000000       0.02874298      -0.00785534       0.01051588       0.02874298      -0.00785534       0.01051588       0.04718197       0.01651228      -0.58165281
O        0.15824696       5.05182657      22.21196557        0       0.50000000      -0.00020488      -0.01686346       0.03976009      -0.00020488      -0.01686346       0.03976009       0.00045883       0.10180186       0.02714578
H       -0.51508818       4.44483646      22.56547413        0       0.50000000      -0.03603079       0.02690367       0.01870782      -0.03603079       0.02690367       0.01870782      -0.02998295       0.05476461       0.11310326
